0 0 379 58
1 0 160 70
2 0 275 58
3 0 21 24
4 0 244 72
5 0 353 89
6 0 69 23
7 0 51 83
8 0 261 13
9 0 143 59
10 0 149 37
11 0 250 63
12 0 119 62
13 0 342 80
14 0 326 31
15 0 142 91
16 0 68 29
17 0 133 51
18 0 282 57
19 0 78 56
20 0 376 12
21 0 64 15
22 0 345 87
23 0 266 64
24 0 79 76
25 0 24 90
26 0 252 54
27 0 309 15
28 0 335 53
29 0 93 91
30 0 122 93
31 0 355 57
32 0 344 56
33 0 163 49
34 0 192 61
35 0 137 89
36 0 3 14
37 0 313 46
38 0 319 61
39 0 279 14
40 0 301 67
41 0 121 59
42 0 89 16
43 0 361 72
44 0 332 19
45 0 249 6
46 0 125 16
47 0 190 57
48 0 114 69
49 0 299 66
50 0 272 30
51 0 29 63
52 0 112 44
53 1 222 71
54 1 232 63
55 1 177 42
56 1 87 39
57 1 375 41
58 1 100 76
59 1 73 49
60 1 265 11
61 1 164 87
62 1 122 73
63 1 259 7
64 1 58 21
65 1 2 22
66 1 25 64
67 1 393 77
68 1 300 32
69 1 372 39
70 1 241 91
71 1 369 55
72 1 332 61
73 1 318 39
74 1 118 67
75 1 174 89
76 1 185 68
77 1 252 42
78 1 16 15
79 1 46 70
80 1 295 66
81 1 151 45
82 1 134 12
83 1 262 25
84 1 101 50
85 1 3 29
86 1 31 54
87 1 290 21
88 1 50 10
89 1 186 28
90 1 301 63
91 1 353 80
92 1 38 51
93 1 240 79
94 1 274 26
95 1 132 13
96 1 68 13
97 1 57 63
98 1 99 62
99 1 21 26
100 2 270 41
101 2 181 44
102 2 262 45
103 2 175 54
104 2 357 30
105 2 356 49
106 2 376 73
107 2 300 27
108 2 267 33
109 2 247 62
110 2 174 91
111 2 151 74
112 2 258 87
113 2 334 35
114 2 333 33
115 2 161 7
116 2 256 90
117 2 59 25
118 2 171 27
119 2 9 32
120 2 389 54
121 2 93 59
122 2 358 6
123 2 152 22
124 2 380 50
125 2 49 14
126 2 114 90
127 2 168 26
128 2 198 64
129 2 269 51
130 2 75 9
131 2 383 8
132 2 119 29
133 2 74 42
134 2 18 24
135 2 54 25
136 2 283 81
137 2 96 28
138 2 154 11
139 2 391 77
140 2 53 2
141 2 60 64
142 2 48 90
143 2 41 23
144 2 396 76
145 2 79 60
146 2 10 1
147 2 312 15
148 2 14 5
149 2 8 32
150 2 304 99
151 2 352 86
152 2 317 31
153 2 212 66
154 2 38 73
155 2 381 39
156 2 194 71
157 3 228 3
158 3 133 31
159 3 111 61
160 3 386 26
161 3 297 52
162 3 214 9
163 3 94 1
164 3 378 11
165 3 141 70
166 3 115 7
167 3 295 15
168 3 26 78
169 3 329 90
170 3 175 55
171 3 63 19
172 3 293 20
173 3 290 53
174 3 136 2
175 3 211 87
176 3 398 96
177 3 213 71
178 3 229 11
179 3 377 90
180 3 30 75
181 3 383 44
182 3 13 89
183 3 254 91
184 3 58 76
185 3 341 95
186 3 238 71
187 3 130 47
188 3 218 14
189 3 154 67
190 3 343 56
191 3 28 58
192 3 0 98
193 3 198 50
194 3 304 52
195 3 217 63
196 3 369 39
197 3 247 74
198 3 236 82
199 3 242 43
200 3 363 15
201 3 120 28
202 3 40 35
203 3 179 96
204 3 314 78
205 3 362 72
206 3 176 44
207 3 349 80
208 3 354 69
209 4 351 18
210 4 140 59
211 4 210 82
212 4 361 29
213 4 166 18
214 4 222 27
215 4 219 59
216 4 370 58
217 4 381 54
218 4 86 87
219 4 264 90
220 4 213 71
221 4 138 29
222 4 83 22
223 4 346 89
224 4 378 52
225 4 67 69
226 4 267 71
227 4 280 97
228 4 88 52
229 4 395 23
230 4 287 16
231 4 136 92
232 4 143 74
233 4 97 94
234 4 50 36
235 4 55 50
236 4 40 16
237 4 326 96
238 4 198 9
239 4 337 3
240 4 173 50
241 4 238 93
242 4 59 44
243 4 259 2
244 4 295 83
245 4 340 91
246 4 388 69
247 4 202 23
248 4 299 45
249 4 377 91
250 4 165 59
251 4 45 22
252 4 293 87
253 4 24 51
254 4 106 79
255 4 156 55
256 4 109 60
257 4 273 61
258 4 80 37
259 4 235 43
260 4 248 54
261 4 301 42
262 4 117 87
263 5 258 65
264 5 198 76
265 5 26 73
266 5 390 53
267 5 255 97
268 5 25 1
269 5 294 32
270 5 85 95
271 5 120 84
272 5 155 27
273 5 185 45
274 5 38 56
275 5 2 26
276 5 260 97
277 5 231 33
278 5 279 71
279 5 108 28
280 5 359 57
281 5 24 98
282 5 326 80
283 5 183 94
284 5 158 48
285 5 59 22
286 5 286 30
287 5 290 25
288 5 131 55
289 5 330 76
290 5 322 91
291 5 325 78
292 5 73 58
293 5 129 95
294 5 34 12
295 5 369 58
296 5 348 37
297 5 210 48
298 5 72 1
299 5 97 30
300 5 246 29
301 5 354 44
302 5 48 63
303 5 93 89
304 5 75 11
305 5 256 64
306 5 190 59
307 5 98 19
308 5 316 53
309 5 162 49
310 5 169 79
311 5 165 13
312 5 206 51
313 6 144 37
314 6 229 49
315 6 311 24
316 6 78 24
317 6 45 8
318 6 43 44
319 6 133 81
320 6 139 54
321 6 88 98
322 6 363 15
323 6 245 46
324 6 398 78
325 6 1 76
326 6 354 65
327 6 52 86
328 6 359 97
329 6 283 5
330 6 330 83
331 6 303 29
332 6 328 64
333 6 212 47
334 6 318 100
335 6 91 19
336 6 308 29
337 6 115 95
338 6 242 8
339 6 337 92
340 6 82 30
341 6 204 81
342 6 346 85
343 6 256 80
344 6 253 27
345 6 332 97
346 6 298 10
347 6 103 13
348 6 122 4
349 6 150 19
350 6 296 50
351 6 380 90
352 6 261 33
353 7 21 26
354 7 303 14
355 7 376 62
356 7 54 78
357 7 205 85
358 7 13 48
359 7 110 88
360 7 130 69
361 7 315 19
362 7 166 92
363 7 375 98
364 7 330 45
365 7 42 19
366 7 316 24
367 7 203 21
368 7 347 99
369 7 69 78
370 7 51 73
371 7 363 9
372 7 389 95
373 7 245 15
374 7 104 86
375 7 214 100
376 7 74 69
377 7 297 88
378 7 186 35
379 7 170 7
380 7 265 1
381 7 380 18
382 7 385 47
383 7 9 19
384 7 183 5
385 7 219 64
386 7 313 35
387 7 122 25
388 7 162 96
389 7 5 37
390 7 85 56
391 7 91 35
392 7 178 69
393 7 94 84
394 7 44 16
395 7 181 65
396 7 34 52
397 7 3 94
398 7 133 68
399 7 119 33
400 7 56 17
401 7 345 46
402 7 167 51
403 7 355 28
404 7 350 57
405 7 317 91
406 7 90 75
407 7 344 76
408 7 378 60
409 7 242 97
410 8 83 98
411 8 325 31
412 8 246 69
413 8 137 71
414 8 317 3
415 8 54 46
416 8 179 22
417 8 77 71
418 8 303 44
419 8 339 1
420 8 143 79
421 8 81 93
422 8 306 100
423 8 252 53
424 8 32 45
425 8 348 51
426 8 267 70
427 8 251 49
428 8 305 41
429 8 194 15
430 8 59 70
431 8 68 80
432 8 51 3
433 8 140 17
434 8 212 100
435 8 221 87
436 8 327 89
437 8 173 38
438 8 141 57
439 8 250 22
440 8 288 29
441 8 292 22
442 8 257 29
443 8 280 67
444 8 237 69
445 8 136 58
446 8 355 58
447 8 373 55
448 8 242 74
449 8 238 30
450 8 149 76
451 8 1 80
452 8 41 67
453 8 202 8
454 8 398 51
455 9 381 67
456 9 55 18
457 9 136 9
458 9 99 28
459 9 11 19
460 9 157 47
461 9 132 43
462 9 177 10
463 9 87 59
464 9 72 1
465 9 282 73
466 9 179 16
467 9 267 47
468 9 304 74
469 9 342 86
470 9 307 28
471 9 139 9
472 9 119 50
473 9 191 38
474 9 385 78
475 9 283 82
476 9 354 25
477 9 185 93
478 9 286 60
479 9 5 70
480 9 374 8
481 9 355 68
482 9 103 46
483 9 109 4
484 9 1 61
485 9 320 77
486 9 233 7
487 9 215 84
488 9 343 4
489 9 351 68
490 9 362 81
491 9 263 75
492 9 189 91
493 9 197 33
494 9 158 96
495 9 368 9
496 9 170 42
497 9 156 64
498 9 126 24
499 9 182 19
500 9 61 13
501 9 114 80
502 9 376 54
503 9 31 79
504 9 10 25
505 9 301 72
506 9 213 13
507 10 202 86
508 10 295 2
509 10 333 22
510 10 390 16
511 10 326 4
512 10 258 21
513 10 236 45
514 10 375 12
515 10 229 67
516 10 23 41
517 10 281 67
518 10 124 21
519 10 398 96
520 10 4 30
521 10 1 61
522 10 80 78
523 10 352 13
524 10 307 71
525 10 246 47
526 10 389 72
527 10 49 34
528 10 27 56
529 10 98 59
530 10 180 67
531 10 20 35
532 10 15 24
533 10 305 99
534 10 383 62
535 10 289 21
536 10 152 11
537 10 44 81
538 10 256 58
539 10 218 82
540 10 327 78
541 10 50 65
542 10 19 20
543 10 367 44
544 10 106 6
545 10 230 60
546 10 197 43
547 10 336 29
548 10 312 22
549 10 207 2
550 10 324 86
551 10 201 99
552 11 334 99
553 11 132 90
554 11 48 69
555 11 205 11
556 11 81 41
557 11 102 78
558 11 290 29
559 11 312 82
560 11 277 61
561 11 34 27
562 11 310 35
563 11 358 7
564 11 169 16
565 11 82 85
566 11 246 26
567 11 46 93
568 11 367 30
569 11 340 46
570 11 208 60
571 11 249 37
572 11 7 83
573 11 10 53
574 11 260 43
575 11 387 27
576 11 189 54
577 11 286 48
578 11 191 21
579 11 73 91
580 11 172 7
581 11 330 92
582 11 92 44
583 11 139 96
584 11 362 32
585 11 220 74
586 11 162 5
587 11 221 48
588 11 125 6
589 11 33 35
590 11 173 86
591 11 242 43
592 11 234 65
593 11 350 2
594 11 145 37
595 11 66 59
596 11 301 4
597 11 294 74
598 11 99 21
599 11 272 70
600 11 324 70
601 11 67 75
602 11 218 27
603 11 36 7
604 12 388 41
605 12 325 75
606 12 101 79
607 12 91 57
608 12 344 47
609 12 349 41
610 12 362 76
611 12 61 46
612 12 323 98
613 12 72 81
614 12 141 9
615 12 66 17
616 12 297 10
617 12 194 100
618 12 213 22
619 12 254 65
620 12 228 52
621 12 129 86
622 12 78 75
623 12 340 70
624 12 5 20
625 12 310 94
626 12 275 6
627 12 270 22
628 12 88 47
629 12 223 38
630 12 207 21
631 12 105 6
632 12 243 3
633 12 145 29
634 12 250 11
635 12 90 44
636 12 104 3
637 12 384 64
638 12 184 65
639 12 369 5
640 12 195 12
641 12 370 98
642 12 169 44
643 12 337 51
644 12 162 11
645 12 151 52
646 12 204 93
647 12 155 98
648 12 46 33
649 12 14 85
650 12 236 90
651 12 119 16
652 12 389 27
653 12 149 11
654 12 245 85
655 12 343 70
656 12 85 36
657 12 299 65
658 12 246 86
659 13 375 5
660 13 377 26
661 13 150 17
662 13 223 65
663 13 21 19
664 13 317 16
665 13 316 95
666 13 103 37
667 13 24 17
668 13 171 63
669 13 81 63
670 13 200 70
671 13 290 11
672 13 336 5
673 13 179 65
674 13 62 37
675 13 40 55
676 13 243 70
677 13 345 33
678 13 277 86
679 13 398 19
680 13 269 43
681 13 101 14
682 13 185 50
683 13 134 70
684 13 236 28
685 13 278 95
686 13 195 13
687 13 79 3
688 13 208 71
689 13 385 38
690 13 202 51
691 13 108 45
692 13 315 49
693 13 247 87
694 13 271 34
695 13 314 81
696 13 363 92
697 14 49 24
698 14 208 25
699 14 322 23
700 14 171 40
701 14 91 94
702 14 351 48
703 14 239 33
704 14 149 42
705 14 17 33
706 14 252 12
707 14 97 91
708 14 176 78
709 14 79 11
710 14 188 27
711 14 274 44
712 14 288 38
713 14 196 48
714 14 204 93
715 14 37 40
716 14 223 24
717 14 62 24
718 14 195 57
719 14 10 19
720 14 185 52
721 14 393 15
722 14 120 71
723 14 116 32
724 14 248 19
725 14 42 68
726 14 109 40
727 14 243 93
728 14 237 71
729 14 145 73
730 14 249 26
731 14 28 46
732 14 264 73
733 14 157 75
734 14 73 84
735 14 129 65
736 14 341 48
737 14 143 15
738 14 163 8
739 14 162 98
740 14 381 12
741 14 72 59
742 14 38 61
743 14 311 9
744 14 43 16
745 14 283 36
746 14 295 56
747 14 234 58
748 14 294 19
749 14 316 51
750 14 303 41
751 14 140 94
752 14 353 61
753 14 337 78
754 14 300 25
755 15 187 64
756 15 237 23
757 15 256 92
758 15 260 95
759 15 344 14
760 15 157 71
761 15 84 95
762 15 311 62
763 15 154 95
764 15 19 63
765 15 111 84
766 15 80 32
767 15 297 45
768 15 193 79
769 15 268 47
770 15 30 88
771 15 312 2
772 15 129 65
773 15 5 36
774 15 74 91
775 15 307 90
776 15 137 77
777 15 76 29
778 15 225 49
779 15 171 37
780 15 182 56
781 15 235 49
782 15 191 79
783 15 309 52
784 15 126 5
785 15 317 15
786 15 319 62
787 15 266 40
788 15 65 1
789 15 60 73
790 15 0 49
791 15 55 49
792 15 109 55
793 15 43 24
794 15 202 20
795 15 38 32
796 15 298 35
797 15 53 54
798 15 112 17
799 15 107 74
800 15 248 95
801 15 331 88
802 15 172 58
803 15 293 77
804 16 338 15
805 16 257 43
806 16 171 16
807 16 54 91
808 16 78 93
809 16 118 34
810 16 46 25
811 16 340 4
812 16 263 78
813 16 116 95
814 16 103 10
815 16 396 64
816 16 303 96
817 16 48 95
818 16 34 58
819 16 216 81
820 16 182 71
821 16 214 71
822 16 191 92
823 16 44 96
824 16 129 54
825 16 70 91
826 16 358 1
827 16 366 1
828 16 346 79
829 16 202 27
830 16 247 78
831 16 41 11
832 16 259 81
833 16 148 55
834 16 25 16
835 16 56 64
836 16 199 70
837 16 106 99
838 16 73 55
839 16 353 14
840 16 245 5
841 16 239 54
842 16 98 92
843 16 339 33
844 16 29 76
845 16 47 46
846 16 42 39
847 16 60 35
848 16 364 11
849 16 139 55
850 16 35 73
851 16 271 24
852 16 173 26
853 16 296 85
854 17 91 67
855 17 126 9
856 17 37 18
857 17 48 77
858 17 226 88
859 17 168 88
860 17 130 100
861 17 318 7
862 17 122 34
863 17 57 18
864 17 384 94
865 17 201 13
866 17 194 37
867 17 263 92
868 17 362 8
869 17 387 68
870 17 376 3
871 17 323 13
872 17 82 59
873 17 363 40
874 17 16 66
875 17 379 27
876 17 107 68
877 17 295 28
878 17 21 55
879 17 164 12
880 17 338 20
881 17 127 89
882 17 329 67
883 17 137 16
884 18 51 29
885 18 232 18
886 18 274 59
887 18 44 83
888 18 334 37
889 18 48 81
890 18 234 87
891 18 52 67
892 18 260 8
893 18 208 64
894 18 198 28
895 18 8 96
896 18 114 88
897 18 352 1
898 18 227 37
899 18 128 54
900 18 112 91
901 18 293 29
902 18 73 62
903 18 121 40
904 18 255 59
905 18 317 45
906 18 209 25
907 18 244 34
908 18 79 86
909 18 11 26
910 18 111 42
911 18 387 64
912 18 127 53
913 18 312 1
914 18 183 48
915 18 347 34
916 18 86 8
917 18 277 100
918 18 188 12
919 18 237 48
920 18 10 3
921 18 176 27
922 18 42 47
923 18 93 32
924 18 88 77
925 18 117 33
926 18 388 89
927 18 373 96
928 18 59 25
929 18 297 100
930 18 278 25
931 18 27 67
932 18 21 99
933 18 262 86
934 18 145 98
935 18 206 36
936 18 231 16
937 19 252 97
938 19 216 75
939 19 117 39
940 19 313 75
941 19 260 42
942 19 193 53
943 19 170 28
944 19 104 97
945 19 91 63
946 19 7 71
947 19 41 8
948 19 392 59
949 19 0 37
950 19 53 47
951 19 39 9
952 19 134 45
953 19 322 81
954 19 248 80
955 19 283 72
956 19 226 52
957 19 280 86
958 19 98 43
959 19 87 99
960 19 296 85
961 19 206 57
962 19 214 30
963 19 245 11
964 19 160 60
965 19 37 76
966 19 122 73
967 19 394 70
968 19 145 94
969 19 231 47
970 19 76 98
971 19 109 13
972 19 96 38
973 19 309 57
974 19 139 55
975 19 233 19
976 19 165 13
977 19 255 22
978 19 67 23
979 19 20 72
980 19 152 50
981 19 316 52
982 19 361 44
983 20 199 10
984 20 34 56
985 20 189 13
986 20 168 53
987 20 17 53
988 20 176 8
989 20 319 12
990 20 47 82
991 20 44 77
992 20 380 90
993 20 88 25
994 20 95 8
995 20 190 90
996 20 6 50
997 20 259 31
998 20 228 51
999 20 166 3
1000 20 57 25
1001 20 41 7
1002 20 160 36
1003 20 251 68
1004 20 76 17
1005 20 391 9
1006 20 313 2
1007 20 83 18
1008 20 141 29
1009 20 382 49
1010 20 79 68
1011 20 15 82
1012 20 49 76
1013 20 303 77
1014 20 262 12
1015 20 265 69
1016 20 387 74
1017 20 371 22
1018 20 243 81
1019 20 23 61
1020 20 200 88
1021 20 225 63
1022 20 11 46
1023 20 235 57
1024 20 255 76
1025 20 314 2
1026 20 61 84
1027 20 356 49
1028 20 183 1
1029 20 184 25
1030 20 376 93
1031 20 96 19
1032 20 106 3
1033 20 201 73
1034 21 75 78
1035 21 112 12
1036 21 12 44
1037 21 121 21
1038 21 148 11
1039 21 107 43
1040 21 335 74
1041 21 25 44
1042 21 166 49
1043 21 259 34
1044 21 323 49
1045 21 358 5
1046 21 220 88
1047 21 143 75
1048 21 6 19
1049 21 354 31
1050 21 234 68
1051 21 59 41
1052 21 399 46
1053 21 5 25
1054 21 391 24
1055 21 180 70
1056 21 299 88
1057 21 286 21
1058 21 28 24
1059 21 197 65
1060 21 338 49
1061 21 333 33
1062 21 55 34
1063 21 238 91
1064 21 129 85
1065 21 9 15
1066 21 373 34
1067 21 198 13
1068 21 99 71
1069 21 330 26
1070 21 343 73
1071 21 302 95
1072 21 250 34
1073 21 7 52
1074 21 341 56
1075 21 307 74
1076 21 361 43
1077 21 31 88
1078 21 287 4
1079 21 319 65
1080 21 202 37
1081 21 328 14
1082 21 151 70
1083 21 189 40
1084 21 26 83
1085 22 184 29
1086 22 31 50
1087 22 300 91
1088 22 176 6
1089 22 268 49
1090 22 393 97
1091 22 348 39
1092 22 358 25
1093 22 88 71
1094 22 227 5
1095 22 337 77
1096 22 192 25
1097 22 283 17
1098 22 89 57
1099 22 113 40
1100 22 111 27
1101 22 58 47
1102 22 272 4
1103 22 386 70
1104 22 389 27
1105 22 36 38
1106 22 199 3
1107 22 196 2
1108 22 84 98
1109 22 116 30
1110 22 157 97
1111 22 92 4
1112 22 207 70
1113 22 163 32
1114 22 219 2
1115 22 190 8
1116 22 90 99
1117 22 183 38
1118 22 172 94
1119 22 259 7
1120 22 114 78
1121 22 322 70
1122 22 133 77
1123 22 10 96
1124 22 237 44
1125 22 87 55
1126 22 179 18
1127 22 304 43
1128 22 398 68
1129 22 233 80
1130 22 260 33
1131 22 359 34
1132 22 373 98
1133 22 336 39
1134 22 85 90
1135 22 258 44
1136 23 86 42
1137 23 104 26
1138 23 85 12
1139 23 344 80
1140 23 71 6
1141 23 288 48
1142 23 299 45
1143 23 54 79
1144 23 253 88
1145 23 272 80
1146 23 200 69
1147 23 183 11
1148 23 269 65
1149 23 313 65
1150 23 336 46
1151 23 84 32
1152 23 339 92
1153 23 247 40
1154 23 393 33
1155 23 296 93
1156 23 133 38
1157 23 99 72
1158 23 58 97
1159 23 202 48
1160 23 142 100
1161 23 246 78
1162 23 317 4
1163 23 47 4
1164 23 74 60
1165 23 243 17
1166 23 48 61
1167 23 64 82
1168 23 244 36
1169 23 122 74
1170 23 192 45
1171 23 287 73
1172 23 293 10
1173 23 376 53
1174 23 131 75
1175 23 176 56
1176 23 353 2
1177 23 257 83
1178 23 2 65
1179 23 378 40
1180 23 90 13
1181 23 310 10
1182 23 389 14
1183 23 60 97
1184 23 209 39
1185 23 22 36
1186 23 239 84
1187 24 354 96
1188 24 359 7
1189 24 328 88
1190 24 310 61
1191 24 79 40
1192 24 169 4
1193 24 232 43
1194 24 326 23
1195 24 320 20
1196 24 141 46
1197 24 43 57
1198 24 376 17
1199 24 75 46
1200 24 396 76
1201 24 114 10
1202 24 288 95
1203 24 195 31
1204 24 226 3
1205 24 336 98
1206 24 236 2
1207 24 272 3
1208 24 162 95
1209 24 187 27
1210 24 153 85
1211 24 55 92
1212 24 259 60
1213 24 83 43
1214 24 4 23
1215 24 40 90
1216 24 279 74
1217 24 199 78
1218 24 216 38
1219 24 99 99
1220 24 14 42
1221 24 294 43
1222 24 100 68
1223 24 256 19
1224 24 365 58
1225 24 242 42
1226 24 327 30
1227 24 352 19
1228 24 319 99
1229 24 1 55
1230 24 85 99
1231 24 301 21
1232 24 200 29
1233 24 5 95
1234 24 117 82
1235 24 151 59
1236 24 194 92
1237 24 275 9
1238 24 207 24
1239 24 370 60
1240 24 139 93
1241 24 86 41
1242 24 307 16
1243 25 199 78
1244 25 290 95
1245 25 292 75
1246 25 245 80
1247 25 21 88
1248 25 263 31
1249 25 322 56
1250 25 36 79
1251 25 107 46
1252 25 284 65
1253 25 364 89
1254 25 178 37
1255 25 205 13
1256 25 17 55
1257 25 369 100
1258 25 349 27
1259 25 130 41
1260 25 144 74
1261 25 39 53
1262 25 64 62
1263 25 228 75
1264 25 18 48
1265 25 54 52
1266 25 83 10
1267 25 398 45
1268 25 333 11
1269 25 139 6
1270 25 176 78
1271 25 52 2
1272 25 313 9
1273 25 79 5
1274 25 125 19
1275 25 378 18
1276 25 286 99
1277 25 309 72
1278 25 365 33
1279 25 383 72
1280 25 120 57
1281 25 193 79
1282 25 293 31
1283 25 223 4
1284 25 152 62
1285 25 87 36
1286 25 251 69
1287 25 354 28
1288 25 392 62
1289 25 126 86
1290 25 329 100
1291 26 125 59
1292 26 169 50
1293 26 184 71
1294 26 195 15
1295 26 13 5
1296 26 268 31
1297 26 379 24
1298 26 126 36
1299 26 131 62
1300 26 312 12
1301 26 292 58
1302 26 378 29
1303 26 188 41
1304 26 317 52
1305 26 234 42
1306 26 99 69
1307 26 243 54
1308 26 227 5
1309 26 326 67
1310 26 148 93
1311 26 266 71
1312 26 322 24
1313 26 327 19
1314 26 265 28
1315 26 281 43
1316 26 348 15
1317 26 386 53
1318 26 72 64
1319 26 274 7
1320 26 149 76
1321 26 388 21
1322 26 63 46
1323 26 318 83
1324 26 162 57
1325 26 86 57
1326 26 177 30
1327 26 315 40
1328 26 186 64
1329 26 245 41
1330 26 153 68
1331 26 239 77
1332 26 95 12
1333 26 15 51
1334 26 309 16
1335 26 253 94
1336 26 57 78
1337 26 128 64
1338 26 35 21
1339 27 4 26
1340 27 227 83
1341 27 292 64
1342 27 313 11
1343 27 380 66
1344 27 291 29
1345 27 216 27
1346 27 368 41
1347 27 190 24
1348 27 31 68
1349 27 95 3
1350 27 300 73
1351 27 93 69
1352 27 335 61
1353 27 294 54
1354 27 180 76
1355 27 337 16
1356 27 81 57
1357 27 206 34
1358 27 304 77
1359 27 312 58
1360 27 397 2
1361 27 54 50
1362 27 77 48
1363 27 132 23
1364 27 141 57
1365 27 281 77
1366 27 55 56
1367 27 352 14
1368 27 114 20
1369 27 187 33
1370 27 320 82
1371 27 67 97
1372 27 100 85
1373 27 43 22
1374 27 382 19
1375 27 58 92
1376 27 270 2
1377 27 28 26
1378 27 226 92
1379 27 245 78
1380 27 366 18
1381 27 239 12
1382 27 324 8
1383 27 305 13
1384 27 343 86
1385 27 102 49
1386 27 223 12
1387 27 231 40
1388 27 236 65
1389 27 256 97
1390 27 51 11
1391 27 208 16
1392 27 243 61
1393 27 325 52
1394 27 173 73
1395 28 73 34
1396 28 168 41
1397 28 180 86
1398 28 379 22
1399 28 386 64
1400 28 259 52
1401 28 103 85
1402 28 216 26
1403 28 163 2
1404 28 324 79
1405 28 241 54
1406 28 183 48
1407 28 233 6
1408 28 68 5
1409 28 221 39
1410 28 280 99
1411 28 311 5
1412 28 197 14
1413 28 162 11
1414 28 219 56
1415 28 336 38
1416 28 146 45
1417 28 118 68
1418 28 285 13
1419 28 57 58
1420 28 93 81
1421 28 235 94
1422 28 247 80
1423 28 317 58
1424 28 333 100
1425 28 119 67
1426 28 45 17
1427 28 240 17
1428 28 116 76
1429 28 290 35
1430 28 50 91
1431 28 40 16
1432 28 358 36
1433 28 174 3
1434 28 220 55
1435 28 218 11
1436 28 20 20
1437 28 238 92
1438 28 43 88
1439 28 383 27
1440 28 54 81
1441 28 307 11
1442 28 19 35
1443 28 80 91
1444 28 38 20
1445 28 331 34
1446 29 157 12
1447 29 230 91
1448 29 44 31
1449 29 323 3
1450 29 34 31
1451 29 242 67
1452 29 78 75
1453 29 280 62
1454 29 384 57
1455 29 386 29
1456 29 205 14
1457 29 28 21
1458 29 65 50
1459 29 166 45
1460 29 108 4
1461 29 171 8
1462 29 80 58
1463 29 389 89
1464 29 364 43
1465 29 55 38
1466 29 284 6
1467 29 366 54
1468 29 362 93
1469 29 156 30
1470 29 77 14
1471 29 94 17
1472 29 147 20
1473 29 237 42
1474 29 150 45
1475 29 201 81
1476 29 358 43
1477 29 178 13
1478 29 373 16
1479 29 370 74
1480 29 247 60
1481 29 113 22
1482 29 283 54
1483 29 378 28
1484 29 343 13
1485 29 281 57
1486 29 130 86
1487 29 1 23
1488 30 150 90
1489 30 79 57
1490 30 241 18
1491 30 245 2
1492 30 106 50
1493 30 210 47
1494 30 176 83
1495 30 154 45
1496 30 279 16
1497 30 240 94
1498 30 90 80
1499 30 255 38
1500 30 89 75
1501 30 172 64
1502 30 4 27
1503 30 205 65
1504 30 47 53
1505 30 73 25
1506 30 39 55
1507 30 93 19
1508 30 225 91
1509 30 76 7
1510 30 399 21
1511 30 137 56
1512 30 103 13
1513 30 162 26
1514 30 41 72
1515 30 326 52
1516 30 312 61
1517 30 57 84
1518 30 318 90
1519 30 74 19
1520 30 364 42
1521 30 182 24
1522 30 337 85
1523 30 0 70
1524 30 354 25
1525 30 231 15
1526 30 338 94
1527 30 198 71
1528 30 108 57
1529 30 306 98
1530 30 223 89
1531 30 267 5
1532 30 195 92
1533 31 52 37
1534 31 202 48
1535 31 308 8
1536 31 163 91
1537 31 235 26
1538 31 387 64
1539 31 170 90
1540 31 292 38
1541 31 138 100
1542 31 71 7
1543 31 188 30
1544 31 157 100
1545 31 38 33
1546 31 322 62
1547 31 398 49
1548 31 271 29
1549 31 270 25
1550 31 98 96
1551 31 26 39
1552 31 191 59
1553 31 332 45
1554 31 147 91
1555 31 289 77
1556 31 338 85
1557 31 131 39
1558 31 103 91
1559 31 39 77
1560 31 34 27
1561 31 125 27
1562 31 354 29
1563 31 247 9
1564 31 212 56
1565 31 102 78
1566 31 33 53
1567 31 196 47
1568 31 6 4
1569 31 66 100
1570 31 80 30
1571 31 278 72
1572 31 92 23
1573 31 206 85
1574 31 160 3
1575 31 339 41
1576 31 210 20
1577 31 367 64
1578 31 296 8
1579 31 134 2
1580 31 390 86
1581 31 234 6
1582 31 286 70
1583 31 229 51
1584 31 359 60
1585 31 2 52
1586 31 24 90
1587 32 291 40
1588 32 40 31
1589 32 96 53
1590 32 393 80
1591 32 356 91
1592 32 208 94
1593 32 86 36
1594 32 215 94
1595 32 317 95
1596 32 130 86
1597 32 18 96
1598 32 245 67
1599 32 167 98
1600 32 114 99
1601 32 115 68
1602 32 87 24
1603 32 1 41
1604 32 72 73
1605 32 179 45
1606 32 262 16
1607 32 156 73
1608 32 384 14
1609 32 135 88
1610 32 193 10
1611 32 188 2
1612 32 212 52
1613 32 69 69
1614 32 381 84
1615 32 84 74
1616 32 142 93
1617 32 52 16
1618 32 227 15
1619 32 226 6
1620 32 7 87
1621 32 392 43
1622 32 204 74
1623 32 263 32
1624 32 322 7
1625 32 102 61
1626 32 205 66
1627 32 117 30
1628 32 357 90
1629 32 366 4
1630 32 55 14
1631 32 95 52
1632 32 296 23
1633 32 247 77
1634 32 94 66
1635 32 108 67
1636 32 210 42
1637 32 379 96
1638 32 383 59
1639 32 228 62
1640 32 199 36
1641 32 100 39
1642 32 299 69
1643 32 4 93
1644 32 333 28
1645 32 134 3
1646 32 164 94
1647 32 37 60
1648 33 210 46
1649 33 195 89
1650 33 366 46
1651 33 157 68
1652 33 164 90
1653 33 77 40
1654 33 227 85
1655 33 201 65
1656 33 329 100
1657 33 194 44
1658 33 273 73
1659 33 339 24
1660 33 57 94
1661 33 55 28
1662 33 79 16
1663 33 145 31
1664 33 9 71
1665 33 376 60
1666 33 153 3
1667 33 241 34
1668 33 124 82
1669 33 354 24
1670 33 269 48
1671 33 268 16
1672 33 83 96
1673 33 260 42
1674 33 235 69
1675 33 398 63
1676 33 346 5
1677 33 148 92
1678 33 353 77
1679 33 142 57
1680 33 185 67
1681 33 244 57
1682 33 68 17
1683 33 133 87
1684 33 66 20
1685 33 219 28
1686 33 115 42
1687 33 351 65
1688 33 229 73
1689 34 111 16
1690 34 277 38
1691 34 104 88
1692 34 81 6
1693 34 154 80
1694 34 44 21
1695 34 346 93
1696 34 231 81
1697 34 320 53
1698 34 168 45
1699 34 99 11
1700 34 97 10
1701 34 386 91
1702 34 336 79
1703 34 216 18
1704 34 114 4
1705 34 349 40
1706 34 160 47
1707 34 271 28
1708 34 343 12
1709 34 134 44
1710 34 184 92
1711 34 72 60
1712 34 4 83
1713 34 167 98
1714 34 238 4
1715 34 247 25
1716 34 323 99
1717 34 371 30
1718 34 210 75
1719 34 125 89
1720 34 370 3
1721 34 112 7
1722 34 258 35
1723 34 347 52
1724 34 143 93
1725 34 379 33
1726 34 64 44
1727 34 340 56
1728 34 269 100
1729 34 359 62
1730 34 267 71
1731 34 158 80
1732 34 131 99
1733 34 9 64
1734 34 169 46
1735 35 23 38
1736 35 97 51
1737 35 201 39
1738 35 237 2
1739 35 89 28
1740 35 395 85
1741 35 50 3
1742 35 51 32
1743 35 275 60
1744 35 75 91
1745 35 171 23
1746 35 299 57
1747 35 104 53
1748 35 284 49
1749 35 332 28
1750 35 240 75
1751 35 94 58
1752 35 233 44
1753 35 244 79
1754 35 266 75
1755 35 270 69
1756 35 231 40
1757 35 222 32
1758 35 132 24
1759 35 316 88
1760 35 312 83
1761 35 350 8
1762 35 22 54
1763 35 273 71
1764 35 140 74
1765 35 57 37
1766 35 305 58
1767 35 258 77
1768 35 214 6
1769 35 365 68
1770 35 357 88
1771 35 248 38
1772 35 360 2
1773 35 381 41
1774 35 48 69
1775 35 194 84
1776 35 117 62
1777 35 377 60
1778 35 146 27
1779 35 230 59
1780 35 122 40
1781 35 373 86
1782 35 352 82
1783 35 120 43
1784 35 17 80
1785 35 42 15
1786 36 213 23
1787 36 224 5
1788 36 42 85
1789 36 332 19
1790 36 64 12
1791 36 73 1
1792 36 326 75
1793 36 105 16
1794 36 367 36
1795 36 68 78
1796 36 253 10
1797 36 239 52
1798 36 261 92
1799 36 328 83
1800 36 18 100
1801 36 56 70
1802 36 281 99
1803 36 2 64
1804 36 396 42
1805 36 58 81
1806 36 325 96
1807 36 305 57
1808 36 29 34
1809 36 229 94
1810 36 312 92
1811 36 319 75
1812 36 40 22
1813 36 268 20
1814 36 191 17
1815 36 172 6
1816 36 341 1
1817 36 344 83
1818 36 297 70
1819 36 301 34
1820 36 96 34
1821 36 242 13
1822 36 212 49
1823 36 377 72
1824 36 267 89
1825 36 16 55
1826 36 186 35
1827 36 20 48
1828 36 93 60
1829 36 182 34
1830 36 147 84
1831 36 304 49
1832 36 203 54
1833 36 337 61
1834 36 151 21
1835 36 249 73
1836 36 104 9
1837 37 325 97
1838 37 300 42
1839 37 108 47
1840 37 100 36
1841 37 256 66
1842 37 189 62
1843 37 66 18
1844 37 224 93
1845 37 255 68
1846 37 38 78
1847 37 343 23
1848 37 354 38
1849 37 6 86
1850 37 368 55
1851 37 316 62
1852 37 177 29
1853 37 305 93
1854 37 228 58
1855 37 71 46
1856 37 376 96
1857 37 145 98
1858 37 296 53
1859 37 109 59
1860 37 124 77
1861 37 60 97
1862 37 146 72
1863 37 87 35
1864 37 35 64
1865 37 144 90
1866 37 14 43
1867 37 194 4
1868 37 380 65
1869 37 389 67
1870 37 126 18
1871 37 351 35
1872 37 86 49
1873 37 82 24
1874 37 342 15
1875 37 132 56
1876 37 110 43
1877 37 214 81
1878 37 98 61
1879 37 338 5
1880 37 291 7
1881 37 67 81
1882 37 379 69
1883 37 250 27
1884 37 307 13
1885 37 363 9
1886 37 64 71
1887 37 313 96
1888 38 382 30
1889 38 230 24
1890 38 170 61
1891 38 387 22
1892 38 239 24
1893 38 389 31
1894 38 7 9
1895 38 218 91
1896 38 376 61
1897 38 177 43
1898 38 126 44
1899 38 223 98
1900 38 394 83
1901 38 208 91
1902 38 255 15
1903 38 3 29
1904 38 129 37
1905 38 115 71
1906 38 54 22
1907 38 99 64
1908 38 183 52
1909 38 287 99
1910 38 392 91
1911 38 347 57
1912 38 253 85
1913 38 244 56
1914 38 326 74
1915 38 235 82
1916 38 199 75
1917 38 1 39
1918 38 162 12
1919 38 88 99
1920 38 36 62
1921 38 194 2
1922 38 53 62
1923 38 16 7
1924 38 120 77
1925 38 12 55
1926 38 106 28
1927 38 75 76
1928 38 182 58
1929 38 117 54
1930 38 44 36
1931 38 282 2
1932 38 148 63
1933 38 273 65
1934 38 296 18
1935 39 117 87
1936 39 59 73
1937 39 29 76
1938 39 377 31
1939 39 161 51
1940 39 378 52
1941 39 126 60
1942 39 365 9
1943 39 206 31
1944 39 34 82
1945 39 389 40
1946 39 110 6
1947 39 294 80
1948 39 234 48
1949 39 41 6
1950 39 28 19
1951 39 168 54
1952 39 207 36
1953 39 197 88
1954 39 236 10
1955 39 382 99
1956 39 71 70
1957 39 31 57
1958 39 235 24
1959 39 30 29
1960 39 346 69
1961 39 4 77
1962 39 209 49
1963 39 202 90
1964 39 115 74
1965 39 57 55
1966 39 163 86
1967 39 112 68
1968 39 269 53
1969 39 149 10
1970 39 172 45
1971 39 128 77
1972 39 308 22
1973 39 12 4
1974 39 199 53
1975 39 111 93
1976 39 320 40
1977 39 256 22
1978 40 199 25
1979 40 201 21
1980 40 309 16
1981 40 350 72
1982 40 29 7
1983 40 162 71
1984 40 118 15
1985 40 293 83
1986 40 121 93
1987 40 17 15
1988 40 295 52
1989 40 3 55
1990 40 380 69
1991 40 48 4
1992 40 177 79
1993 40 387 56
1994 40 205 83
1995 40 255 40
1996 40 379 87
1997 40 209 67
1998 40 360 52
1999 40 213 2
2000 40 306 96
2001 40 102 31
2002 40 175 97
2003 40 166 79
2004 40 313 87
2005 40 372 28
2006 40 308 20
2007 40 221 20
2008 40 375 25
2009 40 42 39
2010 40 28 74
2011 40 339 100
2012 40 190 58
2013 40 284 91
2014 40 138 22
2015 40 354 58
2016 40 139 74
2017 40 7 2
2018 40 211 66
2019 40 119 100
2020 40 24 92
2021 40 296 32
2022 40 84 33
2023 40 125 87
2024 40 115 63
2025 41 135 6
2026 41 386 68
2027 41 145 2
2028 41 164 37
2029 41 281 24
2030 41 119 79
2031 41 307 70
2032 41 110 49
2033 41 359 6
2034 41 309 24
2035 41 330 5
2036 41 238 32
2037 41 262 34
2038 41 300 97
2039 41 158 77
2040 41 304 32
2041 41 80 38
2042 41 367 24
2043 41 8 32
2044 41 336 94
2045 41 39 93
2046 41 57 28
2047 41 179 6
2048 41 162 42
2049 41 40 96
2050 41 249 50
2051 41 332 65
2052 41 337 94
2053 41 144 19
2054 41 104 16
2055 41 167 82
2056 41 251 92
2057 41 221 16
2058 41 308 8
2059 41 151 24
2060 41 207 27
2061 41 279 9
2062 41 64 5
2063 41 319 31
2064 41 272 88
2065 41 247 70
2066 41 223 1
2067 41 175 65
2068 41 301 83
2069 41 106 50
2070 41 65 78
2071 41 59 9
2072 41 358 78
2073 41 347 26
2074 41 160 55
2075 41 130 37
2076 41 38 75
2077 41 306 16
2078 41 156 30
2079 41 94 97
2080 41 260 25
2081 41 228 96
2082 41 320 49
2083 41 389 39
2084 41 128 7
2085 41 253 89
2086 42 284 17
2087 42 187 21
2088 42 309 8
2089 42 204 65
2090 42 169 21
2091 42 272 44
2092 42 154 63
2093 42 371 79
2094 42 158 12
2095 42 207 6
2096 42 382 7
2097 42 14 83
2098 42 58 21
2099 42 228 54
2100 42 34 23
2101 42 281 93
2102 42 301 31
2103 42 334 12
2104 42 393 17
2105 42 236 51
2106 42 182 64
2107 42 201 90
2108 42 267 42
2109 42 365 82
2110 42 314 31
2111 42 399 52
2112 42 214 18
2113 42 303 40
2114 42 18 68
2115 42 1 88
2116 42 217 57
2117 42 150 65
2118 42 181 35
2119 42 122 66
2120 42 229 47
2121 42 369 51
2122 42 164 16
2123 42 221 21
2124 42 198 72
2125 42 166 57
2126 42 33 38
2127 42 76 75
2128 42 394 78
2129 42 163 12
2130 42 290 61
2131 42 146 51
2132 42 375 6
2133 42 321 56
2134 42 258 56
2135 42 346 25
2136 42 87 41
2137 42 125 46
2138 42 152 34
2139 42 69 23
2140 43 9 4
2141 43 26 99
2142 43 237 13
2143 43 73 15
2144 43 309 61
2145 43 337 86
2146 43 38 27
2147 43 142 70
2148 43 359 77
2149 43 241 78
2150 43 172 17
2151 43 85 12
2152 43 49 36
2153 43 278 54
2154 43 61 16
2155 43 28 12
2156 43 83 75
2157 43 159 16
2158 43 246 74
2159 43 303 66
2160 43 269 26
2161 43 132 74
2162 43 290 15
2163 43 95 28
2164 43 262 38
2165 43 7 22
2166 43 157 85
2167 43 69 30
2168 43 127 16
2169 43 130 42
2170 43 206 28
2171 43 384 5
2172 43 344 55
2173 43 151 13
2174 43 257 1
2175 43 289 68
2176 43 282 35
2177 43 107 81
2178 43 361 96
2179 43 166 26
2180 43 314 100
2181 43 182 21
2182 43 323 32
2183 43 119 96
2184 43 20 85
2185 43 287 15
2186 44 231 86
2187 44 167 21
2188 44 32 7
2189 44 329 11
2190 44 166 39
2191 44 183 68
2192 44 238 60
2193 44 88 99
2194 44 201 30
2195 44 243 45
2196 44 237 38
2197 44 315 37
2198 44 190 50
2199 44 116 19
2200 44 242 48
2201 44 247 79
2202 44 135 58
2203 44 133 86
2204 44 229 36
2205 44 333 3
2206 44 396 16
2207 44 261 89
2208 44 264 41
2209 44 3 14
2210 44 307 63
2211 44 187 82
2212 44 290 16
2213 44 43 38
2214 44 106 90
2215 44 125 28
2216 44 10 46
2217 44 145 51
2218 44 224 20
2219 44 285 65
2220 44 268 21
2221 44 284 45
2222 44 138 9
2223 44 119 47
2224 44 323 36
2225 44 222 3
2226 44 177 72
2227 44 115 31
2228 44 277 44
2229 44 320 56
2230 44 314 28
2231 44 363 6
2232 44 217 96
2233 44 304 16
2234 44 22 37
2235 44 21 81
2236 44 279 82
2237 44 374 45
2238 44 202 14
2239 44 249 52
2240 44 169 34
2241 44 356 79
2242 44 5 69
2243 44 326 86
2244 44 218 63
2245 44 82 54
2246 44 390 59
2247 44 56 35
2248 45 89 56
2249 45 260 66
2250 45 162 36
2251 45 40 59
2252 45 232 84
2253 45 173 77
2254 45 235 79
2255 45 17 7
2256 45 73 52
2257 45 110 99
2258 45 395 17
2259 45 397 48
2260 45 308 92
2261 45 29 100
2262 45 41 10
2263 45 316 38
2264 45 318 47
2265 45 380 77
2266 45 325 28
2267 45 174 95
2268 45 151 4
2269 45 231 80
2270 45 186 10
2271 45 208 66
2272 45 26 37
2273 45 145 87
2274 45 150 69
2275 45 69 66
2276 45 398 21
2277 45 114 33
2278 45 393 20
2279 45 326 9
2280 45 77 10
2281 45 185 95
2282 45 28 3
2283 45 354 64
2284 45 276 5
2285 45 30 18
2286 45 300 70
2287 45 22 67
2288 45 19 31
2289 45 171 54
2290 45 340 16
2291 45 207 94
2292 45 199 75
2293 46 52 41
2294 46 215 50
2295 46 221 26
2296 46 209 29
2297 46 173 90
2298 46 110 49
2299 46 75 35
2300 46 160 42
2301 46 181 81
2302 46 22 34
2303 46 48 80
2304 46 124 41
2305 46 224 3
2306 46 31 73
2307 46 135 18
2308 46 218 38
2309 46 349 27
2310 46 202 13
2311 46 325 40
2312 46 16 100
2313 46 337 96
2314 46 85 69
2315 46 271 11
2316 46 208 71
2317 46 77 56
2318 46 153 34
2319 46 318 43
2320 46 342 81
2321 46 163 83
2322 46 168 87
2323 46 332 12
2324 46 367 85
2325 46 154 51
2326 46 312 24
2327 46 344 48
2328 46 121 9
2329 46 362 4
2330 46 328 34
2331 46 132 9
2332 46 189 21
2333 46 188 19
2334 46 34 60
2335 46 365 61
2336 46 383 40
2337 46 256 13
2338 46 2 39
2339 46 112 37
2340 46 304 1
2341 46 308 22
2342 46 176 22
2343 46 180 15
2344 47 88 14
2345 47 25 88
2346 47 288 8
2347 47 66 66
2348 47 247 14
2349 47 391 16
2350 47 278 16
2351 47 263 75
2352 47 330 18
2353 47 8 89
2354 47 293 15
2355 47 198 47
2356 47 238 20
2357 47 37 5
2358 47 318 1
2359 47 207 2
2360 47 172 76
2361 47 160 15
2362 47 370 95
2363 47 358 73
2364 47 97 56
2365 47 213 45
2366 47 220 98
2367 47 219 55
2368 47 390 91
2369 47 96 66
2370 47 272 42
2371 47 269 34
2372 47 322 49
2373 47 148 94
2374 47 125 68
2375 47 145 26
2376 47 339 40
2377 47 282 36
2378 47 139 61
2379 47 89 66
2380 47 166 95
2381 47 179 77
2382 47 221 61
2383 47 268 16
2384 47 227 24
2385 47 250 62
2386 47 248 57
2387 47 131 83
2388 47 218 51
2389 47 249 60
2390 48 248 24
2391 48 21 62
2392 48 265 9
2393 48 323 91
2394 48 220 5
2395 48 293 81
2396 48 7 55
2397 48 16 58
2398 48 70 66
2399 48 122 65
2400 48 142 44
2401 48 6 26
2402 48 47 57
2403 48 65 53
2404 48 386 70
2405 48 278 25
2406 48 151 97
2407 48 170 52
2408 48 382 100
2409 48 370 10
2410 48 281 50
2411 48 328 68
2412 48 1 65
2413 48 99 40
2414 48 115 52
2415 48 363 20
2416 48 44 24
2417 48 268 6
2418 48 252 61
2419 48 130 83
2420 48 147 53
2421 48 373 76
2422 48 168 27
2423 48 343 93
2424 48 145 61
2425 48 392 60
2426 48 330 34
2427 48 191 41
2428 48 371 38
2429 48 353 96
2430 48 72 19
2431 48 241 95
2432 48 275 4
2433 49 279 76
2434 49 97 74
2435 49 347 85
2436 49 344 61
2437 49 186 23
2438 49 88 29
2439 49 265 86
2440 49 87 54
2441 49 11 95
2442 49 13 41
2443 49 348 65
2444 49 36 58
2445 49 193 70
2446 49 187 36
2447 49 153 52
2448 49 286 60
2449 49 282 69
2450 49 110 52
2451 49 25 93
2452 49 353 76
2453 49 288 14
2454 49 203 32
2455 49 379 34
2456 49 202 5
2457 49 146 70
2458 49 96 81
2459 49 30 21
2460 49 181 19
2461 49 26 39
2462 49 99 13
2463 49 356 4
2464 49 399 74
2465 49 195 3
2466 49 194 18
2467 49 78 11
2468 50 237 10
2469 50 392 30
2470 50 280 56
2471 50 267 93
2472 50 136 98
2473 50 185 87
2474 50 322 5
2475 50 53 8
2476 50 305 44
2477 50 8 91
2478 50 358 58
2479 50 246 65
2480 50 219 67
2481 50 179 31
2482 50 283 92
2483 50 295 87
2484 50 344 72
2485 50 48 48
2486 50 127 5
2487 50 355 20
2488 50 152 57
2489 50 108 39
2490 50 351 85
2491 50 75 1
2492 50 63 74
2493 50 223 88
2494 50 183 39
2495 50 335 2
2496 50 25 70
2497 50 379 63
2498 50 135 20
2499 50 211 8
2500 50 282 40
2501 50 143 63
2502 50 49 97
2503 50 71 50
2504 50 372 92
2505 50 131 82
2506 50 100 47
2507 50 54 74
2508 50 199 3
2509 50 13 72
2510 50 394 72
2511 50 89 96
2512 50 86 71
2513 50 304 23
2514 50 4 45
2515 50 113 8
2516 50 99 56
2517 50 298 52
2518 50 68 6
2519 50 5 99
2520 50 118 77
2521 50 43 55
2522 50 116 37
2523 50 233 52
2524 50 239 64
2525 50 352 70
2526 50 159 89
2527 51 238 20
2528 51 335 52
2529 51 75 65
2530 51 368 8
2531 51 308 27
2532 51 69 90
2533 51 25 64
2534 51 381 97
2535 51 222 94
2536 51 234 76
2537 51 354 36
2538 51 353 13
2539 51 61 57
2540 51 102 98
2541 51 361 34
2542 51 73 43
2543 51 185 47
2544 51 371 28
2545 51 1 73
2546 51 323 27
2547 51 97 89
2548 51 5 33
2549 51 193 47
2550 51 365 65
2551 51 189 74
2552 51 140 12
2553 51 107 37
2554 51 300 30
2555 51 291 28
2556 51 117 60
2557 51 159 36
2558 51 369 9
2559 51 11 48
2560 51 367 83
2561 51 373 58
2562 51 217 20
2563 51 313 68
2564 51 287 14
2565 51 290 23
2566 51 218 19
2567 51 380 53
2568 51 90 34
2569 51 30 59
2570 51 164 67
2571 51 98 57
2572 51 68 40
2573 51 80 68
2574 51 36 57
2575 51 303 49
2576 52 14 25
2577 52 164 19
2578 52 80 98
2579 52 192 96
2580 52 56 79
2581 52 84 34
2582 52 16 100
2583 52 242 19
2584 52 69 94
2585 52 388 36
2586 52 318 63
2587 52 367 39
2588 52 379 79
2589 52 257 31
2590 52 255 92
2591 52 234 69
2592 52 377 72
2593 52 371 20
2594 52 230 60
2595 52 376 74
2596 52 15 55
2597 52 273 25
2598 52 227 9
2599 52 72 1
2600 52 53 15
2601 52 104 21
2602 52 378 29
2603 52 157 37
2604 52 50 28
2605 52 188 98
2606 52 295 47
2607 52 246 40
2608 52 399 24
2609 52 133 33
2610 52 148 80
2611 52 216 45
2612 52 286 45
2613 52 149 80
2614 52 51 20
2615 52 292 52
2616 52 120 91
2617 52 350 83
2618 52 200 76
2619 52 197 39
2620 52 169 54
2621 52 40 76
2622 52 62 34
2623 52 213 54
2624 52 167 70
2625 52 280 32
2626 52 17 29
2627 52 99 75
2628 52 76 64
2629 52 387 95
2630 52 92 15
2631 52 226 26
2632 52 170 14
2633 53 146 9
2634 53 246 54
2635 53 177 78
2636 53 127 13
2637 53 111 32
2638 53 261 44
2639 53 397 72
2640 53 70 71
2641 53 245 11
2642 53 94 56
2643 53 37 53
2644 53 125 45
2645 53 222 80
2646 53 234 70
2647 53 264 12
2648 53 229 65
2649 53 155 38
2650 53 75 59
2651 53 287 5
2652 53 265 63
2653 53 269 10
2654 53 342 7
2655 53 9 100
2656 53 311 67
2657 53 136 48
2658 53 374 41
2659 53 130 46
2660 53 98 34
2661 53 312 8
2662 53 251 89
2663 53 79 86
2664 53 300 60
2665 53 54 35
2666 53 191 25
2667 53 314 99
2668 53 13 38
2669 53 295 69
2670 53 331 55
2671 53 327 59
2672 53 353 79
2673 53 14 9
2674 53 366 72
2675 53 332 26
2676 53 109 80
2677 53 165 51
2678 53 326 32
2679 53 224 99
2680 53 283 84
2681 53 194 95
2682 53 208 33
2683 53 204 9
2684 53 138 52
2685 53 115 20
2686 53 243 58
2687 53 225 89
2688 53 272 49
2689 53 117 24
2690 53 47 20
2691 54 327 50
2692 54 336 64
2693 54 13 95
2694 54 156 75
2695 54 185 79
2696 54 367 10
2697 54 143 14
2698 54 182 82
2699 54 155 51
2700 54 351 54
2701 54 173 12
2702 54 332 65
2703 54 117 86
2704 54 244 74
2705 54 355 70
2706 54 279 31
2707 54 71 88
2708 54 357 12
2709 54 24 12
2710 54 278 57
2711 54 125 82
2712 54 308 36
2713 54 326 14
2714 54 389 4
2715 54 226 85
2716 54 285 82
2717 54 391 40
2718 54 371 26
2719 54 124 26
2720 54 0 100
2721 54 40 74
2722 54 253 17
2723 54 68 53
2724 54 45 4
2725 54 177 65
2726 54 78 53
2727 54 384 23
2728 54 2 20
2729 54 3 54
2730 54 216 85
2731 54 397 64
2732 54 41 70
2733 54 170 68
2734 54 5 62
2735 54 386 2
2736 54 263 73
2737 54 1 4
2738 54 194 16
2739 54 167 92
2740 54 219 89
2741 54 287 5
2742 54 111 71
2743 55 157 11
2744 55 243 50
2745 55 315 100
2746 55 146 84
2747 55 366 32
2748 55 84 100
2749 55 112 55
2750 55 329 5
2751 55 169 3
2752 55 250 47
2753 55 304 23
2754 55 96 98
2755 55 214 39
2756 55 188 81
2757 55 129 87
2758 55 117 74
2759 55 222 26
2760 55 177 72
2761 55 175 26
2762 55 323 47
2763 55 143 7
2764 55 121 80
2765 55 274 1
2766 55 137 27
2767 55 327 65
2768 55 205 22
2769 55 197 12
2770 55 9 47
2771 55 189 68
2772 55 320 95
2773 55 314 55
2774 55 325 22
2775 55 36 86
2776 55 313 43
2777 55 152 14
2778 55 14 8
2779 55 291 16
2780 55 368 30
2781 55 178 22
2782 55 265 13
2783 55 18 87
2784 55 246 93
2785 55 282 46
2786 55 257 42
2787 55 95 61
2788 55 395 81
2789 55 219 26
2790 55 56 17
2791 55 254 61
2792 55 267 77
2793 55 316 6
2794 55 264 89
2795 55 324 81
2796 55 156 61
2797 55 286 7
2798 55 51 98
2799 55 393 58
2800 56 201 13
2801 56 31 36
2802 56 45 43
2803 56 387 93
2804 56 227 82
2805 56 321 68
2806 56 35 99
2807 56 305 18
2808 56 26 23
2809 56 272 27
2810 56 116 28
2811 56 218 61
2812 56 150 6
2813 56 77 27
2814 56 57 76
2815 56 293 4
2816 56 87 77
2817 56 275 47
2818 56 50 8
2819 56 223 91
2820 56 61 70
2821 56 399 1
2822 56 286 88
2823 56 212 63
2824 56 104 14
2825 56 336 88
2826 56 129 2
2827 56 49 16
2828 56 12 46
2829 56 225 78
2830 56 157 43
2831 56 179 42
2832 56 92 79
2833 56 198 13
2834 56 345 75
2835 56 124 71
2836 56 81 99
2837 56 66 42
2838 56 146 73
2839 56 138 61
2840 56 366 8
2841 56 208 92
2842 56 152 28
2843 56 312 60
2844 56 284 21
2845 56 194 16
2846 56 193 84
2847 56 106 83
2848 56 121 93
2849 56 131 35
2850 56 308 2
2851 56 240 67
2852 56 200 18
2853 56 97 79
2854 56 169 46
2855 56 228 85
2856 57 364 77
2857 57 390 37
2858 57 134 54
2859 57 167 2
2860 57 385 50
2861 57 158 98
2862 57 394 37
2863 57 211 15
2864 57 281 75
2865 57 24 95
2866 57 100 95
2867 57 5 31
2868 57 286 29
2869 57 144 99
2870 57 250 58
2871 57 314 96
2872 57 49 43
2873 57 375 43
2874 57 141 21
2875 57 195 9
2876 57 209 47
2877 57 157 48
2878 57 345 8
2879 57 38 84
2880 57 108 22
2881 57 347 57
2882 57 246 58
2883 57 206 15
2884 57 260 25
2885 57 386 50
2886 57 383 79
2887 57 93 83
2888 57 156 86
2889 57 298 62
2890 57 181 9
2891 57 77 74
2892 57 392 65
2893 57 365 35
2894 57 312 78
2895 57 71 41
2896 57 161 10
2897 57 280 28
2898 57 295 35
2899 57 369 12
2900 57 263 29
2901 57 78 5
2902 57 27 56
2903 57 313 28
2904 57 16 28
2905 57 269 52
2906 57 244 99
2907 57 203 70
2908 57 177 65
2909 57 184 26
2910 57 42 82
2911 57 131 80
2912 57 135 26
2913 57 198 76
2914 57 251 89
2915 57 373 49
2916 57 28 86
2917 57 248 30
2918 58 248 99
2919 58 153 2
2920 58 223 99
2921 58 0 33
2922 58 360 34
2923 58 9 89
2924 58 42 49
2925 58 5 9
2926 58 31 48
2927 58 390 48
2928 58 185 81
2929 58 259 49
2930 58 156 28
2931 58 128 64
2932 58 321 94
2933 58 262 8
2934 58 342 22
2935 58 112 59
2936 58 104 64
2937 58 369 6
2938 58 140 21
2939 58 320 42
2940 58 171 32
2941 58 159 65
2942 58 130 13
2943 58 172 45
2944 58 37 21
2945 58 322 69
2946 58 294 100
2947 58 209 73
2948 58 4 59
2949 58 89 55
2950 58 336 14
2951 58 285 67
2952 58 117 36
2953 58 197 61
2954 58 283 97
2955 58 122 38
2956 58 397 49
2957 58 135 11
2958 58 264 94
2959 58 149 23
2960 58 95 57
2961 58 80 43
2962 58 7 1
2963 58 116 44
2964 58 310 4
2965 58 77 81
2966 58 208 26
2967 58 328 54
2968 58 378 8
2969 58 162 78
2970 58 236 25
2971 58 24 50
2972 58 187 15
2973 58 82 22
2974 58 55 25
2975 58 314 6
2976 58 118 10
2977 58 93 63
2978 58 379 55
2979 58 35 47
2980 58 213 5
2981 58 351 16
2982 59 5 23
2983 59 148 68
2984 59 336 82
2985 59 332 7
2986 59 64 82
2987 59 142 59
2988 59 272 88
2989 59 86 90
2990 59 318 59
2991 59 178 21
2992 59 282 12
2993 59 231 20
2994 59 184 11
2995 59 42 19
2996 59 12 17
2997 59 296 61
2998 59 90 56
2999 59 264 36
3000 59 2 20
3001 59 128 44
3002 59 75 11
3003 59 396 23
3004 59 147 40
3005 59 356 19
3006 59 279 55
3007 59 51 57
3008 59 182 92
3009 59 96 32
3010 59 351 73
3011 59 101 3
3012 59 180 88
3013 59 330 33
3014 59 285 15
3015 59 71 28
3016 59 224 83
3017 59 87 16
3018 59 367 23
3019 59 48 18
3020 59 23 89
3021 59 100 36
3022 60 163 51
3023 60 111 13
3024 60 294 61
3025 60 291 37
3026 60 330 93
3027 60 249 52
3028 60 79 94
3029 60 230 79
3030 60 198 93
3031 60 204 89
3032 60 262 55
3033 60 212 61
3034 60 383 12
3035 60 377 54
3036 60 46 2
3037 60 26 27
3038 60 265 89
3039 60 341 43
3040 60 43 55
3041 60 137 75
3042 60 67 54
3043 60 266 52
3044 60 353 11
3045 60 188 93
3046 60 310 44
3047 60 162 38
3048 60 132 51
3049 60 164 17
3050 60 275 22
3051 60 51 67
3052 60 393 69
3053 60 182 44
3054 60 323 89
3055 60 292 16
3056 60 63 40
3057 60 195 100
3058 60 185 13
3059 60 280 22
3060 60 122 78
3061 60 23 96
3062 60 118 20
3063 60 370 60
3064 60 192 47
3065 60 181 49
3066 60 157 48
3067 60 48 57
3068 60 73 13
3069 60 255 11
3070 60 396 80
3071 60 81 78
3072 60 83 46
3073 60 85 69
3074 60 95 59
3075 60 53 86
3076 61 390 76
3077 61 268 7
3078 61 314 11
3079 61 72 27
3080 61 216 26
3081 61 141 81
3082 61 169 45
3083 61 365 82
3084 61 56 8
3085 61 135 52
3086 61 215 61
3087 61 339 65
3088 61 227 90
3089 61 214 51
3090 61 380 36
3091 61 67 88
3092 61 163 86
3093 61 263 100
3094 61 128 99
3095 61 118 24
3096 61 23 25
3097 61 66 100
3098 61 331 45
3099 61 327 79
3100 61 257 10
3101 61 325 26
3102 61 222 92
3103 61 322 47
3104 61 79 52
3105 61 378 57
3106 61 377 71
3107 61 75 61
3108 61 6 63
3109 61 224 10
3110 61 159 39
3111 61 397 17
3112 61 396 60
3113 61 360 77
3114 61 392 63
3115 61 99 29
3116 61 386 7
3117 61 114 62
3118 61 211 9
3119 61 24 41
3120 61 109 61
3121 61 298 35
3122 62 45 17
3123 62 244 54
3124 62 311 77
3125 62 384 87
3126 62 231 50
3127 62 313 78
3128 62 66 26
3129 62 41 34
3130 62 162 39
3131 62 135 45
3132 62 116 85
3133 62 335 26
3134 62 152 50
3135 62 370 94
3136 62 143 11
3137 62 273 4
3138 62 80 41
3139 62 170 11
3140 62 54 25
3141 62 155 70
3142 62 253 11
3143 62 76 4
3144 62 353 14
3145 62 168 43
3146 62 6 93
3147 62 220 45
3148 62 121 15
3149 62 333 50
3150 62 306 31
3151 62 105 40
3152 62 118 10
3153 62 323 81
3154 62 123 43
3155 62 245 45
3156 62 293 43
3157 62 144 16
3158 62 99 17
3159 62 28 26
3160 62 92 99
3161 62 267 37
3162 62 316 22
3163 62 369 24
3164 62 29 74
3165 62 161 90
3166 62 34 54
3167 62 322 36
3168 62 199 21
3169 62 13 70
3170 62 21 77
3171 62 366 22
3172 62 266 16
3173 62 79 54
3174 63 170 43
3175 63 76 9
3176 63 139 55
3177 63 307 3
3178 63 182 44
3179 63 396 1
3180 63 53 58
3181 63 343 34
3182 63 61 12
3183 63 121 92
3184 63 95 47
3185 63 28 1
3186 63 277 60
3187 63 64 23
3188 63 322 29
3189 63 206 67
3190 63 361 84
3191 63 235 84
3192 63 395 76
3193 63 238 44
3194 63 73 38
3195 63 50 22
3196 63 89 70
3197 63 151 57
3198 63 11 42
3199 63 192 96
3200 63 279 65
3201 63 115 18
3202 63 286 73
3203 63 381 95
3204 63 356 32
3205 63 181 95
3206 63 394 3
3207 63 142 88
3208 63 355 89
3209 63 378 37
3210 63 271 89
3211 63 27 20
3212 63 287 99
3213 63 120 83
3214 63 107 5
3215 63 207 64
3216 63 229 91
3217 63 35 11
3218 63 70 2
3219 63 196 32
3220 63 85 16
3221 63 314 35
3222 63 373 20
3223 63 43 16
3224 63 99 5
3225 63 358 50
3226 63 231 45
3227 64 137 29
3228 64 391 100
3229 64 141 80
3230 64 339 5
3231 64 314 30
3232 64 325 77
3233 64 105 10
3234 64 192 42
3235 64 331 77
3236 64 83 43
3237 64 189 80
3238 64 173 52
3239 64 183 7
3240 64 95 82
3241 64 203 31
3242 64 60 98
3243 64 281 69
3244 64 328 37
3245 64 48 37
3246 64 344 45
3247 64 57 63
3248 64 77 85
3249 64 307 5
3250 64 308 91
3251 64 116 41
3252 64 199 41
3253 64 27 68
3254 64 274 85
3255 64 267 80
3256 64 288 95
3257 64 340 81
3258 64 241 32
3259 64 16 96
3260 64 143 46
3261 64 31 10
3262 64 299 56
3263 64 383 60
3264 64 91 44
3265 64 179 3
3266 64 76 7
3267 64 33 37
3268 64 341 46
3269 64 194 53
3270 64 358 11
3271 64 190 49
3272 65 257 49
3273 65 390 36
3274 65 348 72
3275 65 286 59
3276 65 9 28
3277 65 40 88
3278 65 25 35
3279 65 259 95
3280 65 366 28
3281 65 382 18
3282 65 73 86
3283 65 340 38
3284 65 297 78
3285 65 284 24
3286 65 159 92
3287 65 300 32
3288 65 148 70
3289 65 76 67
3290 65 285 85
3291 65 164 95
3292 65 46 77
3293 65 283 22
3294 65 83 46
3295 65 130 2
3296 65 330 96
3297 65 128 3
3298 65 267 90
3299 65 312 2
3300 65 195 2
3301 65 240 39
3302 65 381 53
3303 65 230 28
3304 65 98 53
3305 65 311 89
3306 65 106 60
3307 65 196 11
3308 65 10 88
3309 65 183 35
3310 65 110 44
3311 65 364 84
3312 65 15 64
3313 65 72 66
3314 65 49 81
3315 65 236 75
3316 65 376 51
3317 65 273 30
3318 66 289 21
3319 66 262 7
3320 66 16 55
3321 66 191 59
3322 66 62 62
3323 66 51 13
3324 66 12 47
3325 66 112 3
3326 66 155 36
3327 66 190 100
3328 66 81 10
3329 66 146 54
3330 66 335 92
3331 66 209 18
3332 66 222 51
3333 66 74 78
3334 66 355 17
3335 66 137 22
3336 66 15 21
3337 66 252 92
3338 66 238 41
3339 66 119 42
3340 66 269 25
3341 66 377 79
3342 66 123 66
3343 66 326 29
3344 66 86 9
3345 66 29 87
3346 66 383 45
3347 66 342 2
3348 66 220 6
3349 66 188 61
3350 66 213 98
3351 66 40 81
3352 66 378 61
3353 66 253 91
3354 66 331 89
3355 66 298 94
3356 66 196 50
3357 66 359 28
3358 66 340 13
3359 66 18 21
3360 66 297 4
3361 66 64 33
3362 66 308 24
3363 66 248 49
3364 66 230 22
3365 66 250 68
3366 66 341 45
3367 67 88 59
3368 67 17 31
3369 67 234 58
3370 67 62 41
3371 67 398 51
3372 67 100 66
3373 67 367 90
3374 67 8 35
3375 67 128 53
3376 67 357 78
3377 67 143 52
3378 67 334 18
3379 67 102 46
3380 67 129 11
3381 67 257 92
3382 67 77 24
3383 67 261 9
3384 67 323 67
3385 67 356 83
3386 67 319 8
3387 67 175 19
3388 67 137 38
3389 67 21 1
3390 67 182 41
3391 67 39 84
3392 67 36 88
3393 67 337 10
3394 67 107 55
3395 67 224 21
3396 67 238 88
3397 67 83 37
3398 67 374 31
3399 67 73 19
3400 67 1 60
3401 67 228 97
3402 67 375 13
3403 67 44 77
3404 67 147 48
3405 67 218 78
3406 67 262 26
3407 67 29 17
3408 68 337 71
3409 68 66 16
3410 68 36 74
3411 68 354 4
3412 68 395 99
3413 68 179 35
3414 68 358 51
3415 68 299 53
3416 68 372 89
3417 68 283 7
3418 68 229 20
3419 68 345 96
3420 68 259 94
3421 68 381 65
3422 68 109 91
3423 68 107 85
3424 68 216 61
3425 68 102 75
3426 68 391 3
3427 68 244 19
3428 68 309 30
3429 68 13 16
3430 68 77 34
3431 68 217 74
3432 68 174 77
3433 68 286 48
3434 68 200 13
3435 68 3 91
3436 68 76 60
3437 68 390 61
3438 68 260 46
3439 68 160 89
3440 68 315 50
3441 68 235 48
3442 68 52 61
3443 68 289 92
3444 68 163 4
3445 68 92 17
3446 68 330 31
3447 68 230 11
3448 68 266 51
3449 68 122 21
3450 68 149 70
3451 69 292 29
3452 69 119 87
3453 69 180 24
3454 69 354 80
3455 69 17 69
3456 69 204 85
3457 69 305 30
3458 69 201 14
3459 69 86 90
3460 69 167 23
3461 69 333 32
3462 69 355 44
3463 69 155 100
3464 69 389 71
3465 69 215 88
3466 69 32 46
3467 69 84 18
3468 69 330 99
3469 69 376 98
3470 69 397 7
3471 69 356 70
3472 69 335 85
3473 69 340 9
3474 69 53 9
3475 69 113 76
3476 69 153 60
3477 69 352 79
3478 69 40 61
3479 69 286 44
3480 69 154 3
3481 69 273 63
3482 69 231 99
3483 69 338 41
3484 69 90 71
3485 69 363 100
3486 70 336 3
3487 70 328 65
3488 70 66 48
3489 70 200 78
3490 70 383 88
3491 70 331 77
3492 70 304 62
3493 70 310 31
3494 70 224 47
3495 70 162 72
3496 70 60 67
3497 70 163 86
3498 70 39 18
3499 70 128 91
3500 70 77 36
3501 70 288 82
3502 70 284 38
3503 70 393 83
3504 70 174 14
3505 70 306 56
3506 70 153 62
3507 70 110 96
3508 70 68 17
3509 70 135 76
3510 70 279 83
3511 70 186 65
3512 70 337 89
3513 70 113 9
3514 70 167 30
3515 70 61 94
3516 70 285 96
3517 70 30 80
3518 70 394 35
3519 70 264 5
3520 70 269 43
3521 70 72 30
3522 70 380 46
3523 70 291 60
3524 70 4 24
3525 70 208 17
3526 70 185 42
3527 70 52 58
3528 70 351 37
3529 70 268 19
3530 70 45 26
3531 70 104 51
3532 70 15 57
3533 70 339 47
3534 70 143 100
3535 70 320 89
3536 71 59 92
3537 71 180 65
3538 71 273 85
3539 71 255 3
3540 71 76 46
3541 71 44 41
3542 71 219 22
3543 71 217 5
3544 71 210 84
3545 71 173 88
3546 71 152 33
3547 71 251 95
3548 71 375 91
3549 71 144 13
3550 71 244 75
3551 71 237 59
3552 71 177 75
3553 71 328 98
3554 71 387 64
3555 71 166 41
3556 71 392 60
3557 71 103 54
3558 71 169 2
3559 71 200 15
3560 71 12 10
3561 71 135 84
3562 71 291 2
3563 71 113 65
3564 71 240 47
3565 71 161 20
3566 71 212 70
3567 71 137 9
3568 71 289 74
3569 71 298 95
3570 71 15 37
3571 71 306 50
3572 71 377 82
3573 71 106 41
3574 71 112 77
3575 71 374 40
3576 71 188 1
3577 71 199 19
3578 71 316 94
3579 71 16 9
3580 71 352 93
3581 71 118 49
3582 71 64 10
3583 71 263 36
3584 71 259 81
3585 71 333 31
3586 71 397 92
3587 72 365 61
3588 72 133 3
3589 72 58 74
3590 72 13 13
3591 72 109 24
3592 72 264 48
3593 72 162 50
3594 72 143 76
3595 72 235 84
3596 72 80 48
3597 72 318 19
3598 72 88 41
3599 72 117 80
3600 72 149 55
3601 72 324 28
3602 72 356 87
3603 72 84 11
3604 72 137 64
3605 72 7 53
3606 72 361 15
3607 72 274 51
3608 72 248 64
3609 72 242 40
3610 72 168 12
3611 72 81 96
3612 72 129 34
3613 72 19 67
3614 72 263 30
3615 72 344 13
3616 72 134 43
3617 72 220 59
3618 72 78 65
3619 72 70 11
3620 72 142 92
3621 72 323 46
3622 72 194 94
3623 72 2 18
3624 72 206 54
3625 72 8 8
3626 72 166 51
3627 72 131 40
3628 72 125 33
3629 72 38 78
3630 72 16 5
3631 72 111 6
3632 72 267 29
3633 72 266 71
3634 72 221 79
3635 72 261 15
3636 72 195 6
3637 72 325 58
3638 72 154 80
3639 73 331 37
3640 73 82 34
3641 73 239 49
3642 73 365 58
3643 73 287 79
3644 73 254 47
3645 73 226 89
3646 73 134 79
3647 73 363 56
3648 73 215 11
3649 73 85 39
3650 73 301 63
3651 73 127 81
3652 73 41 60
3653 73 223 70
3654 73 342 12
3655 73 129 85
3656 73 292 39
3657 73 197 56
3658 73 386 99
3659 73 399 94
3660 73 136 74
3661 73 380 84
3662 73 355 1
3663 73 323 20
3664 73 95 32
3665 73 102 32
3666 73 100 2
3667 73 304 45
3668 73 58 22
3669 73 126 11
3670 73 316 62
3671 73 150 73
3672 73 247 100
3673 73 5 47
3674 73 195 82
3675 73 43 70
3676 73 282 27
3677 73 65 93
3678 73 144 20
3679 73 80 18
3680 74 134 2
3681 74 239 60
3682 74 286 82
3683 74 392 62
3684 74 366 58
3685 74 54 94
3686 74 194 37
3687 74 326 98
3688 74 396 66
3689 74 62 85
3690 74 118 17
3691 74 61 10
3692 74 156 87
3693 74 295 18
3694 74 225 48
3695 74 200 64
3696 74 267 95
3697 74 304 5
3698 74 31 21
3699 74 379 50
3700 74 98 46
3701 74 154 72
3702 74 290 3
3703 74 371 85
3704 74 219 88
3705 74 317 14
3706 74 35 59
3707 74 65 40
3708 74 36 85
3709 74 12 71
3710 74 315 53
3711 74 321 27
3712 74 233 67
3713 74 322 57
3714 74 268 68
3715 74 187 44
3716 74 180 25
3717 74 99 77
3718 74 384 70
3719 74 136 81
3720 74 395 6
3721 74 257 51
3722 74 127 60
3723 74 191 74
3724 74 228 18
3725 74 355 33
3726 74 297 97
3727 74 333 70
3728 74 280 15
3729 75 15 78
3730 75 73 54
3731 75 207 53
3732 75 143 69
3733 75 192 40
3734 75 112 92
3735 75 175 20
3736 75 317 77
3737 75 36 19
3738 75 66 31
3739 75 355 73
3740 75 336 99
3741 75 103 10
3742 75 92 23
3743 75 235 22
3744 75 96 25
3745 75 182 43
3746 75 160 52
3747 75 309 28
3748 75 105 8
3749 75 156 80
3750 75 48 61
3751 75 20 46
3752 75 372 86
3753 75 55 47
3754 75 230 77
3755 75 318 63
3756 75 71 76
3757 75 17 4
3758 75 205 51
3759 75 324 27
3760 75 259 66
3761 75 167 96
3762 75 10 6
3763 75 239 94
3764 75 14 52
3765 75 86 96
3766 75 264 10
3767 75 197 58
3768 75 174 30
3769 75 339 27
3770 75 18 74
3771 75 303 12
3772 75 144 15
3773 75 345 74
3774 75 136 66
3775 75 130 86
3776 75 366 95
3777 75 38 26
3778 75 225 29
3779 75 383 23
3780 75 234 39
3781 75 316 93
3782 75 270 83
3783 75 219 67
3784 75 257 92
3785 76 289 84
3786 76 282 19
3787 76 57 29
3788 76 270 56
3789 76 391 97
3790 76 17 71
3791 76 260 67
3792 76 149 27
3793 76 197 9
3794 76 13 19
3795 76 61 66
3796 76 269 65
3797 76 27 23
3798 76 281 86
3799 76 86 94
3800 76 222 87
3801 76 341 75
3802 76 223 68
3803 76 143 32
3804 76 334 88
3805 76 399 19
3806 76 111 2
3807 76 43 35
3808 76 150 34
3809 76 256 5
3810 76 44 67
3811 76 28 27
3812 76 162 39
3813 76 154 40
3814 76 99 63
3815 76 59 37
3816 76 318 33
3817 76 280 69
3818 76 209 56
3819 76 115 69
3820 76 72 79
3821 76 107 84
3822 76 250 55
3823 76 152 71
3824 76 102 29
3825 76 53 78
3826 76 236 22
3827 76 303 74
3828 77 389 19
3829 77 246 50
3830 77 7 90
3831 77 119 63
3832 77 65 16
3833 77 250 91
3834 77 148 25
3835 77 178 96
3836 77 286 34
3837 77 350 65
3838 77 260 71
3839 77 283 14
3840 77 47 94
3841 77 141 40
3842 77 17 100
3843 77 287 67
3844 77 289 91
3845 77 192 100
3846 77 210 38
3847 77 28 36
3848 77 26 23
3849 77 221 28
3850 77 121 34
3851 77 296 88
3852 77 173 22
3853 77 212 19
3854 77 385 96
3855 77 285 28
3856 77 29 69
3857 77 137 76
3858 77 236 26
3859 77 392 54
3860 77 248 62
3861 77 259 8
3862 77 222 1
3863 77 98 25
3864 77 23 54
3865 77 11 74
3866 77 3 3
3867 77 95 33
3868 77 215 92
3869 77 78 22
3870 77 226 49
3871 77 44 8
3872 77 51 43
3873 77 69 5
3874 77 163 47
3875 77 279 61
3876 77 134 22
3877 77 357 43
3878 77 309 11
3879 77 101 53
3880 77 79 65
3881 77 105 36
3882 77 204 34
3883 77 190 99
3884 78 215 59
3885 78 73 85
3886 78 66 32
3887 78 308 10
3888 78 276 33
3889 78 127 54
3890 78 298 72
3891 78 61 22
3892 78 197 99
3893 78 278 45
3894 78 83 64
3895 78 257 100
3896 78 120 88
3897 78 53 7
3898 78 266 55
3899 78 327 42
3900 78 149 54
3901 78 234 32
3902 78 19 23
3903 78 128 4
3904 78 295 4
3905 78 267 28
3906 78 54 59
3907 78 309 38
3908 78 365 46
3909 78 175 19
3910 78 176 100
3911 78 352 8
3912 78 326 88
3913 78 116 80
3914 78 379 82
3915 78 272 13
3916 78 47 99
3917 78 287 36
3918 78 2 63
3919 78 230 76
3920 78 5 100
3921 78 166 7
3922 78 185 72
3923 78 358 11
3924 78 364 45
3925 78 255 66
3926 78 256 98
3927 78 280 81
3928 78 192 78
3929 78 172 99
3930 78 353 28
3931 78 388 73
3932 78 183 18
3933 78 233 87
3934 78 282 5
3935 78 37 77
3936 78 59 22
3937 78 213 21
3938 78 106 96
3939 78 184 93
3940 78 209 59
3941 79 14 11
3942 79 335 57
3943 79 123 22
3944 79 110 39
3945 79 368 33
3946 79 164 20
3947 79 3 18
3948 79 59 31
3949 79 247 17
3950 79 197 85
3951 79 163 94
3952 79 363 32
3953 79 177 48
3954 79 97 81
3955 79 243 80
3956 79 24 22
3957 79 170 58
3958 79 26 74
3959 79 122 9
3960 79 67 50
3961 79 131 5
3962 79 143 7
3963 79 261 45
3964 79 39 28
3965 79 362 25
3966 79 380 8
3967 79 78 95
3968 79 135 3
3969 79 251 47
3970 79 293 44
3971 79 140 85
3972 79 395 52
3973 79 329 30
3974 79 310 87
3975 79 397 8
3976 79 270 24
3977 79 57 25
3978 79 264 68
3979 79 302 99
3980 79 371 90
3981 79 151 98
3982 79 218 41
3983 79 137 85
3984 79 361 5
3985 79 158 76
3986 79 305 75
3987 79 46 18
3988 79 219 74
3989 79 84 1
3990 79 229 10
3991 79 116 1
3992 79 45 90
3993 79 317 43
3994 79 155 75
3995 79 208 56
3996 80 297 88
3997 80 58 85
3998 80 128 98
3999 80 266 97
4000 80 62 59
4001 80 277 69
4002 80 163 72
4003 80 110 7
4004 80 53 56
4005 80 27 19
4006 80 30 41
4007 80 130 23
4008 80 122 73
4009 80 146 12
4010 80 42 65
4011 80 44 57
4012 80 20 90
4013 80 263 57
4014 80 388 27
4015 80 254 34
4016 80 249 21
4017 80 206 19
4018 80 74 7
4019 80 368 28
4020 80 243 62
4021 80 189 64
4022 80 166 99
4023 80 204 5
4024 80 338 32
4025 80 287 19
4026 80 152 74
4027 80 395 46
4028 80 21 12
4029 80 102 61
4030 80 335 2
4031 80 391 92
4032 80 93 61
4033 80 18 86
4034 80 385 53
4035 80 179 57
4036 80 272 91
4037 80 323 59
4038 80 137 45
4039 80 120 74
4040 80 103 48
4041 80 184 64
4042 80 253 60
4043 80 50 1
4044 80 316 40
4045 80 40 68
4046 80 83 86
4047 80 355 31
4048 80 218 22
4049 80 67 13
4050 81 299 47
4051 81 362 81
4052 81 89 55
4053 81 181 25
4054 81 103 18
4055 81 187 92
4056 81 227 32
4057 81 52 57
4058 81 15 32
4059 81 252 86
4060 81 339 79
4061 81 324 9
4062 81 307 23
4063 81 107 93
4064 81 357 52
4065 81 72 56
4066 81 246 20
4067 81 397 50
4068 81 24 82
4069 81 327 77
4070 81 163 6
4071 81 84 62
4072 81 287 22
4073 81 201 49
4074 81 191 100
4075 81 159 25
4076 81 267 15
4077 81 205 8
4078 81 146 82
4079 81 53 55
4080 81 224 65
4081 81 102 16
4082 81 329 85
4083 81 387 42
4084 81 47 96
4085 81 189 40
4086 81 293 33
4087 81 168 86
4088 81 275 37
4089 81 376 85
4090 81 368 100
4091 81 308 36
4092 81 250 95
4093 81 235 35
4094 81 232 85
4095 81 150 45
4096 81 215 85
4097 81 361 19
4098 81 257 84
4099 81 330 81
4100 82 233 100
4101 82 74 96
4102 82 139 84
4103 82 182 96
4104 82 393 25
4105 82 320 57
4106 82 282 81
4107 82 1 55
4108 82 211 40
4109 82 24 51
4110 82 187 72
4111 82 101 30
4112 82 5 14
4113 82 25 72
4114 82 51 76
4115 82 245 64
4116 82 110 16
4117 82 247 19
4118 82 364 45
4119 82 322 14
4120 82 238 51
4121 82 153 48
4122 82 262 55
4123 82 250 45
4124 82 155 30
4125 82 37 39
4126 82 90 96
4127 82 260 33
4128 82 180 34
4129 82 391 6
4130 82 341 75
4131 82 104 20
4132 82 319 27
4133 82 141 2
4134 82 249 16
4135 82 308 100
4136 82 80 30
4137 82 194 22
4138 82 151 91
4139 82 203 86
4140 82 46 92
4141 82 106 63
4142 82 29 2
4143 82 376 65
4144 82 366 94
4145 82 36 75
4146 82 362 93
4147 82 73 82
4148 82 348 28
4149 82 326 5
4150 82 176 93
4151 82 120 6
4152 82 56 58
4153 82 289 11
4154 83 265 37
4155 83 207 19
4156 83 260 38
4157 83 97 40
4158 83 51 100
4159 83 41 85
4160 83 372 59
4161 83 53 51
4162 83 298 13
4163 83 89 59
4164 83 192 60
4165 83 36 3
4166 83 187 93
4167 83 221 33
4168 83 153 41
4169 83 32 69
4170 83 163 54
4171 83 304 48
4172 83 391 80
4173 83 88 82
4174 83 218 95
4175 83 390 23
4176 83 10 33
4177 83 276 81
4178 83 62 33
4179 83 224 50
4180 83 34 7
4181 83 393 19
4182 83 223 52
4183 83 209 4
4184 83 145 76
4185 83 297 98
4186 83 352 27
4187 83 169 1
4188 83 368 35
4189 83 70 68
4190 83 30 22
4191 83 60 12
4192 83 219 25
4193 83 96 27
4194 84 193 33
4195 84 325 61
4196 84 343 1
4197 84 113 70
4198 84 29 37
4199 84 202 62
4200 84 322 36
4201 84 382 72
4202 84 350 98
4203 84 154 32
4204 84 333 39
4205 84 384 73
4206 84 298 15
4207 84 60 66
4208 84 389 72
4209 84 267 61
4210 84 283 33
4211 84 227 93
4212 84 349 58
4213 84 129 36
4214 84 365 100
4215 84 347 60
4216 84 188 35
4217 84 58 74
4218 84 387 23
4219 84 307 56
4220 84 238 90
4221 84 18 58
4222 84 78 15
4223 84 111 83
4224 84 373 32
4225 84 91 23
4226 84 363 80
4227 84 158 7
4228 84 196 68
4229 84 110 74
4230 84 125 93
4231 84 98 70
4232 84 233 93
4233 84 317 34
4234 84 13 16
4235 84 295 47
4236 84 203 62
4237 84 127 10
4238 84 191 93
4239 84 229 66
4240 84 375 29
4241 84 51 40
4242 84 291 22
4243 84 24 40
4244 84 360 12
4245 84 231 9
4246 84 302 6
4247 84 339 100
4248 84 395 48
4249 85 136 71
4250 85 180 68
4251 85 181 70
4252 85 169 69
4253 85 172 23
4254 85 192 66
4255 85 388 71
4256 85 90 61
4257 85 249 19
4258 85 116 34
4259 85 185 72
4260 85 298 3
4261 85 368 53
4262 85 252 86
4263 85 119 45
4264 85 398 51
4265 85 287 85
4266 85 36 53
4267 85 234 63
4268 85 152 53
4269 85 22 71
4270 85 342 38
4271 85 273 88
4272 85 309 4
4273 85 317 73
4274 85 379 29
4275 85 197 70
4276 85 97 2
4277 85 150 10
4278 85 397 87
4279 85 221 94
4280 85 83 24
4281 85 282 56
4282 85 320 53
4283 85 78 2
4284 85 288 96
4285 85 23 15
4286 85 300 94
4287 85 334 65
4288 85 188 28
4289 85 225 34
4290 85 231 39
4291 85 44 8
4292 85 242 79
4293 85 237 26
4294 85 240 21
4295 85 362 46
4296 85 344 9
4297 85 319 37
4298 85 351 47
4299 86 303 84
4300 86 396 91
4301 86 57 4
4302 86 305 18
4303 86 289 8
4304 86 258 77
4305 86 338 4
4306 86 88 87
4307 86 168 47
4308 86 205 37
4309 86 30 24
4310 86 279 33
4311 86 106 31
4312 86 292 15
4313 86 282 2
4314 86 251 59
4315 86 143 8
4316 86 92 14
4317 86 348 34
4318 86 296 94
4319 86 211 15
4320 86 181 17
4321 86 185 84
4322 86 302 58
4323 86 224 65
4324 86 387 4
4325 86 9 96
4326 86 147 74
4327 86 382 62
4328 86 221 21
4329 86 207 66
4330 86 3 13
4331 86 98 5
4332 86 179 78
4333 86 204 7
4334 86 389 100
4335 86 199 50
4336 86 259 24
4337 86 254 1
4338 86 20 32
4339 86 119 21
4340 86 70 62
4341 86 212 28
4342 86 77 7
4343 86 171 56
4344 87 106 31
4345 87 285 33
4346 87 89 100
4347 87 70 36
4348 87 22 32
4349 87 233 55
4350 87 121 98
4351 87 209 20
4352 87 84 73
4353 87 165 75
4354 87 155 6
4355 87 38 25
4356 87 110 95
4357 87 382 75
4358 87 200 38
4359 87 383 70
4360 87 202 15
4361 87 97 13
4362 87 207 85
4363 87 132 11
4364 87 243 21
4365 87 46 74
4366 87 379 62
4367 87 137 55
4368 87 1 33
4369 87 217 1
4370 87 101 60
4371 87 158 17
4372 87 368 6
4373 87 366 84
4374 87 277 44
4375 87 93 14
4376 87 252 43
4377 87 50 69
4378 87 230 48
4379 87 114 30
4380 87 380 28
4381 87 363 9
4382 87 184 87
4383 87 171 41
4384 87 388 37
4385 87 10 12
4386 87 144 73
4387 87 310 33
4388 87 215 37
4389 87 113 53
4390 87 34 71
4391 87 293 97
4392 87 213 70
4393 87 138 11
4394 87 85 26
4395 87 305 5
4396 87 16 14
4397 87 352 2
4398 87 335 6
4399 87 28 68
4400 87 160 29
4401 87 369 7
4402 87 186 68
4403 87 170 54
4404 87 203 70
4405 87 173 77
4406 87 231 86
4407 87 100 73
4408 87 169 8
4409 87 185 31
4410 87 111 53
4411 88 97 27
4412 88 220 82
4413 88 285 59
4414 88 25 4
4415 88 286 28
4416 88 123 97
4417 88 53 88
4418 88 221 99
4419 88 297 53
4420 88 128 12
4421 88 323 56
4422 88 108 20
4423 88 316 19
4424 88 376 30
4425 88 203 44
4426 88 30 74
4427 88 275 32
4428 88 248 56
4429 88 281 51
4430 88 251 20
4431 88 77 74
4432 88 151 27
4433 88 175 74
4434 88 143 79
4435 88 36 86
4436 88 283 81
4437 88 209 71
4438 88 366 64
4439 88 118 35
4440 88 246 2
4441 88 284 82
4442 88 326 69
4443 88 54 3
4444 88 388 17
4445 88 109 91
4446 88 373 97
4447 88 263 6
4448 88 328 66
4449 88 31 43
4450 88 10 84
4451 88 170 23
4452 88 324 48
4453 88 6 38
4454 88 198 41
4455 88 86 55
4456 88 357 68
4457 88 346 38
4458 88 15 59
4459 88 180 77
4460 88 144 77
4461 88 99 13
4462 89 142 96
4463 89 66 62
4464 89 214 21
4465 89 237 60
4466 89 104 92
4467 89 197 67
4468 89 257 91
4469 89 116 4
4470 89 74 23
4471 89 17 100
4472 89 256 88
4473 89 247 59
4474 89 54 22
4475 89 241 33
4476 89 112 10
4477 89 115 100
4478 89 159 75
4479 89 185 68
4480 89 254 89
4481 89 24 59
4482 89 21 48
4483 89 315 49
4484 89 263 19
4485 89 221 100
4486 89 18 20
4487 89 6 44
4488 89 346 56
4489 89 300 61
4490 89 40 32
4491 89 205 40
4492 89 217 18
4493 89 14 11
4494 89 355 35
4495 89 383 20
4496 89 49 50
4497 89 388 62
4498 89 38 64
4499 89 145 37
4500 89 371 91
4501 89 2 68
4502 89 245 85
4503 89 68 57
4504 89 244 14
4505 89 230 98
4506 89 216 10
4507 89 229 85
4508 89 352 4
4509 89 343 41
4510 90 142 62
4511 90 376 57
4512 90 350 31
4513 90 172 3
4514 90 283 93
4515 90 207 65
4516 90 224 83
4517 90 51 47
4518 90 40 71
4519 90 97 22
4520 90 65 35
4521 90 352 29
4522 90 103 6
4523 90 361 41
4524 90 17 47
4525 90 30 88
4526 90 100 65
4527 90 221 11
4528 90 322 67
4529 90 274 51
4530 90 6 25
4531 90 284 65
4532 90 160 17
4533 90 159 48
4534 90 380 37
4535 90 205 26
4536 90 304 51
4537 90 104 46
4538 90 43 73
4539 90 122 62
4540 90 395 48
4541 90 32 15
4542 90 210 1
4543 90 234 62
4544 90 206 48
4545 90 70 50
4546 90 335 18
4547 90 332 51
4548 90 253 79
4549 90 291 22
4550 90 324 17
4551 90 315 50
4552 90 140 72
4553 90 347 40
4554 90 181 20
4555 91 150 4
4556 91 333 77
4557 91 164 19
4558 91 162 23
4559 91 294 83
4560 91 324 12
4561 91 357 30
4562 91 258 55
4563 91 273 8
4564 91 255 44
4565 91 58 61
4566 91 240 86
4567 91 246 79
4568 91 344 59
4569 91 48 79
4570 91 250 88
4571 91 218 21
4572 91 387 62
4573 91 175 7
4574 91 45 17
4575 91 358 30
4576 91 83 64
4577 91 219 81
4578 91 117 18
4579 91 194 80
4580 91 18 42
4581 91 5 26
4582 91 388 34
4583 91 97 28
4584 91 20 100
4585 91 345 90
4586 91 349 21
4587 91 95 19
4588 91 186 95
4589 91 342 4
4590 91 267 34
4591 91 28 60
4592 91 185 53
4593 91 132 29
4594 91 289 79
4595 91 201 36
4596 91 1 36
4597 91 17 48
4598 91 233 59
4599 91 326 20
4600 91 130 72
4601 91 142 21
4602 91 143 50
4603 91 55 15
4604 91 275 65
4605 91 145 53
4606 91 101 61
4607 91 168 75
4608 91 280 52
4609 91 104 64
4610 91 396 80
4611 91 277 22
4612 91 144 63
4613 91 392 17
4614 91 301 45
4615 91 23 73
4616 91 320 73
4617 91 257 65
4618 92 306 37
4619 92 242 78
4620 92 265 71
4621 92 384 49
4622 92 43 1
4623 92 235 11
4624 92 207 64
4625 92 269 61
4626 92 137 45
4627 92 138 84
4628 92 239 97
4629 92 168 91
4630 92 244 47
4631 92 58 56
4632 92 181 20
4633 92 353 21
4634 92 98 95
4635 92 133 16
4636 92 164 90
4637 92 126 58
4638 92 198 10
4639 92 55 38
4640 92 128 55
4641 92 209 64
4642 92 218 34
4643 92 247 84
4644 92 257 16
4645 92 50 70
4646 92 344 70
4647 92 119 3
4648 92 324 41
4649 92 280 4
4650 92 258 44
4651 92 201 68
4652 92 191 26
4653 92 330 70
4654 92 227 77
4655 92 14 16
4656 92 361 36
4657 92 197 52
4658 92 107 21
4659 92 57 13
4660 92 32 84
4661 92 179 66
4662 92 183 80
4663 92 208 37
4664 92 131 13
4665 92 272 62
4666 92 155 73
4667 92 359 45
4668 92 170 64
4669 92 174 48
4670 92 166 68
4671 92 225 12
4672 92 291 82
4673 93 188 14
4674 93 114 71
4675 93 30 51
4676 93 285 29
4677 93 86 55
4678 93 332 78
4679 93 230 85
4680 93 156 3
4681 93 118 59
4682 93 189 51
4683 93 198 53
4684 93 251 83
4685 93 211 73
4686 93 341 79
4687 93 131 26
4688 93 66 86
4689 93 24 56
4690 93 327 15
4691 93 193 99
4692 93 393 59
4693 93 282 94
4694 93 298 26
4695 93 203 19
4696 93 147 95
4697 93 384 82
4698 93 22 61
4699 93 398 13
4700 93 316 39
4701 93 8 46
4702 93 275 70
4703 93 235 91
4704 93 262 28
4705 93 15 73
4706 93 182 11
4707 93 180 70
4708 93 242 85
4709 93 255 60
4710 93 215 30
4711 93 362 20
4712 93 210 42
4713 93 115 10
4714 93 337 35
4715 93 197 42
4716 93 224 37
4717 93 208 54
4718 93 47 3
4719 93 175 55
4720 93 128 86
4721 93 109 7
4722 93 358 60
4723 93 77 56
4724 93 263 34
4725 93 360 83
4726 93 142 79
4727 93 164 4
4728 93 144 29
4729 93 324 90
4730 93 38 61
4731 94 72 73
4732 94 12 10
4733 94 305 67
4734 94 4 78
4735 94 344 40
4736 94 86 39
4737 94 340 77
4738 94 222 79
4739 94 243 64
4740 94 187 5
4741 94 372 59
4742 94 239 4
4743 94 353 40
4744 94 286 99
4745 94 73 44
4746 94 398 91
4747 94 166 36
4748 94 326 72
4749 94 189 23
4750 94 217 16
4751 94 182 31
4752 94 21 42
4753 94 384 86
4754 94 349 37
4755 94 369 88
4756 94 119 75
4757 94 131 61
4758 94 389 100
4759 94 167 91
4760 94 303 46
4761 94 283 73
4762 94 377 91
4763 94 78 75
4764 94 302 25
4765 94 290 48
4766 94 58 26
4767 94 161 65
4768 94 106 40
4769 94 116 73
4770 94 362 54
4771 94 54 98
4772 94 6 11
4773 94 367 23
4774 94 271 99
4775 94 205 82
4776 94 32 90
4777 94 92 95
4778 94 7 44
4779 94 317 42
4780 94 61 44
4781 95 196 85
4782 95 198 78
4783 95 165 23
4784 95 350 24
4785 95 26 10
4786 95 32 90
4787 95 194 39
4788 95 220 52
4789 95 64 26
4790 95 79 83
4791 95 90 97
4792 95 317 91
4793 95 353 17
4794 95 129 69
4795 95 124 61
4796 95 309 70
4797 95 380 89
4798 95 352 16
4799 95 166 10
4800 95 56 55
4801 95 393 17
4802 95 186 42
4803 95 137 82
4804 95 268 78
4805 95 189 70
4806 95 231 83
4807 95 381 30
4808 95 398 84
4809 95 293 98
4810 95 313 74
4811 95 126 14
4812 95 109 28
4813 95 311 45
4814 95 242 8
4815 95 324 65
4816 95 395 32
4817 95 357 21
4818 95 43 83
4819 95 140 26
4820 95 385 19
4821 95 217 30
4822 95 181 87
4823 95 30 43
4824 95 206 76
4825 95 42 11
4826 95 333 94
4827 96 344 53
4828 96 106 82
4829 96 234 50
4830 96 141 85
4831 96 320 14
4832 96 192 8
4833 96 63 60
4834 96 348 37
4835 96 224 50
4836 96 102 38
4837 96 135 97
4838 96 78 33
4839 96 43 28
4840 96 369 79
4841 96 395 80
4842 96 93 100
4843 96 365 18
4844 96 319 2
4845 96 177 55
4846 96 342 16
4847 96 283 9
4848 96 237 8
4849 96 240 35
4850 96 350 97
4851 96 200 85
4852 96 321 89
4853 96 394 71
4854 96 59 52
4855 96 100 42
4856 96 168 64
4857 96 253 69
4858 96 396 23
4859 96 397 80
4860 96 270 88
4861 96 66 41
4862 96 19 59
4863 96 370 69
4864 96 275 63
4865 96 213 62
4866 97 328 43
4867 97 273 42
4868 97 224 1
4869 97 91 59
4870 97 80 14
4871 97 221 66
4872 97 330 10
4873 97 296 87
4874 97 73 2
4875 97 66 23
4876 97 72 48
4877 97 40 44
4878 97 356 83
4879 97 103 92
4880 97 163 6
4881 97 23 70
4882 97 268 39
4883 97 208 97
4884 97 258 30
4885 97 121 21
4886 97 365 26
4887 97 218 38
4888 97 47 35
4889 97 260 75
4890 97 194 60
4891 97 45 21
4892 97 137 63
4893 97 148 45
4894 97 349 83
4895 97 211 48
4896 97 173 42
4897 97 353 56
4898 97 95 58
4899 97 202 87
4900 97 217 91
4901 97 375 8
4902 97 259 62
4903 97 34 8
4904 97 199 76
4905 97 150 11
4906 97 106 92
4907 97 371 83
4908 97 112 54
4909 97 302 10
4910 97 37 62
4911 97 151 6
4912 97 370 69
4913 97 307 96
4914 97 299 36
4915 97 142 56
4916 97 350 4
4917 97 253 78
4918 98 386 38
4919 98 224 100
4920 98 360 45
4921 98 239 51
4922 98 357 63
4923 98 258 47
4924 98 76 72
4925 98 228 3
4926 98 249 83
4927 98 303 75
4928 98 397 96
4929 98 243 40
4930 98 294 70
4931 98 168 28
4932 98 184 88
4933 98 72 3
4934 98 19 9
4935 98 207 26
4936 98 44 26
4937 98 58 77
4938 98 380 44
4939 98 112 74
4940 98 233 6
4941 98 199 60
4942 98 141 87
4943 98 185 44
4944 98 178 38
4945 98 49 90
4946 98 274 94
4947 98 240 11
4948 98 14 10
4949 98 268 72
4950 98 68 100
4951 98 339 25
4952 98 54 20
4953 98 259 37
4954 98 127 15
4955 98 106 3
4956 98 126 91
4957 98 399 17
4958 98 237 98
4959 98 225 35
4960 98 174 55
4961 98 390 38
4962 98 204 2
4963 98 279 49
4964 98 245 29
4965 98 265 38
4966 98 192 79
4967 98 370 68
4968 98 117 82
4969 98 311 82
4970 98 260 78
4971 98 206 7
4972 98 81 84
4973 99 101 33
4974 99 253 9
4975 99 398 78
4976 99 184 6
4977 99 157 93
4978 99 267 18
4979 99 163 47
4980 99 116 12
4981 99 96 13
4982 99 49 73
4983 99 389 2
4984 99 325 19
4985 99 273 38
4986 99 369 36
4987 99 95 11
4988 99 205 25
4989 99 264 51
4990 99 224 91
4991 99 344 11
4992 99 78 54
4993 99 385 60
4994 99 97 18
4995 99 136 56
4996 99 175 68
4997 99 135 84
4998 99 307 62
4999 99 241 61
5000 99 189 24
5001 99 211 1
5002 99 151 97
5003 99 36 85
5004 99 54 64
5005 99 38 92
5006 99 42 95
5007 99 327 72
5008 99 234 32
5009 99 92 81
5010 99 302 17
5011 99 393 38
5012 99 75 70
5013 99 206 28
5014 99 171 46
5015 99 207 53
5016 99 288 15
5017 99 287 13
5018 99 108 50
5019 99 82 93
5020 99 272 89
5021 99 140 81
5022 99 210 16
5023 99 28 58
5024 99 298 29
5025 99 187 30
5026 100 231 83
5027 100 130 66
5028 100 166 60
5029 100 113 89
5030 100 173 12
5031 100 174 73
5032 100 22 16
5033 100 291 67
5034 100 194 99
5035 100 161 31
5036 100 4 65
5037 100 376 60
5038 100 137 71
5039 100 96 32
5040 100 86 25
5041 100 150 22
5042 100 373 56
5043 100 301 66
5044 100 15 61
5045 100 156 93
5046 100 149 53
5047 100 94 28
5048 100 369 58
5049 100 101 60
5050 100 336 31
5051 100 63 8
5052 100 9 51
5053 100 307 5
5054 100 276 95
5055 100 259 25
5056 100 82 51
5057 100 197 90
5058 100 209 16
5059 100 318 62
5060 100 387 73
5061 100 1 17
5062 100 188 67
5063 100 52 54
5064 100 347 2
5065 100 53 88
5066 100 205 40
5067 100 178 58
5068 100 169 60
5069 100 222 31
5070 100 381 17
5071 100 300 63
5072 100 317 91
5073 100 297 45
5074 100 136 24
5075 100 155 68
5076 100 375 81
5077 100 253 94
5078 100 87 67
5079 100 93 20
5080 101 0 99
5081 101 278 2
5082 101 201 76
5083 101 359 45
5084 101 214 7
5085 101 10 80
5086 101 271 60
5087 101 30 40
5088 101 391 76
5089 101 25 79
5090 101 59 90
5091 101 2 1
5092 101 339 43
5093 101 334 65
5094 101 180 6
5095 101 354 73
5096 101 191 72
5097 101 50 81
5098 101 269 61
5099 101 267 8
5100 101 373 82
5101 101 260 60
5102 101 256 100
5103 101 38 99
5104 101 364 77
5105 101 397 9
5106 101 266 77
5107 101 97 98
5108 101 294 12
5109 101 315 98
5110 101 82 81
5111 101 195 46
5112 101 61 96
5113 101 117 68
5114 101 143 71
5115 101 258 28
5116 101 37 33
5117 101 56 46
5118 101 135 24
5119 101 375 34
5120 101 333 41
5121 101 243 36
5122 101 158 53
5123 101 44 60
5124 101 313 89
5125 101 140 63
5126 101 88 44
5127 101 362 20
5128 101 383 12
5129 102 38 2
5130 102 19 68
5131 102 311 24
5132 102 136 14
5133 102 70 76
5134 102 340 14
5135 102 141 37
5136 102 122 28
5137 102 252 87
5138 102 287 70
5139 102 30 83
5140 102 116 3
5141 102 96 23
5142 102 296 4
5143 102 255 69
5144 102 9 79
5145 102 269 99
5146 102 373 53
5147 102 280 62
5148 102 31 15
5149 102 181 80
5150 102 371 13
5151 102 392 99
5152 102 218 94
5153 102 61 76
5154 102 329 98
5155 102 229 14
5156 102 43 53
5157 102 54 7
5158 102 50 76
5159 102 195 15
5160 102 350 18
5161 102 245 50
5162 102 22 72
5163 102 11 74
5164 102 214 57
5165 102 137 44
5166 102 330 31
5167 102 175 75
5168 102 129 94
5169 102 103 87
5170 102 345 42
5171 102 320 28
5172 102 132 17
5173 102 111 22
5174 102 326 62
5175 102 62 4
5176 102 44 94
5177 102 372 71
5178 102 367 56
5179 102 304 45
5180 102 348 65
5181 102 339 22
5182 102 388 60
5183 102 93 11
5184 102 279 93
5185 102 397 27
5186 103 378 92
5187 103 184 31
5188 103 80 53
5189 103 343 62
5190 103 201 56
5191 103 265 75
5192 103 253 47
5193 103 236 16
5194 103 29 76
5195 103 179 39
5196 103 374 80
5197 103 55 16
5198 103 183 74
5199 103 162 73
5200 103 387 80
5201 103 372 54
5202 103 264 89
5203 103 10 38
5204 103 50 82
5205 103 354 67
5206 103 52 16
5207 103 303 100
5208 103 163 79
5209 103 243 16
5210 103 209 82
5211 103 77 41
5212 103 9 78
5213 103 129 64
5214 103 20 64
5215 103 219 66
5216 103 293 11
5217 103 113 93
5218 103 12 33
5219 103 16 51
5220 103 364 48
5221 103 119 97
5222 103 117 72
5223 103 315 79
5224 103 157 59
5225 103 318 98
5226 103 186 27
5227 103 122 59
5228 103 81 46
5229 103 30 6
5230 103 148 59
5231 103 260 3
5232 103 104 1
5233 103 298 62
5234 104 321 91
5235 104 87 67
5236 104 40 23
5237 104 130 67
5238 104 244 15
5239 104 4 76
5240 104 361 94
5241 104 109 64
5242 104 36 43
5243 104 292 77
5244 104 158 75
5245 104 100 17
5246 104 105 82
5247 104 157 25
5248 104 354 94
5249 104 238 2
5250 104 313 33
5251 104 170 53
5252 104 239 44
5253 104 189 96
5254 104 293 69
5255 104 326 65
5256 104 363 56
5257 104 48 28
5258 104 308 74
5259 104 320 32
5260 104 86 12
5261 104 225 24
5262 104 66 40
5263 104 124 70
5264 104 33 58
5265 104 228 85
5266 104 177 4
5267 104 69 92
5268 104 330 80
5269 104 233 61
5270 104 375 95
5271 104 28 24
5272 104 324 5
5273 104 37 99
5274 104 380 52
5275 104 209 68
5276 104 39 69
5277 104 284 96
5278 104 276 9
5279 105 385 86
5280 105 55 38
5281 105 271 60
5282 105 179 77
5283 105 130 65
5284 105 134 38
5285 105 363 100
5286 105 248 25
5287 105 185 14
5288 105 323 84
5289 105 140 23
5290 105 327 100
5291 105 120 51
5292 105 344 38
5293 105 238 62
5294 105 50 32
5295 105 89 72
5296 105 20 87
5297 105 75 56
5298 105 335 67
5299 105 167 66
5300 105 308 1
5301 105 53 72
5302 105 78 14
5303 105 68 17
5304 105 122 53
5305 105 145 96
5306 105 9 87
5307 105 178 12
5308 105 245 67
5309 105 192 86
5310 105 91 1
5311 105 72 59
5312 105 18 73
5313 105 205 5
5314 105 374 6
5315 105 294 57
5316 105 35 57
5317 105 260 39
5318 105 103 67
5319 105 142 45
5320 105 285 14
5321 105 320 84
5322 105 223 5
5323 105 202 10
5324 105 301 58
5325 105 355 87
5326 105 217 42
5327 105 354 14
5328 105 339 56
5329 105 177 59
5330 105 348 50
5331 105 340 85
5332 105 373 71
5333 106 388 32
5334 106 149 38
5335 106 153 99
5336 106 324 17
5337 106 147 49
5338 106 356 79
5339 106 191 93
5340 106 49 92
5341 106 131 1
5342 106 244 32
5343 106 80 47
5344 106 151 74
5345 106 13 11
5346 106 387 10
5347 106 129 7
5348 106 202 12
5349 106 72 36
5350 106 309 12
5351 106 112 42
5352 106 31 22
5353 106 8 1
5354 106 83 29
5355 106 343 66
5356 106 36 65
5357 106 341 20
5358 106 301 73
5359 106 92 21
5360 106 27 53
5361 106 145 43
5362 106 116 57
5363 106 227 16
5364 106 348 52
5365 106 169 19
5366 106 119 10
5367 106 247 28
5368 106 338 2
5369 106 386 34
5370 106 161 98
5371 106 152 97
5372 106 262 37
5373 106 223 8
5374 106 394 37
5375 106 179 66
5376 106 270 71
5377 106 67 82
5378 106 104 57
5379 107 312 38
5380 107 263 51
5381 107 363 77
5382 107 77 56
5383 107 45 13
5384 107 296 100
5385 107 75 1
5386 107 62 84
5387 107 196 42
5388 107 148 76
5389 107 22 80
5390 107 162 9
5391 107 274 23
5392 107 318 32
5393 107 372 63
5394 107 265 53
5395 107 378 61
5396 107 67 61
5397 107 267 18
5398 107 48 64
5399 107 85 92
5400 107 386 5
5401 107 144 42
5402 107 249 59
5403 107 232 67
5404 107 384 94
5405 107 284 56
5406 107 14 45
5407 107 396 44
5408 107 215 89
5409 107 178 20
5410 107 55 1
5411 107 326 42
5412 107 299 35
5413 107 350 72
5414 107 169 28
5415 107 100 59
5416 107 209 100
5417 107 313 40
5418 107 137 52
5419 107 128 78
5420 107 231 92
5421 107 0 87
5422 107 143 6
5423 107 321 55
5424 107 192 97
5425 107 16 39
5426 107 146 64
5427 107 10 100
5428 107 205 53
5429 108 399 33
5430 108 197 8
5431 108 212 48
5432 108 223 79
5433 108 65 1
5434 108 47 100
5435 108 192 82
5436 108 167 89
5437 108 1 37
5438 108 303 34
5439 108 309 2
5440 108 222 90
5441 108 256 71
5442 108 379 32
5443 108 316 25
5444 108 94 95
5445 108 262 95
5446 108 159 50
5447 108 182 75
5448 108 19 19
5449 108 193 10
5450 108 352 43
5451 108 30 87
5452 108 18 18
5453 108 312 53
5454 108 358 6
5455 108 383 84
5456 108 100 52
5457 108 113 39
5458 108 168 40
5459 108 42 86
5460 108 60 13
5461 108 311 55
5462 108 348 18
5463 108 151 24
5464 108 240 2
5465 108 345 25
5466 108 49 34
5467 108 272 49
5468 108 123 69
5469 108 27 82
5470 108 102 37
5471 108 350 30
5472 108 293 67
5473 108 48 86
5474 108 331 76
5475 108 96 44
5476 108 15 33
5477 108 105 64
5478 108 75 58
5479 108 232 93
5480 109 384 10
5481 109 328 83
5482 109 295 50
5483 109 92 100
5484 109 303 5
5485 109 207 34
5486 109 17 68
5487 109 12 4
5488 109 342 48
5489 109 44 60
5490 109 99 31
5491 109 1 42
5492 109 153 70
5493 109 52 65
5494 109 40 34
5495 109 362 34
5496 109 89 45
5497 109 390 34
5498 109 140 72
5499 109 364 16
5500 109 287 17
5501 109 265 40
5502 109 146 52
5503 109 193 13
5504 109 296 86
5505 109 41 42
5506 109 48 59
5507 109 299 6
5508 109 137 75
5509 109 161 69
5510 109 321 17
5511 109 294 61
5512 109 130 17
5513 109 247 73
5514 109 187 1
5515 109 143 68
5516 109 349 73
5517 109 244 22
5518 109 21 76
5519 109 318 4
5520 109 203 28
5521 109 85 16
5522 109 327 97
5523 109 70 71
5524 109 11 69
5525 109 123 14
5526 109 32 25
5527 109 2 47
5528 109 102 47
5529 109 33 99
5530 109 335 98
5531 109 397 70
5532 109 47 84
5533 109 104 13
5534 109 348 3
5535 109 358 88
5536 109 368 87
5537 110 135 29
5538 110 308 99
5539 110 180 73
5540 110 178 8
5541 110 33 74
5542 110 14 69
5543 110 227 68
5544 110 359 1
5545 110 263 92
5546 110 118 30
5547 110 105 22
5548 110 40 82
5549 110 293 46
5550 110 172 38
5551 110 20 22
5552 110 186 65
5553 110 171 55
5554 110 162 98
5555 110 167 96
5556 110 344 39
5557 110 117 82
5558 110 338 88
5559 110 19 34
5560 110 262 33
5561 110 328 79
5562 110 284 38
5563 110 388 62
5564 110 87 100
5565 110 10 52
5566 110 49 85
5567 110 109 86
5568 110 290 83
5569 110 331 56
5570 110 89 84
5571 110 74 12
5572 110 311 38
5573 110 241 24
5574 110 61 43
5575 110 279 68
5576 110 12 43
5577 110 356 63
5578 110 94 79
5579 110 106 31
5580 110 330 39
5581 110 224 59
5582 110 228 7
5583 110 148 74
5584 110 85 57
5585 110 28 45
5586 110 103 12
5587 110 246 19
5588 110 86 33
5589 110 13 10
5590 110 295 83
5591 111 234 57
5592 111 126 97
5593 111 300 78
5594 111 340 40
5595 111 108 23
5596 111 202 37
5597 111 84 43
5598 111 199 6
5599 111 288 76
5600 111 74 18
5601 111 372 6
5602 111 333 31
5603 111 161 8
5604 111 240 12
5605 111 379 80
5606 111 263 45
5607 111 206 22
5608 111 166 18
5609 111 301 70
5610 111 57 44
5611 111 249 1
5612 111 183 94
5613 111 296 89
5614 111 355 19
5615 111 262 39
5616 111 398 59
5617 111 99 13
5618 111 197 47
5619 111 5 22
5620 111 140 64
5621 111 141 49
5622 111 272 32
5623 111 252 91
5624 111 343 50
5625 111 321 49
5626 111 171 68
5627 111 116 62
5628 111 193 4
5629 111 96 75
5630 111 7 71
5631 111 381 75
5632 111 72 2
5633 111 385 37
5634 111 153 46
5635 112 188 6
5636 112 19 70
5637 112 396 26
5638 112 161 80
5639 112 144 33
5640 112 134 61
5641 112 42 24
5642 112 270 7
5643 112 1 60
5644 112 76 54
5645 112 383 74
5646 112 187 47
5647 112 375 26
5648 112 180 52
5649 112 211 70
5650 112 267 79
5651 112 359 20
5652 112 365 24
5653 112 287 22
5654 112 12 68
5655 112 356 74
5656 112 65 88
5657 112 387 65
5658 112 398 60
5659 112 303 67
5660 112 39 25
5661 112 216 24
5662 112 195 50
5663 112 302 75
5664 112 320 62
5665 112 279 6
5666 112 43 29
5667 112 34 52
5668 112 325 60
5669 112 242 46
5670 112 63 83
5671 112 201 65
5672 112 186 68
5673 112 268 9
5674 112 393 28
5675 112 68 47
5676 112 162 23
5677 112 368 71
5678 112 198 87
5679 112 62 45
5680 112 221 80
5681 112 156 4
5682 112 118 62
5683 112 47 54
5684 112 127 46
5685 112 145 77
5686 112 391 98
5687 112 172 46
5688 112 72 41
5689 112 97 73
5690 112 314 8
5691 112 40 8
5692 113 65 76
5693 113 211 46
5694 113 309 28
5695 113 391 75
5696 113 394 91
5697 113 34 66
5698 113 6 38
5699 113 360 83
5700 113 277 78
5701 113 284 62
5702 113 275 2
5703 113 154 38
5704 113 222 61
5705 113 92 8
5706 113 331 92
5707 113 267 29
5708 113 270 93
5709 113 108 37
5710 113 379 1
5711 113 200 43
5712 113 137 18
5713 113 327 88
5714 113 42 75
5715 113 106 35
5716 113 11 9
5717 113 48 75
5718 113 70 15
5719 113 156 37
5720 113 17 43
5721 113 234 69
5722 113 94 80
5723 113 190 23
5724 113 286 80
5725 113 19 58
5726 114 196 4
5727 114 265 83
5728 114 288 69
5729 114 50 22
5730 114 237 83
5731 114 152 91
5732 114 174 5
5733 114 11 53
5734 114 79 72
5735 114 316 5
5736 114 329 67
5737 114 9 52
5738 114 211 99
5739 114 230 28
5740 114 310 51
5741 114 16 55
5742 114 18 21
5743 114 102 92
5744 114 252 83
5745 114 73 16
5746 114 348 30
5747 114 260 91
5748 114 397 14
5749 114 127 30
5750 114 367 6
5751 114 322 59
5752 114 327 10
5753 114 247 96
5754 114 395 53
5755 114 195 77
5756 114 156 46
5757 114 124 21
5758 114 309 10
5759 114 280 46
5760 114 325 51
5761 114 0 88
5762 114 139 4
5763 114 297 45
5764 114 270 49
5765 114 48 75
5766 114 399 69
5767 114 13 61
5768 114 27 30
5769 114 81 43
5770 114 113 86
5771 114 293 18
5772 114 379 53
5773 114 306 73
5774 114 334 8
5775 114 387 73
5776 114 154 6
5777 114 377 9
5778 114 46 39
5779 114 155 65
5780 115 174 80
5781 115 91 82
5782 115 227 63
5783 115 23 47
5784 115 341 38
5785 115 343 65
5786 115 65 36
5787 115 52 11
5788 115 384 14
5789 115 75 76
5790 115 195 74
5791 115 268 37
5792 115 239 98
5793 115 244 63
5794 115 264 43
5795 115 358 56
5796 115 330 30
5797 115 17 91
5798 115 278 31
5799 115 166 66
5800 115 83 57
5801 115 245 76
5802 115 155 30
5803 115 315 28
5804 115 326 24
5805 115 24 29
5806 115 289 45
5807 115 256 52
5808 115 262 79
5809 115 186 75
5810 115 22 13
5811 115 314 94
5812 115 385 97
5813 115 161 7
5814 115 103 59
5815 115 8 14
5816 115 31 5
5817 115 273 64
5818 115 334 20
5819 115 106 81
5820 115 301 53
5821 115 0 33
5822 115 288 48
5823 115 151 49
5824 115 82 24
5825 115 57 77
5826 115 222 22
5827 115 165 97
5828 115 63 13
5829 115 16 18
5830 115 119 18
5831 115 361 11
5832 115 90 8
5833 115 150 51
5834 115 324 80
5835 115 307 38
5836 115 338 27
5837 116 234 60
5838 116 361 79
5839 116 311 99
5840 116 60 99
5841 116 240 49
5842 116 386 18
5843 116 316 57
5844 116 252 7
5845 116 15 33
5846 116 335 53
5847 116 37 35
5848 116 337 67
5849 116 366 63
5850 116 226 67
5851 116 268 18
5852 116 382 59
5853 116 297 84
5854 116 2 66
5855 116 143 58
5856 116 313 30
5857 116 123 42
5858 116 103 70
5859 116 9 88
5860 116 294 54
5861 116 14 46
5862 116 371 90
5863 116 375 71
5864 116 47 24
5865 116 362 27
5866 116 233 89
5867 116 167 49
5868 116 0 25
5869 116 312 5
5870 116 38 54
5871 116 174 17
5872 116 344 58
5873 116 135 59
5874 116 353 59
5875 116 264 81
5876 116 394 66
5877 116 12 77
5878 116 16 24
5879 116 341 71
5880 116 377 26
5881 116 137 72
5882 116 219 70
5883 116 96 13
5884 117 99 20
5885 117 77 77
5886 117 272 69
5887 117 134 41
5888 117 140 50
5889 117 364 18
5890 117 141 31
5891 117 162 13
5892 117 262 94
5893 117 112 11
5894 117 317 49
5895 117 2 48
5896 117 179 56
5897 117 181 77
5898 117 289 48
5899 117 122 8
5900 117 146 17
5901 117 299 17
5902 117 228 53
5903 117 3 63
5904 117 373 73
5905 117 354 52
5906 117 370 81
5907 117 306 84
5908 117 4 76
5909 117 311 73
5910 117 347 9
5911 117 149 58
5912 117 61 73
5913 117 397 10
5914 117 291 100
5915 117 66 50
5916 117 21 94
5917 117 97 34
5918 117 178 52
5919 117 84 78
5920 117 280 38
5921 117 172 69
5922 117 222 63
5923 117 175 13
5924 117 38 12
5925 117 88 23
5926 117 159 42
5927 117 96 52
5928 117 50 58
5929 117 22 31
5930 117 16 83
5931 117 211 70
5932 117 173 49
5933 117 62 17
5934 117 39 59
5935 117 363 63
5936 117 196 39
5937 117 197 25
5938 118 330 45
5939 118 266 59
5940 118 101 56
5941 118 98 44
5942 118 298 79
5943 118 14 29
5944 118 77 73
5945 118 75 87
5946 118 42 82
5947 118 112 53
5948 118 153 20
5949 118 297 11
5950 118 198 66
5951 118 290 29
5952 118 221 44
5953 118 306 78
5954 118 392 19
5955 118 45 95
5956 118 242 34
5957 118 1 75
5958 118 87 10
5959 118 47 49
5960 118 32 88
5961 118 230 14
5962 118 50 50
5963 118 261 12
5964 118 81 90
5965 118 355 24
5966 118 214 51
5967 118 243 54
5968 118 178 67
5969 118 186 12
5970 118 181 67
5971 118 127 17
5972 118 208 29
5973 118 314 79
5974 118 160 23
5975 118 85 33
5976 118 36 46
5977 118 342 60
5978 118 276 52
5979 118 128 39
5980 119 190 100
5981 119 265 75
5982 119 324 22
5983 119 321 83
5984 119 16 84
5985 119 204 81
5986 119 108 24
5987 119 69 78
5988 119 378 23
5989 119 391 6
5990 119 143 50
5991 119 77 57
5992 119 62 80
5993 119 300 97
5994 119 112 32
5995 119 259 70
5996 119 369 48
5997 119 344 64
5998 119 289 26
5999 119 279 47
6000 119 293 97
6001 119 202 78
6002 119 362 84
6003 119 34 97
6004 119 192 39
6005 119 328 5
6006 119 266 41
6007 119 94 29
6008 119 42 73
6009 119 90 71
6010 119 198 85
6011 119 196 89
6012 119 50 55
6013 119 224 99
6014 119 311 43
6015 119 140 46
6016 119 263 44
6017 119 352 16
6018 119 313 2
6019 119 115 51
6020 119 375 13
6021 119 20 10
6022 119 57 56
6023 119 60 31
6024 119 326 72
6025 119 68 74
6026 119 100 37
6027 120 311 88
6028 120 126 35
6029 120 284 75
6030 120 25 97
6031 120 128 40
6032 120 10 15
6033 120 105 32
6034 120 396 84
6035 120 247 1
6036 120 11 23
6037 120 354 37
6038 120 172 78
6039 120 187 27
6040 120 193 60
6041 120 27 89
6042 120 303 18
6043 120 351 99
6044 120 122 55
6045 120 383 13
6046 120 152 24
6047 120 267 83
6048 120 102 72
6049 120 188 92
6050 120 51 86
6051 120 390 68
6052 120 146 18
6053 120 34 21
6054 120 268 62
6055 120 288 42
6056 120 294 28
6057 120 132 22
6058 120 336 91
6059 120 377 86
6060 120 393 53
6061 120 183 91
6062 120 394 21
6063 120 260 51
6064 120 83 9
6065 120 330 24
6066 120 5 5
6067 120 62 42
6068 120 240 56
6069 120 376 75
6070 120 109 7
6071 120 26 94
6072 120 291 94
6073 120 75 57
6074 120 266 51
6075 120 110 39
6076 121 351 60
6077 121 282 50
6078 121 268 85
6079 121 211 58
6080 121 379 18
6081 121 12 81
6082 121 158 21
6083 121 91 40
6084 121 316 45
6085 121 22 39
6086 121 106 67
6087 121 250 40
6088 121 277 51
6089 121 241 55
6090 121 165 25
6091 121 212 3
6092 121 291 70
6093 121 330 40
6094 121 105 65
6095 121 4 29
6096 121 13 5
6097 121 92 87
6098 121 59 90
6099 121 190 12
6100 121 375 26
6101 121 148 19
6102 121 169 11
6103 121 27 35
6104 121 248 19
6105 121 124 86
6106 121 219 25
6107 121 18 31
6108 121 347 34
6109 121 294 44
6110 121 153 86
6111 121 117 32
6112 121 65 90
6113 121 242 63
6114 121 183 47
6115 121 38 2
6116 121 396 20
6117 121 210 92
6118 121 237 13
6119 121 392 80
6120 121 262 1
6121 121 189 31
6122 121 54 19
6123 121 186 34
6124 121 66 33
6125 121 85 13
6126 121 142 31
6127 121 275 30
6128 121 300 19
6129 121 221 81
6130 122 217 23
6131 122 203 34
6132 122 314 97
6133 122 326 90
6134 122 291 42
6135 122 239 61
6136 122 207 62
6137 122 358 72
6138 122 77 28
6139 122 220 28
6140 122 377 63
6141 122 299 76
6142 122 347 32
6143 122 166 62
6144 122 149 1
6145 122 100 69
6146 122 31 51
6147 122 281 26
6148 122 229 66
6149 122 267 95
6150 122 321 19
6151 122 323 75
6152 122 341 70
6153 122 295 70
6154 122 325 45
6155 122 160 18
6156 122 108 37
6157 122 250 83
6158 122 139 74
6159 122 128 51
6160 122 156 59
6161 122 155 94
6162 122 101 23
6163 122 261 12
6164 122 109 11
6165 122 157 13
6166 122 335 26
6167 122 252 23
6168 122 236 1
6169 122 345 71
6170 122 130 14
6171 122 368 42
6172 122 356 33
6173 122 125 20
6174 122 80 52
6175 122 37 75
6176 123 207 97
6177 123 183 46
6178 123 290 3
6179 123 341 2
6180 123 43 10
6181 123 303 80
6182 123 182 89
6183 123 332 56
6184 123 208 66
6185 123 31 39
6186 123 372 55
6187 123 138 70
6188 123 390 62
6189 123 345 30
6190 123 394 57
6191 123 142 97
6192 123 152 43
6193 123 93 55
6194 123 145 12
6195 123 380 54
6196 123 176 72
6197 123 124 97
6198 123 279 16
6199 123 211 40
6200 123 331 90
6201 123 12 25
6202 123 315 92
6203 123 44 82
6204 123 170 60
6205 123 247 84
6206 123 216 45
6207 123 141 33
6208 123 118 98
6209 123 199 60
6210 123 282 36
6211 123 369 1
6212 123 9 16
6213 123 0 91
6214 123 238 40
6215 123 144 7
6216 123 393 48
6217 123 293 83
6218 123 103 88
6219 123 368 18
6220 123 174 44
6221 123 258 34
6222 123 350 29
6223 123 335 20
6224 123 164 51
6225 123 377 30
6226 123 281 47
6227 123 272 7
6228 123 83 97
6229 124 154 79
6230 124 186 23
6231 124 343 56
6232 124 201 27
6233 124 214 52
6234 124 80 76
6235 124 253 8
6236 124 366 31
6237 124 342 49
6238 124 101 71
6239 124 397 7
6240 124 110 59
6241 124 283 62
6242 124 77 97
6243 124 393 97
6244 124 192 50
6245 124 382 31
6246 124 323 4
6247 124 39 98
6248 124 81 90
6249 124 40 29
6250 124 334 23
6251 124 251 64
6252 124 272 16
6253 124 143 68
6254 124 140 91
6255 124 173 33
6256 124 347 28
6257 124 188 70
6258 124 74 93
6259 124 217 32
6260 124 56 20
6261 124 145 59
6262 124 209 45
6263 124 49 89
6264 124 125 2
6265 124 60 88
6266 124 211 57
6267 124 363 84
6268 124 296 6
6269 124 164 71
6270 124 131 53
6271 124 348 3
6272 124 32 38
6273 124 147 37
6274 124 159 22
6275 124 245 80
6276 124 118 60
6277 124 270 52
6278 124 257 1
6279 124 341 28
6280 124 130 33
6281 124 89 55
6282 124 126 13
6283 124 83 85
6284 124 294 10
6285 124 306 64
6286 125 206 32
6287 125 392 70
6288 125 209 52
6289 125 211 27
6290 125 123 92
6291 125 5 93
6292 125 145 45
6293 125 240 44
6294 125 71 84
6295 125 185 54
6296 125 27 26
6297 125 263 13
6298 125 267 46
6299 125 63 41
6300 125 153 81
6301 125 295 79
6302 125 265 25
6303 125 242 4
6304 125 381 39
6305 125 305 10
6306 125 127 100
6307 125 256 67
6308 125 357 50
6309 125 386 12
6310 125 146 100
6311 125 239 4
6312 125 390 62
6313 125 6 84
6314 125 328 83
6315 125 93 100
6316 125 166 49
6317 125 0 60
6318 125 9 23
6319 125 163 66
6320 125 59 8
6321 125 76 79
6322 125 384 83
6323 125 389 43
6324 125 23 7
6325 125 169 36
6326 125 311 72
6327 125 87 97
6328 125 92 30
6329 125 395 58
6330 125 226 9
6331 125 275 9
6332 125 205 87
6333 125 89 19
6334 125 298 76
6335 125 281 5
6336 125 221 91
6337 125 351 49
6338 126 360 31
6339 126 53 16
6340 126 320 35
6341 126 260 83
6342 126 374 59
6343 126 220 73
6344 126 306 9
6345 126 341 40
6346 126 327 30
6347 126 141 75
6348 126 372 34
6349 126 77 19
6350 126 145 43
6351 126 135 95
6352 126 272 62
6353 126 29 64
6354 126 14 84
6355 126 293 45
6356 126 62 12
6357 126 32 28
6358 126 33 67
6359 126 218 82
6360 126 52 92
6361 126 290 23
6362 126 175 87
6363 126 44 37
6364 126 316 37
6365 126 313 39
6366 126 238 21
6367 126 170 80
6368 126 34 30
6369 126 129 33
6370 126 7 42
6371 126 116 34
6372 126 124 53
6373 126 149 21
6374 126 253 99
6375 126 87 54
6376 126 49 87
6377 126 359 98
6378 126 196 53
6379 126 270 48
6380 126 365 61
6381 126 351 41
6382 126 343 37
6383 126 18 2
6384 126 107 12
6385 126 242 60
6386 126 16 22
6387 126 249 6
6388 126 385 78
6389 126 56 40
6390 126 370 37
6391 126 189 1
6392 126 119 31
6393 127 166 7
6394 127 334 20
6395 127 219 3
6396 127 183 42
6397 127 120 46
6398 127 61 78
6399 127 3 37
6400 127 373 18
6401 127 318 15
6402 127 356 40
6403 127 15 14
6404 127 350 2
6405 127 332 54
6406 127 243 61
6407 127 369 88
6408 127 367 94
6409 127 333 75
6410 127 68 33
6411 127 45 29
6412 127 14 25
6413 127 129 18
6414 127 145 8
6415 127 365 29
6416 127 359 16
6417 127 374 81
6418 127 225 2
6419 127 109 100
6420 127 224 3
6421 127 115 94
6422 127 372 51
6423 127 181 83
6424 127 139 42
6425 127 249 20
6426 127 267 25
6427 127 63 20
6428 127 252 9
6429 127 208 13
6430 127 328 30
6431 127 345 21
6432 127 141 32
6433 127 337 2
6434 127 43 37
6435 127 303 95
6436 127 114 22
6437 127 388 40
6438 127 85 40
6439 127 387 93
6440 127 108 10
6441 127 190 36
6442 127 202 74
6443 127 35 14
6444 127 255 58
6445 128 9 15
6446 128 182 64
6447 128 177 75
6448 128 248 24
6449 128 52 81
6450 128 91 26
6451 128 54 31
6452 128 211 84
6453 128 23 77
6454 128 236 92
6455 128 336 29
6456 128 386 79
6457 128 369 76
6458 128 125 17
6459 128 64 93
6460 128 234 48
6461 128 316 26
6462 128 94 48
6463 128 174 97
6464 128 171 71
6465 128 399 14
6466 128 186 51
6467 128 116 13
6468 128 265 76
6469 128 200 99
6470 128 275 22
6471 128 108 3
6472 128 273 25
6473 128 72 54
6474 128 77 47
6475 128 55 72
6476 128 61 36
6477 128 88 15
6478 128 17 95
6479 128 304 8
6480 128 70 59
6481 128 335 46
6482 128 89 17
6483 128 329 67
6484 128 160 80
6485 128 21 11
6486 128 311 94
6487 128 48 85
6488 128 347 9
6489 128 297 83
6490 128 243 56
6491 128 87 100
6492 128 145 98
6493 128 295 19
6494 128 179 52
6495 128 150 15
6496 128 79 15
6497 128 60 62
6498 129 206 12
6499 129 300 86
6500 129 86 29
6501 129 156 18
6502 129 75 22
6503 129 88 91
6504 129 246 25
6505 129 252 26
6506 129 333 92
6507 129 288 11
6508 129 205 55
6509 129 228 65
6510 129 281 70
6511 129 5 67
6512 129 38 47
6513 129 155 16
6514 129 131 87
6515 129 125 16
6516 129 392 52
6517 129 127 26
6518 129 209 19
6519 129 239 60
6520 129 83 13
6521 129 349 47
6522 129 82 39
6523 129 276 87
6524 129 174 80
6525 129 361 18
6526 129 357 62
6527 129 217 53
6528 129 261 81
6529 129 338 41
6530 130 44 15
6531 130 65 51
6532 130 81 100
6533 130 368 6
6534 130 135 28
6535 130 75 46
6536 130 353 4
6537 130 131 8
6538 130 183 66
6539 130 10 97
6540 130 293 91
6541 130 43 52
6542 130 112 74
6543 130 247 61
6544 130 173 40
6545 130 51 39
6546 130 301 56
6547 130 335 18
6548 130 270 48
6549 130 100 56
6550 130 211 42
6551 130 356 25
6552 130 168 18
6553 130 96 90
6554 130 370 5
6555 130 171 28
6556 130 399 67
6557 130 2 36
6558 130 312 28
6559 130 373 86
6560 130 150 44
6561 130 162 35
6562 130 213 3
6563 130 340 73
6564 130 374 57
6565 130 346 35
6566 130 132 31
6567 130 245 37
6568 130 161 39
6569 130 45 12
6570 130 352 59
6571 130 109 70
6572 130 155 65
6573 130 8 96
6574 130 309 84
6575 130 28 2
6576 130 18 7
6577 130 381 63
6578 130 396 9
6579 130 237 93
6580 130 255 78
6581 130 191 24
6582 130 37 9
6583 130 32 3
6584 130 240 58
6585 131 87 14
6586 131 261 33
6587 131 10 80
6588 131 345 10
6589 131 279 98
6590 131 67 96
6591 131 378 70
6592 131 323 20
6593 131 92 93
6594 131 80 27
6595 131 94 69
6596 131 188 54
6597 131 97 85
6598 131 322 6
6599 131 95 93
6600 131 339 34
6601 131 243 20
6602 131 125 88
6603 131 247 8
6604 131 140 9
6605 131 271 93
6606 131 300 74
6607 131 62 7
6608 131 113 3
6609 131 302 54
6610 131 223 100
6611 131 367 99
6612 131 135 78
6613 131 69 42
6614 131 202 96
6615 131 1 39
6616 131 306 64
6617 131 139 31
6618 131 107 77
6619 131 78 40
6620 131 348 8
6621 131 84 49
6622 131 14 12
6623 131 298 56
6624 131 16 39
6625 131 93 67
6626 131 269 15
6627 131 289 66
6628 131 268 66
6629 131 122 75
6630 131 227 65
6631 131 167 96
6632 131 55 59
6633 131 357 36
6634 131 326 29
6635 131 309 14
6636 131 246 41
6637 131 307 61
6638 131 105 59
6639 131 362 85
6640 131 115 82
6641 131 152 21
6642 131 30 26
6643 131 13 71
6644 131 68 46
6645 131 272 18
6646 131 232 97
6647 131 291 11
6648 131 111 26
6649 131 73 23
6650 131 37 77
6651 131 60 9
6652 131 245 5
6653 131 88 52
6654 131 185 52
6655 131 45 79
6656 131 170 77
6657 131 138 39
6658 132 190 61
6659 132 369 43
6660 132 366 80
6661 132 343 32
6662 132 256 95
6663 132 56 98
6664 132 95 58
6665 132 361 61
6666 132 262 84
6667 132 80 61
6668 132 51 45
6669 132 39 59
6670 132 102 25
6671 132 331 8
6672 132 138 47
6673 132 242 75
6674 132 226 50
6675 132 53 99
6676 132 285 19
6677 132 29 10
6678 132 328 89
6679 132 313 97
6680 132 270 2
6681 132 69 33
6682 132 86 62
6683 132 329 62
6684 132 231 14
6685 132 45 55
6686 132 399 87
6687 132 357 63
6688 132 319 22
6689 132 200 53
6690 132 286 93
6691 132 206 30
6692 132 367 31
6693 132 101 18
6694 132 183 100
6695 132 317 39
6696 132 24 70
6697 132 99 21
6698 132 49 63
6699 132 176 17
6700 132 77 16
6701 133 345 5
6702 133 154 43
6703 133 389 67
6704 133 125 51
6705 133 19 70
6706 133 332 25
6707 133 386 7
6708 133 276 65
6709 133 20 17
6710 133 99 51
6711 133 27 91
6712 133 208 5
6713 133 143 13
6714 133 180 45
6715 133 175 45
6716 133 247 47
6717 133 360 5
6718 133 201 12
6719 133 112 47
6720 133 172 90
6721 133 120 42
6722 133 60 98
6723 133 43 28
6724 133 136 66
6725 133 92 41
6726 133 290 27
6727 133 18 15
6728 133 104 81
6729 133 17 79
6730 133 58 25
6731 133 262 39
6732 133 365 66
6733 133 34 49
6734 133 196 85
6735 133 253 40
6736 133 315 92
6737 133 300 63
6738 133 91 86
6739 133 185 49
6740 133 321 93
6741 133 181 80
6742 134 324 52
6743 134 294 88
6744 134 251 32
6745 134 149 36
6746 134 343 91
6747 134 205 16
6748 134 378 57
6749 134 137 24
6750 134 239 14
6751 134 127 78
6752 134 63 10
6753 134 289 43
6754 134 365 99
6755 134 57 69
6756 134 178 57
6757 134 317 90
6758 134 341 78
6759 134 370 24
6760 134 281 1
6761 134 268 2
6762 134 79 71
6763 134 313 56
6764 134 269 65
6765 134 30 58
6766 134 364 21
6767 134 319 51
6768 134 245 33
6769 134 66 16
6770 134 19 77
6771 134 135 96
6772 134 290 34
6773 134 306 16
6774 134 219 75
6775 134 43 59
6776 134 286 91
6777 134 34 40
6778 134 52 28
6779 134 240 56
6780 134 117 85
6781 134 329 23
6782 134 237 58
6783 134 295 11
6784 134 115 97
6785 134 109 20
6786 134 26 10
6787 134 172 31
6788 134 106 61
6789 134 231 14
6790 134 113 39
6791 134 64 48
6792 134 223 77
6793 134 166 92
6794 134 338 12
6795 135 359 79
6796 135 65 26
6797 135 77 19
6798 135 353 24
6799 135 78 59
6800 135 47 75
6801 135 272 65
6802 135 297 41
6803 135 264 75
6804 135 262 37
6805 135 259 10
6806 135 183 52
6807 135 372 52
6808 135 288 84
6809 135 196 9
6810 135 139 22
6811 135 153 99
6812 135 385 9
6813 135 88 91
6814 135 60 43
6815 135 228 86
6816 135 136 53
6817 135 393 76
6818 135 238 97
6819 135 62 14
6820 135 235 6
6821 135 195 81
6822 135 172 72
6823 135 233 43
6824 135 215 13
6825 135 361 88
6826 135 69 11
6827 135 350 80
6828 135 34 57
6829 135 21 55
6830 135 72 84
6831 135 43 53
6832 135 226 89
6833 135 130 36
6834 135 317 79
6835 135 125 52
6836 135 111 62
6837 135 67 16
6838 135 108 97
6839 135 390 11
6840 135 45 74
6841 136 118 54
6842 136 26 10
6843 136 78 38
6844 136 120 5
6845 136 93 92
6846 136 158 7
6847 136 110 39
6848 136 243 41
6849 136 92 49
6850 136 206 65
6851 136 102 12
6852 136 248 44
6853 136 14 57
6854 136 188 82
6855 136 41 39
6856 136 127 97
6857 136 343 30
6858 136 394 83
6859 136 373 51
6860 136 339 59
6861 136 68 93
6862 136 306 85
6863 136 388 15
6864 136 104 43
6865 136 321 18
6866 136 280 67
6867 136 239 95
6868 136 113 27
6869 136 255 83
6870 136 44 20
6871 136 342 55
6872 136 349 37
6873 136 74 92
6874 136 108 21
6875 136 84 56
6876 136 123 100
6877 136 230 79
6878 136 47 20
6879 136 17 24
6880 136 119 49
6881 136 368 54
6882 136 370 39
6883 136 286 1
6884 136 297 5
6885 136 144 77
6886 136 101 9
6887 136 145 34
6888 136 189 14
6889 136 25 62
6890 136 135 52
6891 136 347 23
6892 136 13 45
6893 136 352 56
6894 136 88 92
6895 136 121 25
6896 136 295 20
6897 137 65 1
6898 137 4 12
6899 137 303 76
6900 137 161 3
6901 137 398 9
6902 137 21 75
6903 137 388 6
6904 137 56 77
6905 137 95 84
6906 137 206 36
6907 137 399 43
6908 137 253 77
6909 137 278 49
6910 137 159 63
6911 137 131 50
6912 137 260 47
6913 137 197 75
6914 137 363 20
6915 137 369 79
6916 137 101 51
6917 137 20 52
6918 137 170 64
6919 137 25 14
6920 137 337 35
6921 137 167 96
6922 137 68 77
6923 137 42 95
6924 137 157 51
6925 137 284 25
6926 137 295 78
6927 137 264 57
6928 137 258 56
6929 137 314 66
6930 137 113 40
6931 137 32 43
6932 137 9 63
6933 137 89 37
6934 137 176 73
6935 137 12 34
6936 137 307 16
6937 137 87 17
6938 137 252 90
6939 137 361 45
6940 137 165 15
6941 137 274 86
6942 137 390 59
6943 137 192 29
6944 137 279 2
6945 137 273 62
6946 137 10 86
6947 137 382 11
6948 137 373 64
6949 137 122 72
6950 137 6 89
6951 137 40 93
6952 137 63 46
6953 137 163 29
6954 137 194 45
6955 137 291 82
6956 137 187 51
6957 138 262 32
6958 138 363 27
6959 138 48 2
6960 138 60 78
6961 138 343 65
6962 138 288 91
6963 138 243 83
6964 138 330 6
6965 138 263 2
6966 138 297 24
6967 138 241 99
6968 138 199 97
6969 138 3 50
6970 138 33 96
6971 138 323 97
6972 138 51 47
6973 138 282 5
6974 138 58 12
6975 138 399 71
6976 138 99 5
6977 138 9 80
6978 138 372 82
6979 138 154 73
6980 138 8 8
6981 138 114 42
6982 138 5 86
6983 138 95 41
6984 138 376 72
6985 138 248 87
6986 138 325 77
6987 138 108 100
6988 138 57 42
6989 138 238 80
6990 138 335 87
6991 138 181 54
6992 138 40 29
6993 138 332 84
6994 138 361 46
6995 138 360 46
6996 138 75 25
6997 138 385 68
6998 138 39 58
6999 138 124 82
7000 138 44 24
7001 138 221 13
7002 138 217 37
7003 138 85 59
7004 138 369 58
7005 138 350 3
7006 139 15 4
7007 139 107 100
7008 139 105 93
7009 139 100 65
7010 139 46 18
7011 139 89 67
7012 139 34 93
7013 139 232 53
7014 139 359 28
7015 139 56 75
7016 139 126 2
7017 139 225 3
7018 139 29 1
7019 139 302 27
7020 139 379 53
7021 139 44 86
7022 139 5 55
7023 139 392 33
7024 139 197 60
7025 139 333 35
7026 139 123 56
7027 139 304 66
7028 139 372 22
7029 139 362 10
7030 139 378 18
7031 139 67 19
7032 139 210 63
7033 139 252 84
7034 139 102 76
7035 139 256 90
7036 139 313 60
7037 139 152 55
7038 139 211 41
7039 139 41 99
7040 139 147 91
7041 139 36 27
7042 139 1 6
7043 139 86 15
7044 139 92 63
7045 139 148 61
7046 139 243 6
7047 139 155 8
7048 139 150 88
7049 139 119 77
7050 139 57 98
7051 139 394 83
7052 139 320 30
7053 140 1 35
7054 140 122 47
7055 140 33 93
7056 140 138 61
7057 140 109 36
7058 140 201 56
7059 140 125 41
7060 140 393 22
7061 140 4 92
7062 140 70 32
7063 140 98 100
7064 140 309 21
7065 140 100 5
7066 140 354 69
7067 140 330 100
7068 140 251 5
7069 140 371 23
7070 140 162 87
7071 140 81 45
7072 140 310 56
7073 140 337 16
7074 140 102 29
7075 140 236 29
7076 140 214 26
7077 140 183 31
7078 140 133 96
7079 140 17 50
7080 140 398 48
7081 140 194 62
7082 140 163 56
7083 140 113 10
7084 140 30 6
7085 140 205 36
7086 140 384 4
7087 140 322 85
7088 140 281 96
7089 140 67 44
7090 140 368 70
7091 140 188 62
7092 140 287 14
7093 140 35 44
7094 140 247 84
7095 140 374 16
7096 140 360 97
7097 140 245 29
7098 140 45 74
7099 140 121 90
7100 140 253 18
7101 140 397 26
7102 140 75 39
7103 140 387 10
7104 140 79 66
7105 140 27 55
7106 140 386 70
7107 141 366 56
7108 141 272 96
7109 141 219 58
7110 141 395 35
7111 141 64 24
7112 141 382 33
7113 141 288 42
7114 141 53 75
7115 141 309 8
7116 141 177 41
7117 141 54 51
7118 141 229 81
7119 141 0 38
7120 141 271 9
7121 141 289 56
7122 141 3 99
7123 141 1 85
7124 141 164 41
7125 141 95 8
7126 141 298 47
7127 141 301 57
7128 141 31 9
7129 141 21 84
7130 141 228 39
7131 141 374 29
7132 141 71 61
7133 141 92 34
7134 141 211 66
7135 141 74 97
7136 141 187 25
7137 141 358 23
7138 141 80 20
7139 141 353 81
7140 141 354 43
7141 141 195 36
7142 141 78 44
7143 141 397 30
7144 141 62 66
7145 141 23 83
7146 141 310 1
7147 141 147 1
7148 141 127 49
7149 141 242 80
7150 141 264 39
7151 141 110 53
7152 141 246 49
7153 142 220 52
7154 142 396 63
7155 142 269 86
7156 142 323 2
7157 142 322 39
7158 142 283 2
7159 142 294 44
7160 142 147 89
7161 142 30 59
7162 142 43 12
7163 142 123 97
7164 142 266 72
7165 142 132 68
7166 142 133 55
7167 142 262 52
7168 142 62 67
7169 142 272 77
7170 142 37 20
7171 142 9 81
7172 142 138 55
7173 142 167 45
7174 142 199 66
7175 142 52 78
7176 142 257 44
7177 142 339 12
7178 142 374 63
7179 142 203 95
7180 142 67 22
7181 142 260 98
7182 142 290 42
7183 142 102 18
7184 142 88 88
7185 142 194 5
7186 142 234 24
7187 142 100 25
7188 142 15 50
7189 142 134 55
7190 142 16 14
7191 142 131 76
7192 142 388 13
7193 142 29 87
7194 142 206 23
7195 142 307 19
7196 142 119 65
7197 142 312 83
7198 143 319 56
7199 143 346 53
7200 143 74 77
7201 143 77 68
7202 143 117 69
7203 143 211 23
7204 143 256 55
7205 143 72 34
7206 143 216 25
7207 143 94 95
7208 143 162 87
7209 143 298 7
7210 143 59 82
7211 143 148 22
7212 143 340 27
7213 143 101 63
7214 143 89 17
7215 143 395 12
7216 143 27 61
7217 143 238 86
7218 143 251 94
7219 143 389 100
7220 143 1 12
7221 143 229 23
7222 143 42 58
7223 143 171 31
7224 143 317 26
7225 143 49 50
7226 143 261 34
7227 143 137 60
7228 143 166 21
7229 143 109 20
7230 143 168 30
7231 143 334 43
7232 143 305 26
7233 143 309 29
7234 143 25 96
7235 143 18 94
7236 143 138 78
7237 143 152 21
7238 143 273 83
7239 143 6 87
7240 143 307 70
7241 143 29 17
7242 143 53 68
7243 143 79 85
7244 143 240 69
7245 143 141 27
7246 143 314 37
7247 144 107 74
7248 144 71 42
7249 144 304 91
7250 144 314 25
7251 144 187 70
7252 144 109 61
7253 144 61 52
7254 144 78 8
7255 144 152 31
7256 144 264 18
7257 144 218 80
7258 144 338 75
7259 144 140 14
7260 144 318 33
7261 144 96 65
7262 144 177 77
7263 144 200 7
7264 144 353 19
7265 144 347 99
7266 144 267 89
7267 144 159 36
7268 144 385 20
7269 144 6 95
7270 144 24 87
7271 144 48 27
7272 144 157 95
7273 144 19 80
7274 144 194 41
7275 144 73 24
7276 144 366 65
7277 144 183 75
7278 144 203 49
7279 144 156 50
7280 144 323 74
7281 144 263 73
7282 144 310 79
7283 144 380 41
7284 144 229 95
7285 144 191 48
7286 144 14 68
7287 144 189 90
7288 144 3 14
7289 144 276 27
7290 144 354 19
7291 144 382 35
7292 144 234 30
7293 145 111 30
7294 145 38 99
7295 145 50 89
7296 145 118 50
7297 145 262 44
7298 145 143 64
7299 145 279 10
7300 145 59 51
7301 145 18 90
7302 145 233 62
7303 145 110 28
7304 145 131 5
7305 145 106 82
7306 145 62 31
7307 145 285 22
7308 145 195 63
7309 145 294 30
7310 145 291 32
7311 145 202 11
7312 145 398 60
7313 145 226 69
7314 145 144 91
7315 145 362 37
7316 145 206 95
7317 145 185 85
7318 145 95 11
7319 145 217 97
7320 145 20 96
7321 145 310 70
7322 145 150 24
7323 145 162 51
7324 145 309 3
7325 145 27 39
7326 145 33 84
7327 145 141 68
7328 145 36 44
7329 145 253 97
7330 145 372 73
7331 145 271 91
7332 145 393 14
7333 145 221 88
7334 145 363 29
7335 145 243 13
7336 145 282 32
7337 145 214 6
7338 145 249 28
7339 145 83 67
7340 145 183 70
7341 145 351 77
7342 145 72 77
7343 145 74 53
7344 145 361 43
7345 145 378 45
7346 145 346 77
7347 145 380 76
7348 145 81 58
7349 146 28 53
7350 146 31 97
7351 146 155 57
7352 146 122 77
7353 146 30 16
7354 146 201 6
7355 146 323 50
7356 146 266 23
7357 146 107 4
7358 146 232 32
7359 146 317 54
7360 146 144 37
7361 146 154 52
7362 146 75 5
7363 146 371 5
7364 146 225 100
7365 146 100 74
7366 146 178 92
7367 146 389 70
7368 146 92 60
7369 146 163 62
7370 146 21 59
7371 146 229 31
7372 146 269 88
7373 146 289 46
7374 146 196 53
7375 146 69 100
7376 146 211 35
7377 146 90 34
7378 146 226 72
7379 146 187 34
7380 146 270 83
7381 146 286 72
7382 146 377 58
7383 146 60 89
7384 146 131 81
7385 146 14 70
7386 146 333 79
7387 146 80 75
7388 146 361 79
7389 146 168 48
7390 146 271 65
7391 146 209 86
7392 146 190 67
7393 146 64 54
7394 146 385 8
7395 146 63 31
7396 146 93 74
7397 146 354 91
7398 147 303 81
7399 147 30 57
7400 147 259 80
7401 147 256 6
7402 147 290 56
7403 147 4 92
7404 147 352 99
7405 147 71 35
7406 147 275 87
7407 147 201 48
7408 147 306 84
7409 147 161 93
7410 147 74 34
7411 147 187 52
7412 147 215 51
7413 147 361 2
7414 147 203 74
7415 147 399 56
7416 147 221 33
7417 147 31 68
7418 147 287 33
7419 147 99 62
7420 147 369 36
7421 147 391 97
7422 147 100 41
7423 147 113 16
7424 147 5 48
7425 147 89 53
7426 147 216 54
7427 147 59 94
7428 147 381 99
7429 147 11 8
7430 147 330 92
7431 147 159 91
7432 147 156 8
7433 147 96 76
7434 147 35 64
7435 147 394 90
7436 147 136 91
7437 147 384 64
7438 147 308 41
7439 147 340 81
7440 147 353 25
7441 147 378 59
7442 147 18 83
7443 147 261 32
7444 148 185 69
7445 148 70 75
7446 148 147 25
7447 148 396 46
7448 148 268 88
7449 148 161 8
7450 148 367 90
7451 148 53 89
7452 148 303 42
7453 148 291 59
7454 148 187 71
7455 148 169 49
7456 148 99 85
7457 148 209 34
7458 148 32 69
7459 148 374 16
7460 148 293 4
7461 148 206 62
7462 148 114 27
7463 148 329 100
7464 148 60 64
7465 148 144 86
7466 148 167 70
7467 148 276 53
7468 148 313 30
7469 148 116 94
7470 148 379 71
7471 148 78 49
7472 148 35 76
7473 148 214 9
7474 148 252 3
7475 148 38 5
7476 148 132 44
7477 148 342 59
7478 148 85 78
7479 148 205 56
7480 148 347 38
7481 148 178 70
7482 148 220 30
7483 148 36 34
7484 148 141 96
7485 148 182 40
7486 148 133 10
7487 148 249 15
7488 148 184 97
7489 148 275 36
7490 148 333 97
7491 148 330 30
7492 148 128 31
7493 148 102 61
7494 148 370 56
7495 148 173 54
7496 148 207 55
7497 148 253 99
7498 148 19 73
7499 149 101 92
7500 149 200 91
7501 149 339 75
7502 149 111 12
7503 149 361 55
7504 149 305 58
7505 149 219 18
7506 149 45 18
7507 149 210 36
7508 149 300 25
7509 149 190 79
7510 149 0 62
7511 149 292 53
7512 149 175 21
7513 149 8 88
7514 149 181 31
7515 149 117 77
7516 149 363 61
7517 149 250 72
7518 149 134 32
7519 149 389 11
7520 149 318 84
7521 149 272 10
7522 149 382 15
7523 149 68 42
7524 149 296 3
7525 149 349 18
7526 149 16 32
7527 149 366 67
7528 149 86 11
7529 149 39 66
7530 149 93 40
7531 149 329 38
7532 149 124 90
7533 149 242 49
7534 149 107 58
7535 149 15 47
7536 149 396 31
7537 149 345 27
7538 149 248 33
7539 149 330 5
7540 149 390 38
7541 149 203 36
7542 149 187 8
7543 149 150 13
7544 149 174 16
7545 150 132 22
7546 150 253 87
7547 150 163 72
7548 150 199 42
7549 150 292 6
7550 150 64 63
7551 150 334 98
7552 150 289 73
7553 150 209 81
7554 150 392 52
7555 150 325 76
7556 150 213 12
7557 150 99 35
7558 150 130 58
7559 150 137 54
7560 150 183 4
7561 150 320 83
7562 150 248 37
7563 150 351 85
7564 150 52 73
7565 150 285 24
7566 150 141 85
7567 150 31 70
7568 150 0 88
7569 150 46 38
7570 150 237 49
7571 150 228 9
7572 150 343 63
7573 150 102 69
7574 150 309 91
7575 150 54 72
7576 150 286 99
7577 150 26 4
7578 150 207 40
7579 150 354 14
7580 150 128 31
7581 150 158 27
7582 150 278 61
7583 150 378 92
7584 150 1 71
7585 150 363 7
7586 150 314 15
7587 150 327 34
7588 150 157 25
7589 150 171 92
7590 150 222 47
7591 150 37 43
7592 150 371 43
7593 150 184 8
7594 150 362 76
7595 150 244 85
7596 151 385 43
7597 151 216 35
7598 151 6 39
7599 151 303 44
7600 151 229 39
7601 151 141 73
7602 151 340 76
7603 151 261 43
7604 151 183 19
7605 151 199 84
7606 151 309 42
7607 151 231 75
7608 151 33 69
7609 151 40 50
7610 151 135 38
7611 151 129 93
7612 151 348 75
7613 151 351 90
7614 151 274 88
7615 151 254 17
7616 151 206 36
7617 151 32 34
7618 151 380 77
7619 151 371 72
7620 151 310 26
7621 151 117 88
7622 151 172 78
7623 151 60 17
7624 151 253 90
7625 151 21 17
7626 151 228 99
7627 151 373 75
7628 151 15 28
7629 151 359 61
7630 151 314 34
7631 151 344 52
7632 151 325 53
7633 151 39 34
7634 151 235 71
7635 151 264 93
7636 151 103 89
7637 152 86 57
7638 152 241 41
7639 152 186 89
7640 152 367 97
7641 152 269 5
7642 152 148 26
7643 152 303 92
7644 152 263 24
7645 152 38 47
7646 152 84 73
7647 152 142 40
7648 152 92 15
7649 152 25 34
7650 152 227 6
7651 152 138 45
7652 152 353 61
7653 152 291 45
7654 152 290 79
7655 152 123 100
7656 152 119 75
7657 152 374 45
7658 152 70 91
7659 152 37 41
7660 152 383 77
7661 152 48 51
7662 152 255 45
7663 152 93 14
7664 152 140 25
7665 152 234 16
7666 152 385 23
7667 152 206 68
7668 152 0 5
7669 152 238 13
7670 152 372 92
7671 152 5 45
7672 152 112 93
7673 152 91 15
7674 152 106 13
7675 152 67 41
7676 152 189 27
7677 152 297 68
7678 152 202 47
7679 152 116 99
7680 152 72 25
7681 152 253 51
7682 152 345 6
7683 152 222 26
7684 152 314 70
7685 152 95 38
7686 152 310 54
7687 152 381 61
7688 152 289 48
7689 152 188 84
7690 153 169 58
7691 153 28 36
7692 153 386 82
7693 153 247 16
7694 153 147 75
7695 153 15 23
7696 153 142 34
7697 153 248 49
7698 153 237 46
7699 153 387 79
7700 153 313 34
7701 153 298 9
7702 153 49 42
7703 153 370 10
7704 153 165 65
7705 153 88 10
7706 153 337 19
7707 153 215 19
7708 153 71 91
7709 153 151 95
7710 153 339 22
7711 153 95 18
7712 153 184 91
7713 153 340 74
7714 153 203 8
7715 153 296 78
7716 153 107 44
7717 153 100 64
7718 153 172 48
7719 153 150 8
7720 153 85 22
7721 153 384 21
7722 153 205 58
7723 153 305 97
7724 153 181 10
7725 153 356 78
7726 153 262 100
7727 153 6 63
7728 153 83 99
7729 153 148 43
7730 153 333 54
7731 153 367 83
7732 153 166 2
7733 153 61 80
7734 153 123 27
7735 153 43 25
7736 153 11 58
7737 153 94 58
7738 153 390 32
7739 153 359 23
7740 153 14 65
7741 153 238 53
7742 153 108 40
7743 153 195 57
7744 154 132 67
7745 154 331 81
7746 154 348 49
7747 154 242 23
7748 154 17 99
7749 154 71 73
7750 154 133 95
7751 154 173 83
7752 154 277 57
7753 154 76 97
7754 154 272 10
7755 154 201 23
7756 154 4 65
7757 154 115 34
7758 154 322 3
7759 154 326 42
7760 154 94 97
7761 154 111 48
7762 154 84 44
7763 154 70 34
7764 154 265 20
7765 154 36 31
7766 154 263 17
7767 154 256 94
7768 154 20 95
7769 154 149 61
7770 154 95 21
7771 154 382 78
7772 154 178 61
7773 154 309 2
7774 154 395 24
7775 154 370 61
7776 154 220 69
7777 154 356 52
7778 154 338 35
7779 154 195 75
7780 154 336 15
7781 155 368 30
7782 155 172 85
7783 155 327 30
7784 155 154 15
7785 155 102 100
7786 155 280 93
7787 155 250 51
7788 155 315 10
7789 155 114 96
7790 155 48 37
7791 155 382 46
7792 155 135 26
7793 155 274 93
7794 155 204 95
7795 155 372 69
7796 155 363 84
7797 155 35 57
7798 155 241 34
7799 155 211 63
7800 155 202 15
7801 155 163 41
7802 155 381 43
7803 155 82 65
7804 155 233 79
7805 155 73 75
7806 155 191 97
7807 155 260 24
7808 155 53 46
7809 155 214 36
7810 155 365 7
7811 155 137 24
7812 155 375 56
7813 155 180 37
7814 155 221 95
7815 155 126 19
7816 155 230 59
7817 155 15 88
7818 155 101 12
7819 155 125 65
7820 155 195 55
7821 155 133 34
7822 155 354 15
7823 156 296 37
7824 156 108 47
7825 156 281 32
7826 156 197 97
7827 156 241 63
7828 156 285 25
7829 156 136 29
7830 156 0 56
7831 156 47 68
7832 156 346 49
7833 156 5 7
7834 156 48 21
7835 156 313 5
7836 156 199 89
7837 156 356 33
7838 156 62 1
7839 156 350 95
7840 156 23 17
7841 156 291 45
7842 156 67 9
7843 156 390 31
7844 156 203 35
7845 156 58 45
7846 156 107 60
7847 156 112 90
7848 156 370 75
7849 156 181 49
7850 156 184 36
7851 156 66 70
7852 156 328 66
7853 156 93 66
7854 156 270 60
7855 156 130 14
7856 156 345 80
7857 156 137 78
7858 156 277 14
7859 156 261 79
7860 156 34 34
7861 156 317 15
7862 156 393 13
7863 156 36 4
7864 156 287 96
7865 156 185 12
7866 156 288 97
7867 156 255 35
7868 156 392 41
7869 156 131 2
7870 156 339 56
7871 156 363 11
7872 156 150 52
7873 156 117 92
7874 156 323 84
7875 156 301 10
7876 156 229 43
7877 156 388 6
7878 156 124 64
7879 156 157 24
7880 156 228 91
7881 156 163 73
7882 156 268 14
7883 156 75 78
7884 156 180 54
7885 156 364 8
7886 156 31 83
7887 156 83 54
7888 156 13 14
7889 156 236 35
7890 156 310 38
7891 156 102 78
7892 157 88 38
7893 157 288 90
7894 157 189 66
7895 157 251 18
7896 157 106 19
7897 157 172 2
7898 157 138 20
7899 157 247 61
7900 157 196 59
7901 157 209 47
7902 157 0 33
7903 157 291 35
7904 157 355 94
7905 157 266 14
7906 157 207 5
7907 157 315 75
7908 157 326 74
7909 157 77 31
7910 157 146 44
7911 157 320 68
7912 157 282 47
7913 157 218 20
7914 157 4 17
7915 157 108 58
7916 157 283 36
7917 157 225 16
7918 157 379 52
7919 157 140 33
7920 157 262 62
7921 157 141 9
7922 157 366 73
7923 157 85 94
7924 157 74 77
7925 157 194 23
7926 157 340 11
7927 157 184 18
7928 157 295 92
7929 157 25 66
7930 157 31 9
7931 157 265 81
7932 157 365 87
7933 157 318 68
7934 157 287 87
7935 157 59 43
7936 157 52 64
7937 157 317 12
7938 157 156 50
7939 157 76 30
7940 157 316 10
7941 157 81 6
7942 158 128 29
7943 158 327 3
7944 158 68 13
7945 158 132 6
7946 158 273 97
7947 158 19 28
7948 158 330 25
7949 158 319 84
7950 158 295 73
7951 158 30 84
7952 158 351 99
7953 158 267 76
7954 158 117 63
7955 158 251 1
7956 158 229 29
7957 158 355 43
7958 158 240 98
7959 158 315 14
7960 158 116 48
7961 158 98 47
7962 158 169 63
7963 158 324 79
7964 158 328 44
7965 158 392 30
7966 158 313 89
7967 158 300 52
7968 158 9 34
7969 158 270 95
7970 158 17 20
7971 158 394 9
7972 158 284 94
7973 158 354 27
7974 158 49 87
7975 158 255 63
7976 158 119 79
7977 158 372 9
7978 158 175 15
7979 158 189 94
7980 158 35 41
7981 158 237 50
7982 158 374 75
7983 158 348 78
7984 158 387 58
7985 158 299 11
7986 158 297 47
7987 159 130 5
7988 159 248 72
7989 159 255 100
7990 159 15 34
7991 159 293 5
7992 159 65 58
7993 159 176 53
7994 159 359 54
7995 159 382 80
7996 159 45 60
7997 159 398 78
7998 159 259 92
7999 159 142 14
8000 159 239 62
8001 159 152 68
8002 159 389 29
8003 159 5 57
8004 159 231 40
8005 159 2 51
8006 159 310 86
8007 159 376 40
8008 159 102 32
8009 159 179 65
8010 159 348 94
8011 159 342 96
8012 159 112 86
8013 159 96 1
8014 159 170 28
8015 159 230 54
8016 159 266 81
8017 159 57 60
8018 159 384 83
8019 159 328 19
8020 159 32 25
8021 159 298 8
8022 159 79 6
8023 159 85 60
8024 159 315 79
8025 159 115 14
8026 159 148 44
8027 159 197 33
8028 159 141 49
8029 159 229 85
8030 159 292 2
8031 159 84 53
8032 159 38 84
8033 159 349 1
8034 160 49 13
8035 160 336 44
8036 160 1 37
8037 160 69 87
8038 160 104 66
8039 160 167 21
8040 160 260 58
8041 160 22 21
8042 160 125 24
8043 160 314 2
8044 160 101 3
8045 160 200 56
8046 160 346 88
8047 160 305 80
8048 160 330 60
8049 160 124 90
8050 160 171 65
8051 160 141 99
8052 160 39 63
8053 160 290 65
8054 160 287 37
8055 160 199 69
8056 160 393 73
8057 160 114 82
8058 160 347 89
8059 160 228 77
8060 160 45 7
8061 160 389 98
8062 160 291 8
8063 160 126 85
8064 160 209 86
8065 160 310 69
8066 160 83 94
8067 160 150 52
8068 160 32 33
8069 160 142 55
8070 160 133 62
8071 160 91 46
8072 160 221 24
8073 160 97 71
8074 160 262 5
8075 160 8 59
8076 160 309 41
8077 160 398 37
8078 160 212 24
8079 160 148 4
8080 160 6 14
8081 160 344 91
8082 160 279 40
8083 160 273 23
8084 160 138 75
8085 160 380 99
8086 160 117 53
8087 161 59 73
8088 161 8 75
8089 161 131 68
8090 161 180 70
8091 161 371 44
8092 161 252 60
8093 161 398 82
8094 161 349 76
8095 161 16 90
8096 161 119 28
8097 161 186 70
8098 161 253 88
8099 161 362 29
8100 161 313 35
8101 161 278 16
8102 161 17 30
8103 161 318 72
8104 161 233 16
8105 161 86 29
8106 161 281 79
8107 161 37 15
8108 161 231 37
8109 161 260 4
8110 161 139 47
8111 161 73 36
8112 161 225 46
8113 161 317 56
8114 161 156 70
8115 161 303 13
8116 161 6 21
8117 161 250 93
8118 161 251 42
8119 161 375 80
8120 161 348 82
8121 161 280 34
8122 161 190 7
8123 161 46 16
8124 161 38 98
8125 161 110 70
8126 161 81 78
8127 161 192 85
8128 161 223 87
8129 161 283 91
8130 161 311 65
8131 162 272 3
8132 162 232 48
8133 162 214 28
8134 162 212 66
8135 162 74 87
8136 162 59 93
8137 162 106 65
8138 162 128 19
8139 162 381 76
8140 162 107 63
8141 162 58 18
8142 162 139 27
8143 162 219 53
8144 162 297 11
8145 162 3 16
8146 162 372 71
8147 162 153 43
8148 162 396 59
8149 162 145 87
8150 162 129 64
8151 162 25 63
8152 162 136 76
8153 162 271 42
8154 162 233 13
8155 162 181 21
8156 162 14 85
8157 162 151 38
8158 162 134 12
8159 162 195 62
8160 162 266 87
8161 162 355 79
8162 162 378 87
8163 162 83 71
8164 162 329 34
8165 162 241 28
8166 162 334 28
8167 162 336 85
8168 162 7 76
8169 162 377 72
8170 162 301 23
8171 162 211 13
8172 162 57 83
8173 162 257 99
8174 162 248 5
8175 162 245 39
8176 162 100 91
8177 162 193 15
8178 162 170 74
8179 163 86 22
8180 163 9 22
8181 163 289 36
8182 163 388 93
8183 163 212 47
8184 163 328 2
8185 163 210 92
8186 163 97 88
8187 163 114 98
8188 163 80 93
8189 163 46 51
8190 163 330 33
8191 163 199 35
8192 163 75 24
8193 163 286 31
8194 163 217 82
8195 163 399 40
8196 163 153 16
8197 163 44 54
8198 163 33 71
8199 163 334 58
8200 163 12 5
8201 163 26 22
8202 163 201 65
8203 163 300 13
8204 163 384 10
8205 163 108 51
8206 163 106 63
8207 163 159 43
8208 163 139 81
8209 163 116 87
8210 163 264 95
8211 163 59 5
8212 163 374 17
8213 163 148 19
8214 163 145 2
8215 163 344 98
8216 163 347 77
8217 163 131 89
8218 163 224 94
8219 163 67 80
8220 163 189 23
8221 163 107 33
8222 163 111 51
8223 163 323 7
8224 163 174 60
8225 163 311 54
8226 163 234 24
8227 163 335 55
8228 163 238 27
8229 164 248 20
8230 164 78 58
8231 164 340 33
8232 164 336 73
8233 164 113 18
8234 164 34 95
8235 164 101 45
8236 164 125 49
8237 164 288 16
8238 164 141 22
8239 164 245 69
8240 164 2 42
8241 164 381 31
8242 164 209 75
8243 164 168 32
8244 164 127 27
8245 164 186 15
8246 164 399 13
8247 164 313 32
8248 164 258 23
8249 164 72 7
8250 164 332 6
8251 164 176 72
8252 164 294 17
8253 164 223 6
8254 164 319 94
8255 164 281 92
8256 164 311 98
8257 164 153 48
8258 164 41 71
8259 164 356 14
8260 164 35 4
8261 164 286 87
8262 164 26 86
8263 164 304 57
8264 164 30 49
8265 164 177 77
8266 164 154 30
8267 164 57 70
8268 164 188 12
8269 164 106 88
8270 164 47 32
8271 164 233 49
8272 164 220 8
8273 164 193 83
8274 164 276 17
8275 164 320 78
8276 164 357 14
8277 164 172 80
8278 165 333 55
8279 165 233 15
8280 165 3 55
8281 165 83 13
8282 165 332 68
8283 165 169 42
8284 165 151 60
8285 165 393 50
8286 165 350 20
8287 165 160 39
8288 165 190 64
8289 165 380 20
8290 165 102 91
8291 165 399 90
8292 165 262 61
8293 165 49 89
8294 165 145 43
8295 165 139 86
8296 165 256 71
8297 165 129 89
8298 165 54 11
8299 165 118 78
8300 165 346 5
8301 165 100 67
8302 165 241 89
8303 165 132 12
8304 165 149 43
8305 165 246 100
8306 165 135 38
8307 165 185 67
8308 165 52 44
8309 165 286 7
8310 165 8 83
8311 165 39 4
8312 165 265 27
8313 165 86 10
8314 165 368 7
8315 165 146 72
8316 165 240 21
8317 165 194 57
8318 165 361 96
8319 165 390 58
8320 165 287 32
8321 165 172 15
8322 165 66 50
8323 166 297 37
8324 166 259 3
8325 166 362 75
8326 166 54 64
8327 166 1 42
8328 166 371 48
8329 166 170 49
8330 166 109 28
8331 166 265 39
8332 166 90 3
8333 166 61 3
8334 166 359 3
8335 166 339 26
8336 166 358 37
8337 166 102 3
8338 166 15 77
8339 166 112 35
8340 166 317 66
8341 166 71 65
8342 166 165 39
8343 166 188 40
8344 166 270 94
8345 166 113 69
8346 166 248 76
8347 166 328 84
8348 166 74 98
8349 166 223 34
8350 166 98 82
8351 166 205 57
8352 166 216 29
8353 166 397 11
8354 166 267 73
8355 166 161 61
8356 166 346 67
8357 166 221 66
8358 166 266 59
8359 166 382 71
8360 166 219 42
8361 166 163 27
8362 166 399 26
8363 166 77 73
8364 167 56 45
8365 167 58 56
8366 167 290 67
8367 167 220 24
8368 167 117 30
8369 167 197 58
8370 167 384 10
8371 167 216 10
8372 167 283 86
8373 167 306 91
8374 167 68 62
8375 167 223 48
8376 167 172 89
8377 167 242 62
8378 167 139 51
8379 167 375 29
8380 167 17 83
8381 167 19 76
8382 167 4 47
8383 167 85 27
8384 167 16 86
8385 167 285 20
8386 167 74 94
8387 167 229 12
8388 167 199 14
8389 167 103 41
8390 167 130 94
8391 167 36 82
8392 167 222 93
8393 167 173 12
8394 167 107 28
8395 167 128 5
8396 167 105 97
8397 167 97 19
8398 167 2 62
8399 167 88 39
8400 167 392 94
8401 167 181 55
8402 167 323 51
8403 167 203 39
8404 167 366 78
8405 167 112 74
8406 167 144 71
8407 167 132 74
8408 167 192 42
8409 168 48 79
8410 168 258 87
8411 168 139 41
8412 168 21 54
8413 168 250 20
8414 168 6 66
8415 168 328 59
8416 168 34 48
8417 168 88 9
8418 168 143 34
8419 168 66 30
8420 168 191 36
8421 168 211 20
8422 168 236 66
8423 168 365 94
8424 168 65 56
8425 168 363 94
8426 168 207 54
8427 168 22 9
8428 168 137 79
8429 168 388 20
8430 168 308 90
8431 168 188 97
8432 168 222 100
8433 168 323 96
8434 168 286 15
8435 168 195 2
8436 168 266 23
8437 168 399 80
8438 168 299 94
8439 168 238 75
8440 168 293 98
8441 168 329 41
8442 168 203 63
8443 168 133 18
8444 168 351 19
8445 168 96 79
8446 168 189 25
8447 168 27 42
8448 168 8 43
8449 168 61 26
8450 168 307 26
8451 168 284 91
8452 168 106 54
8453 168 50 87
8454 168 251 2
8455 168 157 84
8456 168 314 85
8457 168 285 43
8458 168 260 29
8459 168 12 51
8460 168 63 81
8461 168 337 78
8462 168 276 91
8463 168 124 66
8464 169 314 45
8465 169 318 64
8466 169 90 6
8467 169 212 37
8468 169 5 32
8469 169 270 1
8470 169 317 84
8471 169 181 18
8472 169 372 82
8473 169 20 97
8474 169 229 27
8475 169 69 72
8476 169 172 46
8477 169 264 39
8478 169 103 41
8479 169 105 9
8480 169 204 40
8481 169 113 67
8482 169 95 9
8483 169 214 71
8484 169 123 14
8485 169 210 37
8486 169 290 59
8487 169 222 94
8488 169 335 73
8489 169 126 18
8490 169 72 87
8491 169 313 17
8492 169 275 16
8493 169 295 55
8494 169 163 1
8495 169 40 81
8496 169 2 100
8497 169 48 5
8498 169 188 73
8499 169 114 6
8500 169 265 92
8501 169 63 91
8502 169 248 7
8503 169 24 8
8504 169 101 95
8505 169 37 28
8506 170 74 60
8507 170 338 64
8508 170 319 32
8509 170 24 91
8510 170 188 3
8511 170 7 71
8512 170 282 57
8513 170 103 9
8514 170 277 11
8515 170 235 35
8516 170 64 9
8517 170 228 24
8518 170 307 47
8519 170 55 84
8520 170 257 31
8521 170 95 97
8522 170 146 69
8523 170 181 27
8524 170 253 75
8525 170 265 87
8526 170 284 64
8527 170 98 36
8528 170 112 55
8529 170 302 94
8530 170 21 74
8531 170 223 47
8532 170 162 77
8533 170 390 56
8534 170 182 17
8535 170 384 32
8536 170 201 64
8537 170 130 42
8538 170 374 47
8539 170 214 68
8540 170 57 18
8541 170 128 22
8542 170 157 5
8543 170 216 36
8544 170 388 25
8545 170 63 40
8546 170 291 31
8547 170 100 49
8548 170 273 34
8549 170 23 71
8550 170 306 29
8551 170 367 3
8552 170 292 85
8553 170 102 20
8554 170 54 38
8555 170 171 32
8556 170 81 78
8557 170 72 6
8558 170 41 74
8559 171 299 86
8560 171 261 28
8561 171 333 3
8562 171 58 48
8563 171 253 98
8564 171 158 83
8565 171 184 19
8566 171 329 90
8567 171 97 57
8568 171 393 29
8569 171 132 34
8570 171 44 58
8571 171 164 79
8572 171 386 13
8573 171 183 65
8574 171 396 74
8575 171 282 4
8576 171 256 23
8577 171 137 17
8578 171 394 38
8579 171 109 94
8580 171 305 100
8581 171 286 72
8582 171 258 38
8583 171 236 74
8584 171 245 30
8585 171 263 63
8586 171 73 4
8587 171 388 59
8588 171 322 89
8589 171 129 64
8590 171 209 36
8591 171 60 35
8592 171 126 18
8593 171 265 86
8594 171 16 4
8595 171 341 70
8596 172 141 36
8597 172 263 35
8598 172 225 38
8599 172 219 35
8600 172 100 5
8601 172 200 85
8602 172 347 26
8603 172 83 59
8604 172 70 11
8605 172 155 8
8606 172 305 90
8607 172 142 97
8608 172 98 29
8609 172 277 99
8610 172 377 64
8611 172 222 73
8612 172 130 84
8613 172 262 44
8614 172 64 81
8615 172 75 59
8616 172 355 11
8617 172 163 85
8618 172 302 99
8619 172 210 22
8620 172 373 70
8621 172 265 20
8622 172 298 9
8623 172 108 61
8624 172 208 27
8625 172 32 98
8626 172 84 47
8627 172 187 25
8628 172 186 34
8629 172 173 96
8630 172 311 47
8631 172 44 68
8632 172 9 11
8633 172 74 9
8634 172 331 50
8635 172 26 54
8636 172 345 97
8637 172 212 43
8638 172 178 59
8639 172 301 80
8640 172 111 23
8641 172 286 63
8642 172 300 7
8643 173 168 69
8644 173 58 16
8645 173 163 4
8646 173 23 49
8647 173 10 39
8648 173 188 30
8649 173 130 73
8650 173 241 41
8651 173 239 79
8652 173 51 43
8653 173 230 14
8654 173 276 17
8655 173 45 92
8656 173 211 30
8657 173 6 53
8658 173 397 56
8659 173 102 89
8660 173 386 22
8661 173 30 30
8662 173 291 63
8663 173 106 35
8664 173 274 8
8665 173 193 33
8666 173 189 5
8667 173 204 95
8668 173 203 52
8669 173 190 74
8670 173 286 83
8671 173 227 40
8672 173 377 42
8673 173 244 61
8674 173 15 44
8675 173 242 82
8676 173 310 59
8677 173 250 10
8678 173 154 46
8679 173 167 83
8680 173 49 69
8681 173 293 84
8682 173 68 60
8683 173 16 100
8684 173 312 60
8685 173 121 3
8686 173 159 98
8687 173 73 82
8688 173 306 88
8689 173 214 5
8690 173 92 49
8691 173 126 75
8692 173 44 27
8693 173 11 45
8694 173 246 13
8695 174 337 59
8696 174 153 33
8697 174 233 95
8698 174 195 13
8699 174 202 23
8700 174 341 52
8701 174 234 70
8702 174 4 32
8703 174 172 9
8704 174 300 66
8705 174 81 81
8706 174 96 24
8707 174 29 19
8708 174 78 31
8709 174 43 87
8710 174 294 77
8711 174 22 73
8712 174 271 44
8713 174 253 16
8714 174 284 22
8715 174 12 92
8716 174 70 69
8717 174 163 89
8718 174 291 28
8719 174 228 99
8720 174 50 46
8721 174 156 99
8722 174 309 27
8723 174 114 11
8724 174 254 72
8725 174 123 41
8726 174 203 44
8727 174 256 64
8728 174 85 57
8729 174 396 47
8730 174 54 10
8731 174 286 98
8732 174 88 95
8733 174 281 43
8734 174 122 38
8735 174 338 58
8736 174 283 27
8737 174 131 65
8738 174 220 84
8739 175 357 85
8740 175 12 17
8741 175 204 33
8742 175 162 98
8743 175 67 72
8744 175 353 35
8745 175 225 27
8746 175 252 46
8747 175 68 68
8748 175 378 86
8749 175 335 5
8750 175 243 64
8751 175 382 19
8752 175 111 30
8753 175 280 100
8754 175 84 100
8755 175 57 98
8756 175 316 11
8757 175 330 84
8758 175 272 64
8759 175 89 45
8760 175 281 2
8761 175 323 33
8762 175 44 6
8763 175 297 86
8764 175 177 14
8765 175 13 87
8766 175 384 83
8767 175 300 19
8768 175 42 67
8769 175 90 7
8770 175 78 80
8771 175 188 39
8772 175 209 62
8773 175 359 75
8774 175 372 29
8775 175 336 88
8776 175 352 82
8777 175 287 33
8778 175 4 19
8779 175 221 100
8780 175 232 1
8781 175 176 45
8782 175 0 9
8783 175 184 83
8784 175 192 63
8785 175 305 58
8786 175 79 68
8787 175 274 41
8788 176 83 23
8789 176 61 50
8790 176 158 26
8791 176 341 60
8792 176 213 31
8793 176 337 8
8794 176 289 19
8795 176 125 29
8796 176 295 43
8797 176 79 44
8798 176 30 25
8799 176 280 25
8800 176 262 64
8801 176 247 18
8802 176 229 25
8803 176 36 11
8804 176 230 41
8805 176 178 64
8806 176 338 6
8807 176 237 24
8808 176 300 77
8809 176 275 65
8810 176 27 33
8811 176 126 11
8812 176 323 42
8813 176 56 99
8814 176 39 1
8815 176 154 74
8816 176 67 13
8817 176 290 96
8818 176 215 18
8819 176 242 53
8820 176 105 13
8821 176 4 16
8822 176 346 32
8823 176 390 27
8824 176 361 63
8825 176 20 30
8826 176 304 75
8827 176 339 79
8828 176 164 19
8829 176 372 1
8830 177 354 14
8831 177 151 56
8832 177 41 3
8833 177 382 14
8834 177 197 33
8835 177 31 98
8836 177 138 3
8837 177 136 39
8838 177 103 29
8839 177 304 7
8840 177 37 34
8841 177 214 33
8842 177 98 45
8843 177 266 88
8844 177 114 58
8845 177 132 49
8846 177 386 86
8847 177 104 18
8848 177 310 27
8849 177 92 93
8850 177 325 90
8851 177 57 17
8852 177 333 27
8853 177 145 21
8854 177 311 50
8855 177 377 90
8856 177 15 95
8857 177 284 4
8858 177 191 78
8859 177 173 9
8860 177 196 57
8861 177 27 31
8862 177 301 15
8863 177 257 8
8864 177 8 97
8865 177 162 68
8866 177 391 7
8867 177 236 76
8868 177 204 37
8869 177 39 48
8870 177 181 8
8871 177 125 17
8872 177 11 48
8873 178 29 35
8874 178 81 72
8875 178 19 22
8876 178 382 73
8877 178 58 84
8878 178 8 61
8879 178 295 83
8880 178 321 38
8881 178 190 56
8882 178 337 81
8883 178 27 12
8884 178 206 48
8885 178 358 41
8886 178 105 83
8887 178 225 90
8888 178 330 30
8889 178 86 57
8890 178 397 40
8891 178 200 16
8892 178 363 8
8893 178 335 30
8894 178 25 2
8895 178 28 16
8896 178 30 93
8897 178 272 83
8898 178 399 85
8899 178 341 91
8900 178 344 13
8901 178 345 85
8902 178 375 28
8903 178 217 41
8904 178 353 95
8905 178 380 75
8906 178 150 78
8907 178 373 95
8908 178 141 20
8909 178 71 19
8910 178 227 60
8911 178 147 82
8912 178 372 9
8913 178 68 48
8914 178 268 78
8915 178 354 45
8916 178 128 63
8917 178 131 91
8918 178 113 51
8919 178 391 78
8920 179 255 54
8921 179 287 26
8922 179 186 98
8923 179 139 95
8924 179 48 43
8925 179 76 37
8926 179 197 85
8927 179 13 86
8928 179 366 1
8929 179 96 29
8930 179 106 52
8931 179 391 24
8932 179 369 38
8933 179 365 5
8934 179 39 69
8935 179 342 78
8936 179 250 55
8937 179 107 91
8938 179 122 99
8939 179 337 21
8940 179 396 30
8941 179 167 3
8942 179 14 24
8943 179 254 59
8944 179 292 100
8945 179 198 12
8946 179 155 91
8947 179 233 36
8948 179 317 32
8949 179 104 14
8950 179 183 5
8951 179 385 5
8952 179 125 66
8953 179 356 18
8954 179 345 20
8955 179 138 36
8956 179 285 46
8957 179 304 4
8958 179 71 23
8959 179 392 92
8960 179 40 44
8961 179 118 78
8962 179 49 12
8963 179 353 24
8964 179 6 75
8965 179 109 67
8966 179 234 61
8967 179 123 92
8968 179 313 28
8969 179 235 68
8970 179 336 35
8971 179 116 38
8972 179 196 44
8973 179 310 11
8974 179 341 35
8975 179 390 77
8976 180 21 97
8977 180 8 32
8978 180 45 14
8979 180 295 70
8980 180 140 65
8981 180 15 44
8982 180 395 55
8983 180 108 12
8984 180 277 50
8985 180 384 93
8986 180 29 99
8987 180 85 77
8988 180 314 85
8989 180 79 62
8990 180 345 98
8991 180 190 13
8992 180 20 88
8993 180 210 81
8994 180 53 23
8995 180 236 40
8996 180 3 34
8997 180 293 37
8998 180 272 30
8999 180 152 29
9000 180 353 72
9001 180 302 18
9002 180 375 66
9003 180 194 43
9004 180 360 37
9005 180 173 47
9006 180 319 71
9007 180 119 23
9008 180 327 85
9009 180 130 52
9010 180 301 24
9011 180 170 60
9012 180 313 10
9013 180 67 44
9014 181 85 70
9015 181 377 72
9016 181 396 20
9017 181 276 88
9018 181 121 78
9019 181 110 88
9020 181 389 53
9021 181 21 15
9022 181 187 98
9023 181 362 12
9024 181 211 67
9025 181 206 45
9026 181 44 4
9027 181 3 24
9028 181 344 15
9029 181 68 60
9030 181 13 64
9031 181 216 8
9032 181 315 90
9033 181 397 98
9034 181 132 29
9035 181 268 7
9036 181 232 45
9037 181 37 35
9038 181 323 33
9039 181 183 100
9040 181 264 45
9041 181 73 84
9042 181 329 73
9043 181 92 37
9044 181 265 3
9045 181 137 52
9046 181 306 37
9047 181 310 48
9048 181 193 16
9049 181 201 18
9050 181 331 42
9051 181 208 71
9052 181 27 14
9053 181 119 81
9054 181 48 39
9055 181 335 37
9056 181 43 44
9057 181 25 34
9058 181 60 19
9059 181 292 23
9060 181 317 7
9061 181 22 32
9062 181 74 37
9063 181 214 3
9064 181 205 93
9065 181 52 39
9066 182 62 1
9067 182 61 16
9068 182 66 9
9069 182 287 81
9070 182 19 28
9071 182 190 98
9072 182 248 40
9073 182 195 78
9074 182 356 79
9075 182 212 63
9076 182 383 51
9077 182 354 21
9078 182 44 18
9079 182 268 33
9080 182 225 45
9081 182 313 92
9082 182 67 49
9083 182 278 71
9084 182 55 96
9085 182 79 63
9086 182 338 66
9087 182 364 94
9088 182 97 89
9089 182 389 13
9090 182 45 85
9091 182 179 89
9092 182 355 4
9093 182 245 41
9094 182 135 37
9095 182 30 4
9096 182 367 37
9097 182 370 57
9098 182 292 65
9099 182 91 75
9100 182 328 40
9101 182 112 81
9102 182 263 25
9103 182 123 75
9104 182 253 23
9105 182 25 65
9106 182 247 25
9107 182 84 78
9108 182 223 17
9109 182 116 65
9110 182 347 43
9111 182 336 84
9112 182 306 29
9113 182 70 68
9114 182 201 61
9115 182 124 1
9116 182 184 28
9117 182 101 64
9118 182 32 41
9119 182 274 2
9120 182 332 86
9121 182 357 59
9122 182 200 62
9123 182 68 83
9124 182 399 22
9125 182 281 63
9126 182 379 75
9127 182 31 75
9128 183 319 2
9129 183 258 72
9130 183 375 65
9131 183 95 85
9132 183 278 13
9133 183 398 2
9134 183 23 74
9135 183 212 14
9136 183 311 15
9137 183 92 57
9138 183 281 52
9139 183 174 17
9140 183 220 88
9141 183 96 50
9142 183 234 83
9143 183 78 31
9144 183 20 93
9145 183 66 61
9146 183 65 66
9147 183 217 80
9148 183 101 24
9149 183 246 82
9150 183 353 2
9151 183 350 6
9152 183 106 13
9153 183 105 87
9154 183 239 2
9155 183 286 78
9156 183 207 12
9157 183 52 75
9158 183 25 40
9159 183 321 3
9160 183 275 75
9161 183 43 100
9162 183 19 25
9163 183 120 99
9164 183 250 94
9165 184 121 93
9166 184 156 53
9167 184 137 100
9168 184 307 65
9169 184 231 42
9170 184 38 15
9171 184 317 31
9172 184 364 36
9173 184 155 78
9174 184 23 69
9175 184 246 21
9176 184 192 64
9177 184 5 26
9178 184 252 35
9179 184 215 77
9180 184 326 17
9181 184 178 81
9182 184 340 74
9183 184 363 87
9184 184 36 40
9185 184 140 34
9186 184 243 54
9187 184 81 85
9188 184 48 34
9189 184 322 88
9190 184 353 27
9191 184 57 94
9192 184 127 76
9193 184 61 77
9194 184 283 35
9195 184 378 37
9196 184 267 79
9197 184 285 92
9198 184 49 92
9199 184 19 78
9200 184 274 85
9201 184 111 61
9202 184 221 68
9203 184 54 5
9204 184 287 37
9205 184 241 70
9206 184 86 9
9207 184 10 2
9208 184 319 78
9209 184 18 7
9210 184 388 45
9211 184 17 55
9212 184 268 45
9213 184 239 39
9214 185 231 49
9215 185 355 30
9216 185 42 54
9217 185 183 33
9218 185 86 11
9219 185 260 78
9220 185 261 80
9221 185 67 96
9222 185 197 53
9223 185 328 53
9224 185 358 82
9225 185 132 38
9226 185 130 48
9227 185 204 47
9228 185 325 83
9229 185 116 36
9230 185 171 93
9231 185 73 29
9232 185 182 54
9233 185 203 82
9234 185 92 100
9235 185 326 63
9236 185 330 15
9237 185 246 7
9238 185 342 64
9239 185 161 62
9240 185 219 2
9241 185 195 16
9242 185 291 62
9243 185 396 58
9244 185 108 8
9245 185 172 11
9246 185 363 66
9247 185 369 13
9248 185 147 94
9249 185 205 24
9250 185 72 29
9251 185 308 35
9252 185 329 88
9253 185 104 39
9254 185 123 87
9255 185 383 54
9256 185 196 49
9257 185 382 43
9258 185 95 72
9259 185 388 74
9260 185 170 9
9261 186 319 23
9262 186 1 26
9263 186 176 83
9264 186 342 70
9265 186 70 61
9266 186 360 11
9267 186 246 76
9268 186 309 59
9269 186 67 24
9270 186 318 59
9271 186 293 51
9272 186 205 78
9273 186 253 60
9274 186 88 52
9275 186 220 61
9276 186 32 98
9277 186 335 67
9278 186 53 100
9279 186 229 36
9280 186 377 15
9281 186 198 86
9282 186 215 20
9283 186 54 32
9284 186 231 15
9285 186 86 44
9286 186 193 49
9287 186 243 14
9288 186 357 9
9289 186 298 79
9290 186 102 89
9291 186 82 29
9292 186 383 29
9293 186 84 36
9294 186 152 69
9295 186 93 40
9296 186 14 52
9297 186 26 29
9298 186 320 99
9299 186 230 58
9300 186 78 8
9301 186 173 87
9302 186 312 6
9303 186 72 35
9304 186 171 89
9305 186 352 34
9306 186 22 91
9307 186 375 53
9308 186 398 35
9309 186 112 98
9310 186 316 97
9311 186 81 93
9312 186 65 13
9313 186 145 75
9314 186 204 69
9315 186 174 85
9316 186 104 90
9317 186 42 2
9318 187 222 68
9319 187 218 10
9320 187 279 47
9321 187 338 50
9322 187 86 40
9323 187 60 31
9324 187 224 76
9325 187 331 92
9326 187 14 22
9327 187 278 13
9328 187 250 14
9329 187 302 76
9330 187 4 24
9331 187 207 14
9332 187 58 27
9333 187 32 29
9334 187 324 8
9335 187 376 79
9336 187 137 15
9337 187 291 99
9338 187 337 79
9339 187 351 89
9340 187 160 7
9341 187 2 50
9342 187 339 63
9343 187 153 57
9344 187 75 33
9345 187 258 49
9346 187 201 65
9347 187 395 92
9348 187 228 7
9349 187 200 26
9350 187 249 78
9351 187 172 1
9352 187 188 61
9353 187 91 82
9354 187 341 45
9355 187 386 53
9356 188 330 16
9357 188 194 12
9358 188 275 29
9359 188 55 66
9360 188 113 85
9361 188 154 90
9362 188 45 81
9363 188 209 74
9364 188 70 6
9365 188 339 86
9366 188 292 86
9367 188 304 40
9368 188 241 95
9369 188 334 8
9370 188 262 53
9371 188 343 19
9372 188 263 54
9373 188 116 63
9374 188 321 39
9375 188 118 98
9376 188 288 76
9377 188 244 11
9378 188 127 57
9379 188 162 36
9380 188 206 89
9381 188 151 47
9382 188 44 42
9383 188 238 37
9384 188 26 53
9385 188 97 66
9386 188 165 11
9387 188 180 44
9388 188 214 77
9389 188 171 42
9390 188 149 57
9391 188 64 51
9392 188 99 80
9393 188 237 53
9394 188 271 21
9395 188 43 46
9396 188 269 66
9397 188 120 49
9398 188 381 54
9399 188 300 88
9400 188 33 49
9401 188 235 25
9402 188 84 95
9403 188 100 5
9404 188 72 33
9405 188 283 94
9406 188 233 75
9407 188 378 56
9408 188 78 88
9409 188 47 50
9410 188 177 93
9411 188 326 13
9412 189 293 69
9413 189 345 82
9414 189 110 8
9415 189 136 30
9416 189 88 20
9417 189 51 4
9418 189 232 46
9419 189 385 28
9420 189 366 94
9421 189 43 7
9422 189 261 50
9423 189 332 40
9424 189 172 73
9425 189 319 5
9426 189 8 65
9427 189 266 44
9428 189 363 65
9429 189 346 90
9430 189 46 95
9431 189 220 59
9432 189 179 74
9433 189 337 34
9434 189 187 12
9435 189 206 97
9436 189 209 39
9437 189 224 66
9438 189 73 6
9439 189 49 4
9440 189 369 67
9441 189 277 28
9442 189 276 4
9443 189 324 19
9444 189 68 93
9445 189 109 82
9446 189 300 35
9447 189 275 71
9448 189 90 89
9449 189 98 69
9450 189 127 98
9451 189 185 59
9452 189 342 54
9453 189 126 38
9454 189 294 50
9455 190 278 12
9456 190 83 11
9457 190 203 30
9458 190 150 21
9459 190 238 74
9460 190 255 67
9461 190 310 71
9462 190 37 28
9463 190 266 27
9464 190 50 29
9465 190 46 55
9466 190 252 16
9467 190 338 53
9468 190 103 57
9469 190 247 96
9470 190 382 76
9471 190 218 8
9472 190 289 3
9473 190 95 61
9474 190 301 81
9475 190 250 96
9476 190 277 9
9477 190 230 11
9478 190 269 95
9479 190 5 62
9480 190 139 57
9481 190 222 91
9482 190 72 44
9483 190 127 66
9484 190 162 4
9485 190 11 21
9486 190 244 93
9487 190 370 14
9488 190 264 69
9489 190 129 68
9490 190 354 99
9491 190 388 26
9492 190 336 35
9493 190 320 23
9494 190 39 85
9495 190 186 73
9496 190 349 5
9497 191 382 28
9498 191 271 69
9499 191 65 2
9500 191 108 53
9501 191 284 75
9502 191 338 48
9503 191 171 12
9504 191 230 26
9505 191 97 12
9506 191 114 78
9507 191 232 89
9508 191 392 15
9509 191 242 12
9510 191 262 63
9511 191 73 52
9512 191 158 77
9513 191 206 29
9514 191 66 14
9515 191 260 15
9516 191 397 5
9517 191 177 29
9518 191 388 14
9519 191 44 82
9520 191 194 2
9521 191 160 3
9522 191 150 22
9523 191 259 50
9524 191 309 61
9525 191 317 77
9526 191 72 73
9527 191 316 26
9528 191 188 41
9529 191 91 89
9530 191 195 60
9531 191 196 5
9532 191 176 15
9533 191 174 86
9534 191 87 87
9535 191 1 58
9536 191 272 56
9537 191 357 90
9538 191 295 27
9539 191 269 11
9540 191 362 87
9541 191 298 75
9542 191 9 61
9543 191 128 53
9544 191 15 10
9545 191 337 26
9546 191 28 67
9547 191 154 51
9548 191 381 85
9549 191 389 74
9550 192 76 8
9551 192 120 95
9552 192 42 49
9553 192 366 3
9554 192 368 15
9555 192 301 64
9556 192 357 100
9557 192 102 39
9558 192 287 21
9559 192 37 78
9560 192 263 6
9561 192 254 93
9562 192 61 50
9563 192 255 17
9564 192 251 75
9565 192 370 69
9566 192 133 12
9567 192 99 33
9568 192 100 42
9569 192 267 12
9570 192 24 6
9571 192 13 41
9572 192 50 75
9573 192 159 49
9574 192 121 17
9575 192 194 45
9576 192 14 35
9577 192 188 85
9578 192 330 39
9579 192 204 75
9580 192 235 4
9581 192 332 71
9582 192 310 82
9583 192 253 62
9584 192 201 72
9585 192 319 6
9586 192 280 10
9587 192 334 41
9588 192 82 65
9589 192 63 66
9590 192 354 34
9591 192 138 71
9592 192 299 3
9593 192 344 14
9594 192 202 33
9595 192 349 7
9596 192 146 65
9597 192 227 4
9598 192 6 76
9599 193 359 76
9600 193 248 99
9601 193 246 9
9602 193 7 18
9603 193 159 86
9604 193 66 43
9605 193 237 2
9606 193 111 29
9607 193 307 60
9608 193 92 43
9609 193 254 39
9610 193 356 43
9611 193 339 8
9612 193 259 48
9613 193 387 71
9614 193 298 6
9615 193 136 86
9616 193 91 72
9617 193 304 8
9618 193 200 14
9619 193 281 43
9620 193 73 48
9621 193 42 86
9622 193 195 41
9623 193 203 44
9624 193 53 82
9625 193 125 12
9626 193 322 33
9627 193 173 80
9628 193 341 7
9629 193 45 82
9630 193 78 26
9631 193 182 33
9632 193 231 63
9633 193 262 73
9634 193 43 38
9635 193 61 61
9636 193 199 59
9637 193 94 49
9638 193 221 36
9639 193 398 52
9640 193 141 29
9641 193 95 64
9642 193 392 62
9643 193 263 19
9644 193 104 18
9645 193 51 64
9646 194 164 37
9647 194 24 41
9648 194 359 100
9649 194 332 100
9650 194 161 11
9651 194 255 84
9652 194 28 60
9653 194 265 58
9654 194 40 51
9655 194 165 31
9656 194 287 6
9657 194 207 37
9658 194 270 78
9659 194 396 31
9660 194 30 9
9661 194 357 44
9662 194 273 25
9663 194 70 15
9664 194 160 11
9665 194 168 33
9666 194 195 14
9667 194 134 18
9668 194 186 83
9669 194 37 32
9670 194 210 31
9671 194 201 15
9672 194 336 61
9673 194 305 88
9674 194 380 28
9675 194 259 69
9676 194 129 82
9677 194 108 28
9678 194 43 51
9679 194 311 81
9680 194 38 38
9681 194 20 17
9682 194 283 81
9683 194 15 66
9684 194 128 42
9685 194 197 42
9686 194 279 11
9687 194 143 41
9688 194 378 29
9689 194 376 84
9690 194 41 93
9691 194 91 8
9692 194 156 97
9693 194 266 55
9694 194 362 25
9695 194 364 25
9696 194 387 93
9697 194 106 61
9698 194 78 64
9699 195 257 31
9700 195 367 14
9701 195 62 71
9702 195 150 2
9703 195 329 74
9704 195 70 26
9705 195 213 87
9706 195 230 26
9707 195 114 94
9708 195 73 20
9709 195 383 69
9710 195 392 11
9711 195 123 81
9712 195 38 29
9713 195 190 65
9714 195 84 88
9715 195 313 39
9716 195 140 4
9717 195 399 28
9718 195 241 72
9719 195 334 28
9720 195 285 98
9721 195 92 55
9722 195 187 40
9723 195 179 21
9724 195 263 46
9725 195 117 85
9726 195 209 9
9727 195 71 12
9728 195 34 58
9729 195 221 81
9730 195 316 78
9731 195 259 2
9732 195 369 95
9733 195 371 68
9734 195 204 87
9735 195 57 59
9736 195 304 42
9737 195 39 63
9738 195 336 60
9739 195 95 64
9740 195 83 82
9741 196 292 60
9742 196 398 39
9743 196 258 40
9744 196 335 50
9745 196 116 22
9746 196 316 84
9747 196 201 1
9748 196 177 50
9749 196 343 1
9750 196 145 83
9751 196 158 76
9752 196 140 6
9753 196 93 11
9754 196 173 1
9755 196 75 8
9756 196 123 80
9757 196 202 76
9758 196 178 46
9759 196 321 70
9760 196 169 99
9761 196 100 48
9762 196 17 1
9763 196 332 74
9764 196 198 12
9765 196 229 91
9766 196 274 14
9767 196 134 42
9768 196 303 86
9769 196 318 26
9770 196 138 20
9771 196 114 91
9772 196 41 19
9773 196 382 62
9774 196 251 50
9775 196 395 83
9776 196 197 85
9777 196 147 84
9778 196 45 6
9779 196 282 27
9780 196 354 40
9781 196 59 71
9782 196 82 35
9783 196 188 58
9784 196 99 96
9785 196 228 68
9786 196 97 98
9787 196 87 94
9788 197 298 65
9789 197 350 7
9790 197 220 2
9791 197 78 34
9792 197 64 59
9793 197 309 23
9794 197 332 86
9795 197 22 92
9796 197 353 33
9797 197 249 48
9798 197 89 62
9799 197 231 10
9800 197 124 23
9801 197 52 81
9802 197 218 51
9803 197 389 64
9804 197 23 60
9805 197 303 22
9806 197 13 68
9807 197 66 1
9808 197 60 57
9809 197 179 94
9810 197 225 22
9811 197 74 7
9812 197 253 7
9813 197 254 77
9814 197 7 7
9815 197 338 9
9816 197 219 45
9817 197 189 36
9818 197 357 56
9819 197 348 49
9820 197 48 91
9821 197 82 71
9822 197 1 5
9823 197 384 63
9824 197 14 97
9825 197 324 77
9826 197 134 59
9827 197 109 70
9828 197 203 34
9829 197 290 23
9830 197 286 81
9831 198 115 47
9832 198 281 41
9833 198 234 27
9834 198 57 75
9835 198 186 89
9836 198 389 51
9837 198 63 12
9838 198 343 11
9839 198 49 52
9840 198 364 100
9841 198 120 71
9842 198 382 37
9843 198 396 57
9844 198 11 91
9845 198 385 66
9846 198 109 6
9847 198 291 40
9848 198 293 1
9849 198 145 46
9850 198 317 61
9851 198 228 24
9852 198 85 37
9853 198 141 100
9854 198 279 100
9855 198 287 82
9856 198 36 44
9857 198 236 67
9858 198 383 76
9859 198 205 64
9860 198 307 39
9861 198 241 96
9862 198 330 13
9863 198 166 77
9864 198 213 51
9865 198 42 81
9866 198 123 35
9867 198 362 43
9868 198 272 26
9869 198 203 61
9870 198 75 41
9871 198 59 63
9872 198 138 26
9873 198 399 78
9874 198 388 33
9875 198 114 18
9876 198 286 49
9877 199 54 49
9878 199 123 9
9879 199 332 6
9880 199 195 77
9881 199 242 78
9882 199 215 47
9883 199 333 69
9884 199 214 29
9885 199 21 88
9886 199 177 31
9887 199 118 1
9888 199 319 47
9889 199 86 87
9890 199 307 31
9891 199 197 76
9892 199 140 71
9893 199 285 12
9894 199 372 85
9895 199 175 90
9896 199 233 75
9897 199 127 26
9898 199 14 58
9899 199 79 16
9900 199 88 62
9901 199 203 46
9902 199 221 80
9903 199 160 92
9904 199 236 74
9905 199 56 95
9906 199 37 20
9907 199 395 87
9908 199 77 63
9909 199 149 9
9910 199 162 94
9911 199 99 10
9912 199 69 39
9913 199 252 58
9914 199 28 100
9915 199 277 99
9916 199 129 76
9917 199 161 25
9918 199 336 38
9919 199 276 40
9920 199 380 21
9921 199 377 90
9922 199 26 27
9923 199 167 51
9924 199 172 95
9925 199 225 53
9926 199 355 47
9927 200 369 91
9928 200 131 95
9929 200 209 85
9930 200 16 75
9931 200 356 40
9932 200 214 21
9933 200 231 29
9934 200 151 18
9935 200 40 31
9936 200 310 50
9937 200 371 9
9938 200 34 84
9939 200 180 87
9940 200 145 58
9941 200 292 96
9942 200 2 66
9943 200 372 80
9944 200 8 100
9945 200 307 49
9946 200 382 97
9947 200 383 82
9948 200 36 12
9949 200 140 33
9950 200 186 11
9951 200 308 76
9952 200 232 36
9953 200 170 37
9954 200 279 56
9955 200 243 56
9956 200 254 37
9957 200 72 40
9958 200 309 43
9959 200 306 26
9960 200 171 82
9961 200 333 59
9962 200 268 4
9963 200 229 84
9964 200 203 63
9965 200 374 48
9966 200 17 22
9967 200 293 18
9968 200 328 15
9969 200 6 69
9970 200 212 45
9971 200 83 6
9972 200 335 74
9973 200 362 29
9974 201 59 97
9975 201 320 24
9976 201 1 3
9977 201 292 49
9978 201 126 43
9979 201 277 50
9980 201 243 59
9981 201 343 4
9982 201 120 83
9983 201 166 21
9984 201 131 64
9985 201 361 32
9986 201 219 64
9987 201 264 52
9988 201 196 11
9989 201 171 34
9990 201 254 78
9991 201 285 78
9992 201 281 67
9993 201 100 83
9994 201 370 12
9995 201 278 21
9996 201 348 73
9997 201 269 12
9998 201 33 62
9999 201 249 78
10000 201 113 99
10001 201 212 76
10002 201 186 75
10003 201 98 71
10004 201 92 76
10005 201 34 6
10006 201 20 87
10007 201 257 65
10008 201 232 66
10009 201 390 31
10010 201 213 86
10011 201 265 82
10012 201 65 79
10013 201 328 8
10014 201 337 54
10015 201 241 89
10016 201 58 63
10017 201 226 91
10018 201 162 82
10019 201 14 56
10020 202 205 100
10021 202 46 57
10022 202 301 23
10023 202 236 64
10024 202 43 6
10025 202 129 53
10026 202 137 22
10027 202 217 10
10028 202 250 75
10029 202 281 72
10030 202 255 58
10031 202 332 88
10032 202 172 84
10033 202 85 12
10034 202 35 50
10035 202 164 99
10036 202 239 9
10037 202 13 6
10038 202 16 17
10039 202 71 6
10040 202 362 9
10041 202 262 35
10042 202 17 92
10043 202 353 41
10044 202 10 81
10045 202 390 87
10046 202 380 2
10047 202 115 47
10048 202 122 12
10049 202 201 97
10050 202 347 91
10051 202 289 36
10052 202 298 78
10053 202 11 78
10054 202 198 22
10055 202 154 17
10056 202 53 89
10057 202 258 69
10058 202 220 73
10059 202 44 87
10060 202 93 17
10061 202 141 11
10062 202 314 35
10063 202 308 11
10064 202 184 47
10065 202 64 46
10066 202 320 65
10067 202 181 39
10068 202 116 85
10069 202 2 15
10070 203 141 46
10071 203 34 26
10072 203 354 14
10073 203 3 87
10074 203 338 59
10075 203 193 35
10076 203 275 62
10077 203 35 2
10078 203 262 86
10079 203 209 46
10080 203 92 73
10081 203 387 85
10082 203 302 3
10083 203 26 66
10084 203 201 90
10085 203 0 45
10086 203 327 53
10087 203 231 40
10088 203 73 10
10089 203 178 57
10090 203 126 45
10091 203 336 3
10092 203 189 37
10093 203 281 56
10094 203 174 47
10095 203 23 69
10096 203 364 36
10097 203 384 59
10098 203 392 42
10099 203 86 12
10100 203 67 40
10101 203 217 17
10102 203 273 17
10103 203 124 2
10104 203 260 18
10105 203 172 13
10106 203 279 23
10107 203 134 85
10108 203 346 74
10109 203 394 74
10110 203 32 87
10111 203 223 8
10112 203 202 62
10113 203 271 91
10114 203 79 41
10115 203 53 99
10116 203 315 54
10117 203 36 13
10118 203 84 53
10119 203 37 22
10120 203 287 53
10121 203 136 47
10122 203 9 90
10123 204 165 59
10124 204 346 62
10125 204 85 10
10126 204 358 20
10127 204 11 22
10128 204 60 77
10129 204 156 6
10130 204 24 94
10131 204 179 61
10132 204 300 84
10133 204 212 4
10134 204 355 8
10135 204 270 24
10136 204 193 67
10137 204 48 45
10138 204 89 44
10139 204 34 82
10140 204 319 65
10141 204 243 18
10142 204 110 32
10143 204 116 22
10144 204 113 30
10145 204 127 66
10146 204 173 44
10147 204 343 16
10148 204 52 52
10149 204 224 8
10150 204 379 15
10151 204 151 74
10152 204 3 1
10153 204 175 32
10154 204 39 31
10155 204 148 18
10156 204 378 90
10157 204 248 61
10158 204 45 12
10159 204 339 95
10160 204 12 57
10161 204 284 50
10162 204 354 55
10163 204 29 49
10164 204 237 36
10165 204 289 12
10166 204 271 55
10167 205 188 27
10168 205 299 39
10169 205 316 18
10170 205 317 27
10171 205 16 5
10172 205 357 81
10173 205 36 77
10174 205 250 58
10175 205 26 67
10176 205 158 16
10177 205 109 15
10178 205 146 75
10179 205 222 96
10180 205 230 97
10181 205 112 34
10182 205 253 46
10183 205 337 34
10184 205 305 91
10185 205 185 35
10186 205 136 66
10187 205 78 70
10188 205 349 6
10189 205 285 70
10190 205 139 88
10191 205 260 62
10192 205 231 30
10193 205 254 96
10194 205 223 50
10195 205 21 9
10196 205 48 24
10197 205 76 81
10198 205 216 54
10199 205 215 14
10200 205 178 23
10201 205 169 93
10202 205 124 52
10203 205 77 25
10204 205 327 74
10205 205 189 68
10206 205 344 25
10207 205 14 26
10208 205 96 48
10209 205 362 8
10210 205 261 34
10211 205 272 92
10212 205 165 78
10213 205 25 29
10214 205 283 50
10215 205 82 61
10216 205 324 58
10217 205 265 60
10218 205 79 55
10219 205 203 28
10220 205 119 96
10221 205 90 78
10222 206 322 69
10223 206 280 43
10224 206 179 61
10225 206 120 17
10226 206 98 56
10227 206 36 20
10228 206 207 53
10229 206 14 7
10230 206 251 48
10231 206 137 55
10232 206 124 9
10233 206 149 35
10234 206 210 16
10235 206 102 72
10236 206 214 79
10237 206 336 20
10238 206 287 29
10239 206 267 39
10240 206 110 9
10241 206 138 81
10242 206 384 96
10243 206 68 9
10244 206 158 12
10245 206 116 75
10246 206 18 99
10247 206 192 82
10248 206 234 53
10249 206 169 92
10250 206 334 22
10251 206 320 73
10252 206 236 89
10253 206 54 92
10254 206 122 75
10255 206 250 22
10256 206 91 68
10257 206 187 86
10258 206 231 40
10259 206 146 20
10260 206 333 43
10261 206 288 7
10262 206 367 67
10263 206 292 62
10264 206 135 54
10265 206 11 30
10266 206 391 78
10267 206 369 58
10268 206 3 83
10269 206 127 13
10270 206 323 79
10271 206 132 90
10272 206 197 15
10273 206 9 5
10274 206 86 31
10275 206 166 29
10276 206 175 65
10277 207 180 74
10278 207 22 21
10279 207 29 69
10280 207 101 2
10281 207 247 64
10282 207 26 78
10283 207 95 66
10284 207 2 36
10285 207 333 16
10286 207 164 80
10287 207 165 60
10288 207 63 11
10289 207 275 4
10290 207 166 92
10291 207 266 20
10292 207 132 83
10293 207 183 38
10294 207 64 99
10295 207 42 89
10296 207 253 43
10297 207 129 10
10298 207 148 75
10299 207 243 75
10300 207 292 15
10301 207 65 62
10302 207 317 30
10303 207 338 77
10304 207 217 31
10305 207 370 9
10306 207 161 54
10307 207 44 74
10308 207 378 59
10309 207 244 90
10310 207 282 92
10311 207 115 34
10312 207 122 85
10313 207 314 54
10314 207 380 92
10315 207 349 22
10316 207 62 60
10317 207 215 95
10318 207 50 74
10319 207 142 71
10320 207 162 70
10321 207 309 58
10322 207 102 60
10323 207 34 86
10324 207 58 79
10325 207 339 5
10326 207 41 74
10327 207 396 98
10328 207 185 12
10329 207 321 91
10330 207 257 65
10331 207 340 94
10332 207 249 22
10333 207 18 99
10334 207 348 38
10335 208 48 87
10336 208 215 74
10337 208 274 81
10338 208 277 5
10339 208 357 50
10340 208 218 58
10341 208 242 50
10342 208 121 91
10343 208 340 43
10344 208 301 27
10345 208 321 31
10346 208 345 52
10347 208 349 29
10348 208 358 93
10349 208 163 32
10350 208 364 3
10351 208 96 12
10352 208 9 74
10353 208 73 84
10354 208 335 80
10355 208 162 55
10356 208 331 47
10357 208 249 57
10358 208 190 24
10359 208 92 39
10360 208 320 97
10361 208 276 54
10362 208 333 96
10363 208 89 60
10364 208 197 36
10365 208 293 85
10366 208 41 100
10367 208 93 49
10368 208 204 68
10369 208 42 66
10370 208 392 47
10371 208 260 5
10372 208 382 93
10373 208 385 13
10374 208 122 56
10375 208 140 23
10376 208 164 84
10377 208 323 54
10378 208 7 9
10379 208 47 87
10380 208 182 36
10381 208 223 66
10382 208 37 15
10383 208 278 41
10384 208 343 18
10385 209 67 91
10386 209 311 16
10387 209 304 32
10388 209 366 67
10389 209 292 7
10390 209 263 23
10391 209 338 23
10392 209 284 43
10393 209 266 84
10394 209 46 10
10395 209 227 63
10396 209 182 46
10397 209 240 97
10398 209 283 7
10399 209 174 79
10400 209 246 36
10401 209 249 23
10402 209 186 18
10403 209 250 11
10404 209 324 43
10405 209 38 1
10406 209 68 44
10407 209 184 94
10408 209 377 64
10409 209 122 33
10410 209 356 35
10411 209 22 43
10412 209 178 43
10413 209 14 3
10414 209 388 88
10415 209 71 7
10416 209 143 80
10417 209 289 70
10418 209 273 49
10419 209 192 13
10420 209 340 100
10421 209 162 77
10422 209 43 9
10423 209 98 71
10424 209 121 71
10425 209 257 5
10426 209 151 96
10427 209 259 18
10428 209 256 41
10429 209 172 99
10430 209 255 36
10431 209 49 3
10432 209 279 43
10433 209 47 59
10434 209 258 59
10435 209 393 62
10436 209 168 86
10437 209 386 80
10438 209 106 1
10439 210 365 42
10440 210 298 42
10441 210 12 40
10442 210 253 79
10443 210 274 52
10444 210 226 5
10445 210 15 15
10446 210 286 41
10447 210 355 41
10448 210 376 75
10449 210 215 66
10450 210 63 75
10451 210 393 85
10452 210 357 99
10453 210 207 21
10454 210 396 64
10455 210 243 5
10456 210 127 46
10457 210 138 72
10458 210 258 72
10459 210 300 63
10460 210 84 34
10461 210 378 99
10462 210 5 32
10463 210 155 30
10464 210 392 25
10465 210 19 47
10466 210 290 89
10467 210 161 54
10468 210 380 41
10469 210 188 87
10470 210 132 47
10471 210 324 74
10472 210 232 38
10473 210 331 83
10474 210 311 66
10475 210 22 69
10476 210 119 36
10477 210 322 63
10478 210 20 45
10479 210 335 43
10480 210 134 48
10481 210 326 96
10482 210 352 34
10483 210 250 13
10484 210 231 32
10485 210 246 93
10486 210 101 87
10487 210 69 24
10488 210 167 49
10489 210 168 3
10490 210 28 38
10491 210 90 77
10492 210 270 38
10493 210 288 30
10494 210 389 99
10495 210 273 41
10496 210 94 20
10497 210 327 80
10498 210 72 19
10499 211 349 32
10500 211 255 8
10501 211 375 84
10502 211 342 41
10503 211 337 52
10504 211 160 9
10505 211 87 89
10506 211 227 81
10507 211 165 90
10508 211 195 13
10509 211 123 46
10510 211 301 23
10511 211 392 63
10512 211 299 19
10513 211 232 63
10514 211 77 58
10515 211 386 27
10516 211 170 67
10517 211 382 23
10518 211 128 1
10519 211 332 19
10520 211 393 91
10521 211 43 52
10522 211 100 33
10523 211 6 4
10524 211 64 60
10525 211 383 53
10526 211 348 46
10527 211 40 94
10528 211 231 45
10529 211 251 70
10530 211 134 98
10531 211 360 5
10532 211 196 30
10533 211 333 80
10534 211 80 68
10535 211 291 43
10536 211 151 90
10537 211 242 65
10538 211 141 89
10539 211 222 57
10540 211 131 22
10541 211 44 83
10542 211 216 2
10543 211 112 8
10544 212 120 2
10545 212 119 1
10546 212 256 24
10547 212 255 27
10548 212 78 98
10549 212 5 94
10550 212 117 37
10551 212 15 12
10552 212 300 37
10553 212 123 27
10554 212 203 19
10555 212 397 26
10556 212 341 45
10557 212 69 28
10558 212 14 48
10559 212 44 46
10560 212 99 81
10561 212 305 57
10562 212 237 47
10563 212 274 46
10564 212 106 14
10565 212 88 38
10566 212 259 95
10567 212 112 18
10568 212 80 92
10569 212 244 3
10570 212 380 30
10571 212 315 31
10572 212 138 70
10573 212 376 31
10574 212 46 30
10575 212 393 62
10576 212 234 77
10577 212 191 2
10578 212 249 66
10579 212 144 35
10580 212 381 49
10581 212 161 2
10582 212 398 75
10583 212 357 90
10584 212 180 31
10585 212 362 94
10586 212 389 54
10587 213 293 96
10588 213 281 91
10589 213 271 57
10590 213 363 41
10591 213 322 96
10592 213 44 66
10593 213 97 87
10594 213 30 37
10595 213 288 41
10596 213 358 97
10597 213 307 89
10598 213 373 64
10599 213 351 56
10600 213 326 75
10601 213 38 40
10602 213 334 11
10603 213 355 41
10604 213 160 71
10605 213 320 53
10606 213 4 60
10607 213 145 85
10608 213 104 54
10609 213 310 46
10610 213 135 14
10611 213 291 13
10612 213 245 81
10613 213 25 11
10614 213 114 82
10615 213 331 63
10616 213 369 10
10617 213 290 14
10618 213 142 71
10619 213 179 100
10620 213 81 11
10621 213 93 23
10622 213 194 100
10623 213 217 77
10624 213 64 65
10625 213 329 64
10626 213 19 9
10627 213 181 49
10628 213 21 78
10629 213 37 36
10630 213 231 47
10631 213 365 44
10632 213 256 47
10633 213 396 85
10634 213 53 36
10635 213 234 69
10636 214 219 13
10637 214 239 18
10638 214 246 90
10639 214 144 37
10640 214 225 37
10641 214 19 32
10642 214 72 18
10643 214 86 21
10644 214 322 22
10645 214 65 91
10646 214 13 86
10647 214 253 89
10648 214 328 3
10649 214 289 90
10650 214 61 81
10651 214 159 84
10652 214 95 68
10653 214 150 63
10654 214 70 58
10655 214 183 86
10656 214 163 45
10657 214 27 38
10658 214 238 52
10659 214 305 86
10660 214 330 90
10661 214 373 17
10662 214 180 75
10663 214 382 49
10664 214 23 77
10665 214 377 28
10666 214 4 38
10667 214 169 58
10668 214 149 23
10669 214 385 12
10670 214 318 43
10671 214 257 4
10672 214 354 68
10673 214 167 35
10674 214 235 19
10675 214 393 15
10676 214 395 33
10677 214 234 45
10678 214 299 10
10679 214 138 7
10680 214 297 99
10681 214 158 5
10682 214 73 77
10683 214 99 63
10684 214 34 93
10685 214 374 27
10686 214 294 42
10687 214 76 23
10688 214 211 2
10689 214 90 5
10690 215 358 5
10691 215 125 50
10692 215 390 25
10693 215 156 26
10694 215 270 32
10695 215 67 72
10696 215 9 85
10697 215 117 70
10698 215 169 61
10699 215 55 2
10700 215 88 8
10701 215 4 6
10702 215 111 63
10703 215 159 76
10704 215 104 97
10705 215 214 7
10706 215 155 11
10707 215 221 97
10708 215 44 28
10709 215 245 15
10710 215 248 80
10711 215 188 72
10712 215 154 48
10713 215 133 8
10714 215 171 36
10715 215 199 48
10716 215 14 18
10717 215 120 3
10718 215 392 45
10719 215 96 89
10720 215 236 86
10721 215 124 53
10722 215 213 13
10723 215 60 70
10724 215 22 60
10725 215 39 81
10726 215 231 87
10727 215 148 37
10728 215 362 12
10729 215 28 70
10730 215 277 46
10731 215 95 100
10732 215 79 16
10733 215 266 80
10734 215 343 92
10735 215 334 46
10736 216 275 38
10737 216 217 64
10738 216 224 40
10739 216 65 50
10740 216 340 68
10741 216 328 34
10742 216 309 63
10743 216 64 32
10744 216 110 99
10745 216 99 32
10746 216 281 64
10747 216 44 45
10748 216 262 4
10749 216 127 80
10750 216 350 67
10751 216 277 62
10752 216 106 86
10753 216 283 83
10754 216 305 9
10755 216 87 8
10756 216 383 40
10757 216 392 18
10758 216 230 66
10759 216 56 85
10760 216 207 68
10761 216 389 27
10762 216 259 17
10763 216 266 22
10764 216 397 23
10765 216 246 95
10766 216 145 60
10767 216 360 37
10768 216 77 59
10769 216 288 84
10770 216 353 96
10771 216 137 60
10772 216 166 91
10773 216 196 20
10774 216 105 7
10775 216 20 96
10776 216 167 30
10777 216 258 29
10778 216 74 40
10779 216 212 65
10780 217 187 95
10781 217 377 23
10782 217 60 67
10783 217 92 79
10784 217 119 80
10785 217 334 9
10786 217 301 13
10787 217 104 89
10788 217 89 87
10789 217 161 69
10790 217 13 21
10791 217 247 63
10792 217 380 56
10793 217 59 80
10794 217 208 60
10795 217 159 23
10796 217 202 22
10797 217 393 36
10798 217 150 92
10799 217 395 54
10800 217 270 3
10801 217 383 15
10802 217 156 85
10803 217 279 76
10804 217 236 32
10805 217 201 3
10806 217 87 72
10807 217 235 33
10808 217 95 34
10809 217 205 87
10810 217 171 60
10811 217 82 90
10812 217 73 2
10813 217 80 74
10814 217 218 39
10815 217 81 48
10816 217 309 18
10817 217 269 99
10818 217 64 20
10819 217 49 42
10820 217 122 30
10821 217 100 54
10822 217 238 15
10823 217 0 86
10824 217 144 91
10825 217 332 91
10826 217 228 36
10827 218 44 64
10828 218 96 53
10829 218 34 70
10830 218 332 37
10831 218 80 22
10832 218 280 69
10833 218 17 28
10834 218 53 93
10835 218 331 69
10836 218 114 71
10837 218 189 71
10838 218 60 25
10839 218 269 3
10840 218 282 99
10841 218 352 10
10842 218 208 48
10843 218 319 38
10844 218 236 31
10845 218 359 29
10846 218 321 37
10847 218 61 60
10848 218 311 1
10849 218 370 41
10850 218 99 18
10851 218 135 39
10852 218 307 29
10853 218 10 33
10854 218 83 43
10855 218 156 86
10856 218 394 22
10857 218 181 89
10858 218 248 75
10859 218 159 22
10860 218 31 61
10861 218 326 72
10862 218 303 50
10863 218 337 29
10864 218 153 20
10865 218 184 9
10866 218 242 9
10867 218 13 99
10868 218 20 66
10869 218 118 43
10870 218 55 9
10871 218 330 85
10872 218 325 31
10873 218 179 83
10874 218 133 31
10875 218 349 83
10876 218 309 78
10877 218 149 94
10878 218 253 28
10879 218 254 73
10880 219 254 71
10881 219 384 25
10882 219 195 34
10883 219 54 99
10884 219 100 26
10885 219 68 88
10886 219 249 62
10887 219 381 67
10888 219 3 92
10889 219 221 35
10890 219 144 41
10891 219 102 32
10892 219 368 62
10893 219 215 39
10894 219 380 68
10895 219 340 28
10896 219 217 99
10897 219 234 38
10898 219 308 38
10899 219 266 65
10900 219 65 26
10901 219 20 38
10902 219 373 44
10903 219 283 91
10904 219 25 77
10905 219 315 76
10906 219 122 82
10907 219 26 53
10908 219 387 13
10909 219 45 80
10910 219 32 40
10911 219 186 93
10912 219 93 1
10913 219 51 32
10914 219 393 67
10915 219 291 57
10916 219 204 95
10917 219 64 93
10918 219 70 31
10919 219 379 8
10920 219 62 60
10921 219 367 20
10922 219 202 14
10923 219 116 7
10924 219 114 21
10925 219 156 55
10926 219 237 79
10927 219 168 100
10928 219 370 68
10929 219 399 78
10930 219 78 33
10931 219 76 48
10932 219 240 1
10933 219 302 49
10934 219 53 61
10935 219 343 48
10936 219 286 41
10937 219 264 90
10938 220 44 4
10939 220 235 43
10940 220 45 59
10941 220 124 55
10942 220 291 70
10943 220 359 42
10944 220 364 32
10945 220 171 99
10946 220 114 35
10947 220 93 38
10948 220 352 27
10949 220 263 39
10950 220 136 50
10951 220 252 61
10952 220 266 33
10953 220 272 71
10954 220 152 68
10955 220 299 83
10956 220 189 6
10957 220 123 20
10958 220 207 24
10959 220 32 20
10960 220 8 45
10961 220 225 77
10962 220 282 49
10963 220 81 83
10964 220 101 21
10965 220 297 44
10966 220 279 51
10967 220 254 12
10968 220 371 39
10969 220 71 61
10970 220 11 51
10971 220 150 97
10972 220 290 93
10973 220 245 66
10974 220 75 50
10975 220 250 85
10976 220 118 19
10977 220 369 33
10978 220 178 74
10979 220 73 97
10980 220 377 69
10981 220 367 24
10982 220 226 54
10983 220 23 63
10984 220 301 62
10985 220 391 48
10986 220 385 27
10987 220 107 75
10988 220 110 26
10989 220 65 74
10990 220 307 26
10991 221 305 2
10992 221 31 93
10993 221 281 2
10994 221 35 28
10995 221 94 87
10996 221 116 39
10997 221 288 36
10998 221 136 51
10999 221 299 35
11000 221 220 64
11001 221 350 79
11002 221 173 15
11003 221 69 81
11004 221 134 13
11005 221 93 81
11006 221 334 38
11007 221 308 20
11008 221 294 36
11009 221 194 87
11010 221 41 56
11011 221 297 33
11012 221 126 60
11013 221 244 81
11014 221 14 33
11015 221 99 5
11016 221 59 8
11017 221 174 92
11018 221 338 3
11019 221 73 48
11020 221 286 53
11021 221 246 13
11022 221 56 52
11023 221 293 14
11024 221 357 68
11025 221 241 37
11026 221 222 49
11027 221 335 38
11028 221 228 68
11029 221 398 57
11030 221 289 2
11031 221 397 86
11032 221 257 57
11033 221 230 81
11034 221 371 7
11035 221 184 60
11036 221 3 71
11037 221 166 66
11038 221 387 74
11039 221 231 53
11040 221 20 6
11041 221 347 68
11042 221 182 48
11043 221 367 21
11044 221 167 20
11045 221 274 29
11046 221 291 17
11047 221 261 79
11048 221 169 55
11049 221 237 84
11050 221 395 24
11051 221 382 82
11052 222 196 29
11053 222 311 34
11054 222 394 82
11055 222 328 8
11056 222 209 88
11057 222 118 80
11058 222 50 15
11059 222 290 2
11060 222 395 34
11061 222 215 52
11062 222 233 22
11063 222 322 27
11064 222 295 69
11065 222 105 67
11066 222 148 47
11067 222 217 94
11068 222 332 4
11069 222 335 50
11070 222 252 45
11071 222 264 6
11072 222 77 78
11073 222 145 38
11074 222 262 31
11075 222 242 9
11076 222 131 4
11077 222 393 50
11078 222 370 93
11079 222 14 99
11080 222 200 5
11081 222 120 36
11082 222 56 69
11083 222 316 52
11084 222 280 73
11085 222 279 25
11086 222 83 45
11087 222 102 62
11088 222 60 24
11089 222 265 31
11090 222 312 99
11091 222 176 40
11092 222 17 59
11093 222 270 74
11094 222 42 85
11095 222 49 52
11096 222 57 37
11097 222 354 52
11098 222 175 75
11099 222 277 93
11100 222 251 2
11101 222 165 1
11102 222 34 79
11103 222 190 34
11104 223 298 64
11105 223 60 71
11106 223 195 42
11107 223 28 73
11108 223 350 74
11109 223 305 15
11110 223 164 13
11111 223 152 28
11112 223 347 51
11113 223 240 75
11114 223 231 55
11115 223 119 52
11116 223 31 18
11117 223 218 53
11118 223 222 86
11119 223 202 2
11120 223 277 76
11121 223 106 26
11122 223 194 83
11123 223 313 25
11124 223 319 28
11125 223 239 14
11126 223 80 57
11127 223 51 25
11128 223 26 52
11129 223 318 16
11130 223 268 98
11131 223 85 24
11132 223 129 28
11133 223 111 63
11134 223 304 58
11135 223 74 66
11136 223 37 64
11137 223 128 34
11138 223 217 54
11139 223 368 93
11140 223 292 11
11141 223 215 81
11142 223 236 68
11143 223 293 100
11144 223 64 64
11145 223 216 18
11146 223 209 97
11147 223 127 22
11148 223 65 82
11149 223 279 34
11150 223 224 74
11151 223 309 94
11152 224 318 57
11153 224 47 75
11154 224 305 44
11155 224 58 72
11156 224 61 38
11157 224 327 24
11158 224 94 92
11159 224 378 82
11160 224 234 31
11161 224 296 67
11162 224 128 93
11163 224 57 23
11164 224 220 26
11165 224 18 55
11166 224 161 44
11167 224 377 52
11168 224 174 63
11169 224 156 86
11170 224 286 83
11171 224 294 42
11172 224 354 37
11173 224 328 31
11174 224 125 1
11175 224 217 3
11176 224 369 41
11177 224 2 88
11178 224 52 26
11179 224 339 49
11180 224 111 68
11181 224 334 46
11182 224 32 99
11183 224 98 96
11184 224 44 33
11185 224 86 47
11186 224 163 13
11187 224 42 24
11188 224 298 87
11189 224 244 75
11190 224 283 91
11191 224 260 61
11192 224 291 58
11193 224 143 17
11194 224 152 38
11195 224 359 65
11196 224 240 29
11197 224 257 6
11198 224 184 27
11199 224 392 62
11200 224 107 44
11201 224 265 73
11202 225 180 62
11203 225 382 41
11204 225 386 45
11205 225 20 28
11206 225 257 81
11207 225 2 36
11208 225 48 11
11209 225 99 19
11210 225 64 12
11211 225 273 25
11212 225 112 23
11213 225 340 91
11214 225 282 77
11215 225 231 11
11216 225 166 34
11217 225 277 6
11218 225 170 28
11219 225 234 58
11220 225 61 23
11221 225 356 23
11222 225 172 76
11223 225 37 9
11224 225 301 90
11225 225 176 35
11226 225 245 51
11227 225 128 60
11228 225 58 10
11229 225 308 43
11230 225 374 56
11231 225 355 44
11232 225 383 66
11233 225 283 50
11234 225 296 45
11235 225 228 81
11236 225 17 32
11237 225 36 36
11238 225 366 51
11239 225 40 77
11240 225 397 32
11241 225 24 83
11242 225 267 19
11243 225 134 68
11244 225 168 80
11245 225 104 68
11246 225 378 24
11247 225 114 70
11248 225 381 16
11249 225 25 30
11250 226 81 50
11251 226 384 65
11252 226 372 30
11253 226 375 30
11254 226 77 87
11255 226 347 50
11256 226 258 41
11257 226 297 20
11258 226 364 66
11259 226 213 1
11260 226 326 67
11261 226 65 33
11262 226 97 63
11263 226 399 48
11264 226 32 38
11265 226 206 83
11266 226 249 4
11267 226 91 12
11268 226 133 61
11269 226 92 23
11270 226 279 51
11271 226 37 28
11272 226 57 58
11273 226 322 3
11274 226 207 90
11275 226 175 22
11276 226 199 60
11277 226 177 94
11278 226 55 32
11279 226 180 96
11280 226 284 12
11281 226 157 96
11282 226 150 89
11283 226 221 15
11284 226 205 32
11285 226 17 57
11286 226 348 40
11287 226 196 74
11288 226 154 43
11289 226 9 80
11290 226 139 52
11291 226 300 52
11292 226 283 88
11293 226 383 20
11294 226 270 38
11295 226 54 30
11296 226 390 19
11297 227 366 96
11298 227 275 94
11299 227 10 90
11300 227 317 36
11301 227 197 40
11302 227 145 91
11303 227 75 80
11304 227 43 73
11305 227 349 48
11306 227 46 75
11307 227 125 51
11308 227 290 62
11309 227 178 58
11310 227 71 94
11311 227 267 83
11312 227 87 55
11313 227 393 15
11314 227 225 87
11315 227 62 56
11316 227 226 12
11317 227 221 48
11318 227 169 7
11319 227 22 27
11320 227 85 15
11321 227 174 85
11322 227 236 48
11323 227 396 91
11324 227 365 22
11325 227 20 93
11326 227 144 14
11327 227 181 75
11328 227 34 63
11329 227 388 19
11330 227 292 33
11331 227 282 97
11332 227 395 48
11333 227 36 50
11334 227 186 60
11335 227 389 82
11336 227 188 15
11337 227 117 97
11338 227 30 2
11339 227 116 49
11340 228 17 88
11341 228 221 72
11342 228 143 13
11343 228 42 46
11344 228 314 8
11345 228 210 99
11346 228 201 66
11347 228 93 80
11348 228 116 18
11349 228 271 91
11350 228 163 14
11351 228 344 60
11352 228 359 66
11353 228 364 80
11354 228 183 3
11355 228 213 57
11356 228 78 6
11357 228 120 83
11358 228 336 76
11359 228 341 89
11360 228 389 13
11361 228 83 50
11362 228 179 7
11363 228 313 33
11364 228 76 89
11365 228 135 82
11366 228 94 36
11367 228 75 40
11368 228 312 63
11369 228 249 33
11370 228 189 54
11371 228 161 12
11372 228 293 3
11373 228 203 71
11374 228 118 20
11375 228 317 68
11376 228 230 81
11377 228 144 1
11378 228 45 67
11379 228 360 87
11380 228 244 11
11381 228 218 4
11382 228 223 18
11383 228 158 56
11384 228 365 77
11385 228 111 22
11386 228 7 85
11387 228 245 49
11388 228 115 93
11389 229 18 53
11390 229 306 79
11391 229 207 73
11392 229 76 19
11393 229 194 78
11394 229 360 45
11395 229 98 4
11396 229 85 96
11397 229 377 31
11398 229 304 73
11399 229 321 87
11400 229 144 69
11401 229 189 99
11402 229 106 19
11403 229 261 2
11404 229 327 99
11405 229 130 2
11406 229 113 24
11407 229 383 68
11408 229 246 40
11409 229 358 38
11410 229 310 31
11411 229 119 10
11412 229 381 88
11413 229 291 31
11414 229 289 96
11415 229 287 17
11416 229 4 6
11417 229 67 39
11418 229 172 60
11419 229 239 84
11420 229 86 13
11421 229 215 26
11422 229 110 97
11423 229 39 94
11424 229 35 23
11425 229 392 36
11426 229 231 30
11427 229 305 77
11428 229 214 30
11429 229 41 95
11430 229 234 51
11431 229 55 31
11432 229 38 53
11433 229 222 39
11434 229 257 61
11435 229 351 56
11436 229 396 74
11437 229 82 19
11438 229 208 58
11439 229 236 3
11440 230 7 97
11441 230 273 52
11442 230 353 7
11443 230 140 34
11444 230 311 95
11445 230 196 18
11446 230 128 83
11447 230 394 45
11448 230 25 50
11449 230 118 9
11450 230 67 22
11451 230 378 3
11452 230 49 35
11453 230 275 64
11454 230 113 12
11455 230 74 59
11456 230 333 55
11457 230 105 76
11458 230 319 57
11459 230 380 4
11460 230 227 26
11461 230 322 29
11462 230 258 97
11463 230 370 97
11464 230 54 79
11465 230 31 39
11466 230 343 33
11467 230 226 44
11468 230 144 39
11469 230 139 6
11470 230 17 21
11471 230 46 27
11472 230 149 62
11473 230 274 21
11474 230 214 86
11475 230 190 25
11476 230 390 75
11477 230 94 59
11478 230 326 20
11479 230 307 89
11480 230 102 69
11481 230 308 17
11482 230 348 10
11483 230 152 85
11484 230 13 70
11485 230 361 2
11486 230 369 13
11487 230 57 78
11488 230 51 33
11489 230 170 20
11490 230 41 72
11491 230 266 80
11492 230 373 60
11493 230 302 69
11494 230 180 23
11495 231 192 56
11496 231 16 29
11497 231 121 72
11498 231 92 15
11499 231 349 94
11500 231 57 48
11501 231 374 20
11502 231 320 18
11503 231 307 92
11504 231 271 67
11505 231 104 71
11506 231 86 21
11507 231 269 1
11508 231 321 36
11509 231 383 83
11510 231 157 79
11511 231 294 61
11512 231 263 62
11513 231 198 51
11514 231 111 27
11515 231 5 65
11516 231 46 7
11517 231 37 16
11518 231 125 29
11519 231 130 52
11520 231 31 100
11521 231 293 67
11522 231 262 33
11523 231 10 96
11524 231 217 99
11525 231 81 54
11526 231 249 48
11527 231 289 86
11528 231 352 86
11529 231 378 91
11530 231 364 66
11531 231 167 96
11532 231 272 91
11533 231 129 36
11534 231 48 15
11535 231 142 8
11536 231 156 51
11537 231 329 80
11538 231 54 18
11539 231 363 22
11540 231 270 59
11541 231 84 50
11542 231 127 33
11543 231 314 12
11544 231 393 74
11545 232 313 95
11546 232 162 73
11547 232 353 12
11548 232 50 14
11549 232 130 73
11550 232 317 8
11551 232 114 70
11552 232 303 57
11553 232 122 67
11554 232 356 15
11555 232 320 87
11556 232 368 29
11557 232 174 57
11558 232 170 87
11559 232 337 14
11560 232 276 51
11561 232 152 2
11562 232 28 74
11563 232 398 62
11564 232 129 94
11565 232 84 30
11566 232 3 94
11567 232 76 6
11568 232 316 48
11569 232 270 16
11570 232 389 10
11571 232 175 40
11572 232 70 76
11573 232 297 49
11574 232 137 2
11575 232 331 60
11576 232 138 66
11577 232 115 27
11578 232 53 54
11579 232 354 85
11580 232 364 9
11581 232 289 69
11582 232 372 41
11583 232 309 76
11584 232 73 42
11585 232 393 73
11586 232 79 58
11587 232 21 92
11588 232 91 65
11589 232 273 98
11590 232 220 23
11591 232 307 13
11592 232 318 33
11593 232 202 14
11594 232 355 19
11595 232 395 62
11596 232 296 40
11597 232 247 78
11598 232 10 20
11599 233 7 46
11600 233 339 91
11601 233 144 59
11602 233 286 16
11603 233 39 35
11604 233 342 69
11605 233 399 30
11606 233 174 3
11607 233 341 43
11608 233 316 96
11609 233 22 5
11610 233 89 92
11611 233 288 35
11612 233 230 35
11613 233 158 45
11614 233 194 97
11615 233 116 90
11616 233 294 53
11617 233 146 52
11618 233 374 63
11619 233 356 32
11620 233 296 79
11621 233 236 40
11622 233 241 84
11623 233 254 11
11624 233 188 96
11625 233 300 79
11626 233 137 62
11627 233 84 64
11628 233 278 2
11629 233 350 30
11630 233 256 9
11631 233 117 17
11632 233 206 62
11633 233 73 19
11634 233 307 61
11635 233 383 12
11636 233 323 7
11637 233 80 54
11638 233 53 63
11639 233 257 77
11640 233 199 45
11641 233 222 13
11642 233 396 98
11643 233 213 61
11644 234 154 71
11645 234 201 64
11646 234 193 16
11647 234 88 19
11648 234 394 46
11649 234 164 67
11650 234 281 2
11651 234 129 12
11652 234 229 5
11653 234 363 7
11654 234 101 59
11655 234 266 73
11656 234 82 14
11657 234 307 39
11658 234 366 48
11659 234 2 50
11660 234 290 49
11661 234 130 57
11662 234 239 49
11663 234 144 66
11664 234 258 36
11665 234 334 97
11666 234 158 47
11667 234 8 99
11668 234 353 31
11669 234 282 72
11670 234 319 13
11671 234 66 14
11672 234 113 47
11673 234 131 75
11674 234 197 46
11675 234 346 88
11676 234 91 58
11677 234 38 99
11678 234 17 56
11679 234 79 58
11680 234 191 21
11681 234 111 13
11682 234 395 6
11683 234 76 14
11684 234 115 14
11685 234 301 76
11686 234 97 55
11687 234 116 19
11688 234 384 3
11689 234 331 88
11690 234 55 56
11691 234 20 48
11692 234 90 2
11693 234 141 77
11694 234 241 69
11695 235 114 61
11696 235 36 13
11697 235 159 20
11698 235 195 86
11699 235 342 65
11700 235 158 65
11701 235 46 93
11702 235 207 95
11703 235 243 34
11704 235 285 79
11705 235 370 51
11706 235 50 34
11707 235 288 6
11708 235 216 43
11709 235 175 34
11710 235 99 25
11711 235 132 16
11712 235 322 46
11713 235 68 1
11714 235 89 50
11715 235 287 66
11716 235 44 78
11717 235 162 38
11718 235 323 95
11719 235 38 53
11720 235 290 38
11721 235 57 91
11722 235 10 99
11723 235 325 76
11724 235 23 11
11725 235 55 63
11726 235 279 64
11727 235 202 27
11728 235 92 15
11729 235 281 86
11730 235 223 56
11731 235 129 32
11732 235 34 6
11733 235 381 53
11734 235 126 18
11735 236 38 58
11736 236 60 39
11737 236 161 87
11738 236 111 32
11739 236 53 20
11740 236 72 80
11741 236 391 19
11742 236 81 96
11743 236 35 19
11744 236 142 3
11745 236 41 9
11746 236 56 96
11747 236 84 90
11748 236 306 89
11749 236 194 36
11750 236 316 46
11751 236 29 81
11752 236 291 27
11753 236 42 55
11754 236 52 34
11755 236 278 44
11756 236 172 84
11757 236 150 9
11758 236 397 17
11759 236 26 95
11760 236 58 98
11761 236 133 42
11762 236 28 39
11763 236 140 27
11764 236 317 51
11765 236 364 90
11766 236 362 39
11767 236 95 33
11768 236 250 84
11769 236 167 36
11770 236 289 71
11771 236 160 88
11772 236 43 78
11773 236 129 16
11774 236 261 18
11775 236 68 38
11776 236 298 58
11777 236 352 71
11778 236 183 46
11779 236 77 32
11780 236 299 5
11781 236 162 18
11782 236 356 2
11783 236 13 74
11784 236 176 86
11785 237 316 18
11786 237 145 51
11787 237 275 39
11788 237 190 33
11789 237 164 78
11790 237 181 60
11791 237 186 50
11792 237 329 2
11793 237 252 11
11794 237 79 14
11795 237 180 1
11796 237 42 39
11797 237 279 98
11798 237 135 55
11799 237 103 98
11800 237 362 33
11801 237 354 63
11802 237 295 18
11803 237 265 94
11804 237 217 4
11805 237 262 22
11806 237 327 2
11807 237 257 62
11808 237 314 77
11809 237 324 42
11810 237 392 96
11811 237 241 44
11812 237 60 80
11813 237 194 13
11814 237 274 34
11815 237 338 73
11816 237 261 67
11817 237 91 59
11818 237 376 28
11819 237 117 23
11820 237 218 24
11821 237 78 78
11822 237 331 99
11823 237 247 16
11824 237 293 90
11825 237 284 51
11826 237 201 42
11827 237 361 20
11828 238 294 8
11829 238 345 4
11830 238 257 95
11831 238 31 77
11832 238 39 5
11833 238 176 34
11834 238 140 96
11835 238 222 78
11836 238 44 8
11837 238 290 59
11838 238 135 81
11839 238 70 56
11840 238 146 94
11841 238 208 55
11842 238 54 63
11843 238 120 3
11844 238 242 33
11845 238 46 20
11846 238 66 50
11847 238 91 36
11848 238 158 62
11849 238 263 7
11850 238 114 48
11851 238 185 55
11852 238 26 66
11853 238 370 1
11854 238 21 50
11855 238 33 51
11856 238 84 36
11857 238 265 81
11858 238 171 3
11859 238 344 6
11860 238 358 21
11861 238 361 84
11862 238 376 13
11863 238 305 94
11864 238 166 88
11865 238 188 98
11866 238 356 98
11867 238 42 72
11868 238 162 52
11869 238 58 99
11870 238 203 37
11871 238 72 23
11872 238 24 28
11873 238 204 54
11874 238 271 37
11875 238 59 92
11876 238 200 48
11877 238 87 47
11878 238 349 50
11879 238 318 20
11880 238 353 46
11881 238 110 34
11882 238 74 18
11883 238 296 21
11884 238 387 51
11885 239 215 46
11886 239 88 93
11887 239 330 4
11888 239 125 53
11889 239 131 29
11890 239 64 5
11891 239 285 39
11892 239 282 33
11893 239 95 12
11894 239 337 52
11895 239 91 60
11896 239 212 84
11897 239 262 23
11898 239 77 67
11899 239 373 38
11900 239 218 75
11901 239 379 40
11902 239 167 44
11903 239 357 28
11904 239 302 47
11905 239 250 83
11906 239 65 18
11907 239 83 81
11908 239 59 43
11909 239 261 53
11910 239 51 83
11911 239 213 93
11912 239 57 86
11913 239 343 13
11914 239 339 5
11915 239 81 30
11916 239 176 49
11917 239 182 77
11918 239 391 13
11919 239 26 91
11920 239 219 52
11921 239 199 87
11922 239 68 17
11923 239 317 66
11924 239 394 100
11925 239 43 71
11926 239 139 98
11927 239 29 93
11928 239 304 57
11929 239 336 45
11930 239 106 5
11931 239 395 85
11932 239 272 68
11933 239 193 56
11934 240 15 46
11935 240 111 87
11936 240 218 6
11937 240 356 53
11938 240 246 23
11939 240 186 76
11940 240 351 66
11941 240 24 42
11942 240 64 84
11943 240 369 75
11944 240 78 18
11945 240 237 27
11946 240 331 81
11947 240 23 18
11948 240 316 96
11949 240 76 79
11950 240 1 63
11951 240 397 48
11952 240 321 96
11953 240 224 95
11954 240 202 2
11955 240 40 18
11956 240 339 76
11957 240 170 81
11958 240 271 15
11959 240 323 1
11960 240 191 51
11961 240 263 78
11962 240 264 63
11963 240 221 34
11964 240 367 32
11965 240 18 53
11966 240 291 38
11967 240 129 74
11968 240 204 50
11969 240 17 60
11970 240 335 63
11971 240 353 27
11972 240 206 11
11973 240 374 44
11974 240 388 80
11975 240 35 54
11976 240 16 70
11977 240 207 26
11978 240 33 20
11979 240 327 40
11980 240 208 5
11981 240 396 69
11982 240 36 19
11983 240 185 10
11984 241 190 71
11985 241 119 11
11986 241 55 25
11987 241 231 16
11988 241 259 42
11989 241 63 12
11990 241 309 47
11991 241 145 15
11992 241 358 99
11993 241 325 73
11994 241 140 36
11995 241 158 64
11996 241 260 40
11997 241 253 94
11998 241 68 18
11999 241 85 68
12000 241 254 67
12001 241 9 16
12002 241 92 6
12003 241 360 90
12004 241 188 6
12005 241 261 53
12006 241 135 32
12007 241 97 75
12008 241 328 30
12009 241 228 77
12010 241 182 94
12011 241 123 79
12012 241 57 22
12013 241 219 7
12014 241 34 12
12015 241 205 22
12016 241 223 84
12017 241 329 61
12018 241 201 62
12019 241 373 53
12020 241 378 98
12021 241 243 8
12022 241 356 19
12023 241 79 27
12024 241 30 34
12025 241 273 97
12026 241 289 32
12027 241 225 88
12028 241 284 12
12029 241 26 45
12030 241 36 59
12031 241 207 44
12032 241 10 97
12033 241 252 80
12034 241 141 36
12035 241 361 45
12036 241 66 95
12037 241 332 9
12038 241 156 11
12039 242 347 30
12040 242 202 35
12041 242 396 27
12042 242 296 49
12043 242 49 7
12044 242 129 91
12045 242 111 93
12046 242 230 49
12047 242 293 2
12048 242 380 63
12049 242 218 61
12050 242 158 91
12051 242 309 82
12052 242 222 16
12053 242 147 27
12054 242 102 9
12055 242 103 30
12056 242 214 11
12057 242 54 33
12058 242 168 26
12059 242 187 61
12060 242 283 56
12061 242 272 28
12062 242 181 17
12063 242 364 43
12064 242 257 56
12065 242 339 95
12066 242 308 29
12067 242 341 97
12068 242 124 29
12069 242 99 58
12070 242 338 95
12071 242 306 19
12072 242 395 84
12073 242 153 96
12074 242 185 43
12075 242 234 94
12076 242 285 79
12077 242 174 23
12078 242 88 85
12079 242 336 51
12080 242 121 55
12081 242 332 59
12082 242 366 46
12083 242 323 1
12084 242 73 27
12085 242 246 11
12086 242 84 42
12087 242 183 11
12088 242 20 2
12089 242 329 29
12090 242 57 5
12091 243 166 1
12092 243 359 96
12093 243 46 63
12094 243 199 53
12095 243 53 57
12096 243 384 20
12097 243 312 7
12098 243 325 6
12099 243 42 3
12100 243 151 60
12101 243 303 25
12102 243 356 19
12103 243 318 64
12104 243 273 23
12105 243 209 31
12106 243 287 93
12107 243 361 35
12108 243 135 17
12109 243 165 89
12110 243 14 95
12111 243 332 4
12112 243 195 27
12113 243 8 2
12114 243 31 80
12115 243 213 44
12116 243 385 82
12117 243 88 11
12118 243 181 18
12119 243 343 37
12120 243 28 60
12121 243 350 33
12122 243 260 12
12123 243 63 85
12124 243 133 24
12125 243 60 62
12126 243 10 44
12127 243 295 90
12128 243 285 34
12129 244 226 31
12130 244 328 52
12131 244 377 48
12132 244 297 81
12133 244 47 36
12134 244 73 23
12135 244 157 52
12136 244 133 76
12137 244 315 79
12138 244 0 75
12139 244 262 65
12140 244 321 33
12141 244 320 44
12142 244 140 1
12143 244 201 72
12144 244 84 28
12145 244 174 60
12146 244 108 32
12147 244 252 82
12148 244 215 82
12149 244 372 85
12150 244 347 57
12151 244 284 55
12152 244 324 80
12153 244 279 71
12154 244 273 73
12155 244 31 45
12156 244 109 55
12157 244 194 3
12158 244 184 74
12159 244 1 24
12160 244 132 38
12161 244 305 64
12162 244 219 34
12163 244 212 6
12164 244 225 14
12165 244 59 3
12166 244 253 8
12167 244 168 36
12168 244 156 24
12169 244 323 22
12170 244 203 1
12171 244 15 19
12172 244 182 16
12173 244 283 44
12174 244 173 66
12175 244 276 48
12176 244 361 99
12177 244 176 31
12178 245 244 53
12179 245 168 43
12180 245 347 34
12181 245 72 33
12182 245 118 27
12183 245 353 43
12184 245 289 74
12185 245 356 21
12186 245 70 79
12187 245 189 49
12188 245 381 46
12189 245 362 31
12190 245 399 80
12191 245 125 57
12192 245 320 94
12193 245 122 54
12194 245 123 38
12195 245 393 19
12196 245 354 18
12197 245 108 86
12198 245 49 29
12199 245 340 36
12200 245 25 14
12201 245 19 87
12202 245 192 63
12203 245 132 34
12204 245 324 98
12205 245 159 25
12206 245 364 73
12207 245 385 59
12208 245 8 16
12209 245 127 16
12210 245 345 98
12211 245 103 56
12212 245 111 88
12213 245 120 10
12214 245 78 14
12215 245 175 93
12216 245 153 96
12217 245 256 96
12218 245 196 39
12219 245 237 26
12220 245 96 27
12221 245 65 91
12222 245 209 77
12223 245 35 32
12224 245 273 84
12225 245 1 9
12226 245 39 33
12227 245 262 86
12228 245 216 28
12229 245 36 37
12230 245 258 28
12231 245 58 75
12232 245 37 88
12233 245 350 66
12234 246 284 28
12235 246 168 81
12236 246 350 66
12237 246 27 71
12238 246 306 42
12239 246 64 26
12240 246 160 98
12241 246 36 38
12242 246 21 20
12243 246 115 54
12244 246 17 25
12245 246 19 5
12246 246 262 12
12247 246 282 47
12248 246 182 57
12249 246 361 60
12250 246 373 75
12251 246 289 35
12252 246 229 4
12253 246 29 98
12254 246 132 74
12255 246 31 94
12256 246 396 2
12257 246 397 42
12258 246 138 82
12259 246 293 73
12260 246 65 96
12261 246 250 53
12262 246 300 77
12263 246 228 3
12264 246 281 29
12265 246 207 83
12266 246 257 59
12267 246 394 9
12268 246 25 28
12269 246 158 94
12270 246 288 75
12271 246 256 1
12272 246 170 61
12273 246 28 49
12274 246 201 65
12275 246 47 32
12276 246 122 70
12277 246 99 40
12278 246 343 13
12279 246 159 18
12280 246 38 89
12281 246 358 25
12282 246 173 52
12283 246 215 15
12284 247 114 84
12285 247 155 11
12286 247 97 15
12287 247 173 27
12288 247 391 55
12289 247 260 79
12290 247 365 83
12291 247 90 62
12292 247 290 74
12293 247 74 27
12294 247 15 72
12295 247 368 4
12296 247 210 51
12297 247 296 95
12298 247 71 10
12299 247 52 79
12300 247 23 100
12301 247 189 6
12302 247 110 13
12303 247 136 96
12304 247 372 48
12305 247 379 100
12306 247 40 45
12307 247 148 18
12308 247 353 43
12309 247 288 54
12310 247 18 40
12311 247 192 77
12312 247 276 70
12313 247 293 96
12314 247 168 61
12315 247 399 56
12316 247 142 62
12317 247 279 39
12318 247 108 97
12319 247 127 66
12320 247 169 66
12321 247 349 46
12322 247 321 35
12323 247 178 33
12324 247 123 20
12325 247 285 10
12326 247 107 26
12327 247 197 9
12328 247 370 59
12329 247 238 7
12330 247 62 47
12331 247 41 87
12332 247 55 67
12333 247 28 75
12334 247 89 46
12335 247 312 29
12336 247 258 50
12337 247 147 56
12338 247 340 97
12339 247 305 39
12340 247 389 46
12341 247 371 63
12342 247 73 58
12343 247 35 50
12344 247 153 96
12345 247 207 20
12346 247 94 30
12347 247 352 8
12348 247 350 48
12349 247 224 8
12350 247 26 25
12351 247 131 8
12352 248 86 43
12353 248 156 15
12354 248 152 7
12355 248 68 8
12356 248 326 96
12357 248 372 6
12358 248 151 10
12359 248 88 2
12360 248 107 93
12361 248 128 22
12362 248 324 41
12363 248 129 27
12364 248 117 23
12365 248 63 46
12366 248 217 69
12367 248 244 13
12368 248 273 31
12369 248 21 79
12370 248 280 54
12371 248 50 25
12372 248 10 88
12373 248 139 29
12374 248 314 13
12375 248 114 61
12376 248 123 97
12377 248 160 64
12378 248 264 97
12379 248 133 54
12380 248 2 29
12381 248 234 31
12382 248 335 12
12383 248 362 8
12384 248 96 81
12385 248 132 59
12386 248 358 96
12387 248 110 16
12388 248 233 86
12389 248 289 38
12390 248 385 51
12391 248 275 66
12392 248 24 26
12393 248 124 95
12394 248 228 65
12395 248 329 89
12396 248 308 71
12397 248 181 12
12398 248 112 74
12399 248 236 2
12400 248 315 18
12401 248 239 46
12402 248 57 37
12403 248 399 37
12404 248 227 99
12405 248 158 93
12406 248 72 71
12407 248 332 28
12408 249 184 7
12409 249 391 50
12410 249 52 23
12411 249 111 92
12412 249 160 10
12413 249 329 60
12414 249 275 32
12415 249 57 85
12416 249 29 78
12417 249 142 94
12418 249 392 22
12419 249 393 89
12420 249 262 23
12421 249 272 30
12422 249 67 5
12423 249 115 56
12424 249 198 48
12425 249 20 9
12426 249 133 62
12427 249 208 59
12428 249 323 73
12429 249 321 23
12430 249 383 38
12431 249 335 97
12432 249 290 13
12433 249 168 12
12434 249 384 63
12435 249 236 7
12436 249 369 96
12437 249 268 96
12438 249 340 29
12439 249 9 67
12440 249 195 100
12441 249 209 91
12442 249 267 39
12443 249 186 70
12444 249 34 55
12445 249 371 82
12446 249 101 66
12447 249 94 9
12448 249 199 63
12449 249 227 34
12450 249 10 63
12451 249 135 98
12452 250 380 74
12453 250 52 89
12454 250 151 9
12455 250 135 34
12456 250 38 41
12457 250 14 24
12458 250 120 42
12459 250 196 18
12460 250 71 100
12461 250 20 8
12462 250 368 86
12463 250 271 32
12464 250 233 13
12465 250 383 73
12466 250 86 30
12467 250 115 87
12468 250 61 33
12469 250 223 92
12470 250 62 10
12471 250 359 32
12472 250 212 46
12473 250 146 67
12474 250 345 15
12475 250 193 69
12476 250 353 68
12477 250 261 84
12478 250 185 81
12479 250 239 98
12480 250 327 6
12481 250 302 95
12482 250 307 15
12483 250 85 59
12484 250 100 49
12485 250 157 34
12486 250 104 64
12487 250 228 15
12488 250 167 82
12489 250 258 60
12490 250 343 78
12491 250 67 90
12492 250 358 81
12493 250 21 38
12494 250 318 34
12495 250 215 7
12496 250 391 44
12497 250 28 74
12498 250 177 82
12499 250 69 10
12500 250 7 38
12501 250 317 95
12502 250 175 99
12503 250 60 99
12504 250 231 77
12505 250 94 66
12506 250 323 83
12507 250 340 63
12508 250 289 27
12509 250 93 48
12510 250 144 84
12511 250 350 41
12512 251 207 48
12513 251 118 21
12514 251 82 17
12515 251 103 88
12516 251 12 30
12517 251 227 24
12518 251 371 57
12519 251 375 40
12520 251 397 17
12521 251 49 47
12522 251 260 26
12523 251 218 22
12524 251 299 37
12525 251 53 19
12526 251 55 82
12527 251 197 23
12528 251 244 32
12529 251 211 17
12530 251 258 7
12531 251 176 53
12532 251 57 76
12533 251 134 7
12534 251 117 52
12535 251 386 68
12536 251 213 55
12537 251 346 1
12538 251 278 8
12539 251 396 68
12540 251 42 100
12541 251 27 91
12542 251 81 44
12543 251 398 6
12544 251 313 80
12545 251 254 3
12546 251 99 25
12547 251 293 86
12548 251 8 2
12549 251 4 14
12550 251 84 71
12551 251 210 52
12552 251 202 83
12553 251 234 18
12554 251 67 2
12555 251 169 21
12556 251 201 87
12557 251 264 68
12558 251 216 38
12559 251 298 10
12560 251 191 69
12561 251 51 46
12562 251 347 33
12563 251 203 17
12564 251 44 98
12565 251 172 67
12566 251 296 16
12567 252 398 12
12568 252 356 72
12569 252 6 69
12570 252 12 58
12571 252 336 18
12572 252 307 53
12573 252 78 80
12574 252 237 77
12575 252 294 22
12576 252 174 61
12577 252 344 51
12578 252 9 88
12579 252 332 59
12580 252 263 21
12581 252 64 51
12582 252 43 35
12583 252 254 73
12584 252 338 38
12585 252 204 7
12586 252 226 99
12587 252 35 67
12588 252 238 94
12589 252 75 69
12590 252 18 25
12591 252 367 52
12592 252 149 75
12593 252 163 41
12594 252 31 50
12595 252 46 29
12596 252 171 29
12597 252 239 61
12598 252 383 83
12599 252 339 15
12600 252 214 36
12601 252 219 39
12602 252 275 15
12603 252 381 11
12604 252 350 89
12605 252 397 66
12606 252 136 73
12607 252 173 42
12608 252 370 55
12609 252 202 47
12610 252 195 80
12611 252 242 31
12612 252 141 4
12613 252 258 90
12614 252 23 1
12615 252 127 48
12616 252 357 23
12617 252 112 93
12618 252 62 92
12619 252 157 28
12620 252 276 31
12621 252 320 68
12622 252 233 38
12623 252 284 83
12624 253 204 34
12625 253 216 31
12626 253 273 67
12627 253 107 80
12628 253 182 86
12629 253 236 51
12630 253 130 29
12631 253 39 92
12632 253 90 28
12633 253 233 33
12634 253 100 100
12635 253 244 69
12636 253 375 15
12637 253 276 35
12638 253 284 12
12639 253 157 52
12640 253 252 97
12641 253 187 63
12642 253 220 55
12643 253 54 37
12644 253 256 46
12645 253 68 6
12646 253 383 57
12647 253 7 69
12648 253 231 55
12649 253 329 35
12650 253 70 7
12651 253 330 78
12652 253 134 59
12653 253 242 63
12654 253 338 57
12655 253 281 60
12656 253 387 60
12657 253 275 35
12658 253 398 63
12659 253 184 16
12660 253 168 88
12661 253 43 95
12662 253 190 40
12663 253 277 23
12664 253 228 17
12665 253 193 61
12666 253 394 85
12667 253 3 21
12668 253 28 36
12669 253 337 34
12670 253 301 76
12671 253 85 16
12672 254 342 11
12673 254 14 80
12674 254 80 72
12675 254 357 21
12676 254 97 49
12677 254 162 22
12678 254 115 27
12679 254 192 3
12680 254 245 65
12681 254 318 14
12682 254 39 32
12683 254 108 52
12684 254 157 46
12685 254 348 80
12686 254 173 39
12687 254 325 54
12688 254 176 90
12689 254 356 59
12690 254 321 89
12691 254 376 44
12692 254 374 62
12693 254 304 27
12694 254 188 78
12695 254 272 87
12696 254 112 47
12697 254 48 87
12698 254 103 37
12699 254 205 8
12700 254 42 73
12701 254 335 83
12702 254 269 18
12703 254 222 63
12704 254 71 8
12705 254 46 99
12706 254 127 44
12707 254 314 16
12708 254 75 34
12709 254 52 13
12710 254 100 93
12711 254 84 58
12712 254 228 99
12713 254 260 10
12714 254 195 55
12715 255 277 94
12716 255 181 94
12717 255 50 99
12718 255 283 13
12719 255 350 31
12720 255 371 18
12721 255 137 40
12722 255 27 78
12723 255 381 88
12724 255 158 8
12725 255 207 50
12726 255 139 77
12727 255 71 7
12728 255 322 62
12729 255 19 8
12730 255 197 81
12731 255 138 3
12732 255 254 17
12733 255 152 35
12734 255 373 87
12735 255 233 22
12736 255 321 87
12737 255 40 36
12738 255 267 42
12739 255 42 77
12740 255 285 65
12741 255 37 75
12742 255 297 38
12743 255 184 57
12744 255 123 71
12745 255 357 84
12746 255 225 42
12747 255 25 3
12748 255 82 92
12749 256 192 52
12750 256 72 97
12751 256 287 26
12752 256 175 14
12753 256 262 87
12754 256 358 45
12755 256 191 71
12756 256 36 49
12757 256 57 17
12758 256 276 68
12759 256 362 45
12760 256 365 92
12761 256 237 30
12762 256 350 22
12763 256 263 90
12764 256 37 32
12765 256 78 28
12766 256 393 11
12767 256 157 75
12768 256 159 11
12769 256 83 52
12770 256 370 38
12771 256 304 91
12772 256 80 35
12773 256 243 56
12774 256 231 62
12775 256 301 93
12776 256 281 64
12777 256 216 51
12778 256 131 73
12779 256 258 66
12780 256 364 23
12781 256 30 78
12782 256 260 19
12783 256 122 33
12784 256 348 6
12785 256 398 50
12786 256 2 41
12787 256 70 83
12788 256 160 37
12789 256 8 22
12790 256 353 15
12791 256 285 20
12792 256 102 5
12793 256 132 21
12794 256 171 68
12795 256 143 41
12796 256 273 31
12797 256 69 28
12798 256 189 28
12799 256 101 69
12800 256 296 4
12801 256 119 26
12802 257 147 100
12803 257 240 87
12804 257 378 77
12805 257 334 22
12806 257 38 34
12807 257 336 86
12808 257 303 39
12809 257 205 93
12810 257 166 21
12811 257 95 44
12812 257 299 40
12813 257 363 83
12814 257 309 53
12815 257 360 51
12816 257 304 20
12817 257 268 98
12818 257 200 80
12819 257 47 75
12820 257 103 75
12821 257 227 62
12822 257 141 67
12823 257 349 71
12824 257 191 28
12825 257 273 15
12826 257 314 49
12827 257 361 53
12828 257 184 81
12829 257 324 21
12830 257 301 94
12831 257 228 23
12832 257 331 34
12833 257 250 45
12834 257 57 100
12835 257 282 67
12836 257 134 93
12837 257 140 53
12838 257 171 90
12839 257 377 1
12840 257 275 35
12841 257 31 67
12842 257 101 68
12843 257 106 42
12844 257 327 95
12845 257 220 63
12846 257 287 59
12847 257 1 69
12848 257 25 36
12849 257 69 3
12850 257 266 88
12851 257 185 82
12852 257 30 86
12853 257 3 69
12854 257 311 65
12855 258 36 38
12856 258 384 30
12857 258 365 44
12858 258 227 15
12859 258 65 11
12860 258 243 6
12861 258 94 78
12862 258 151 82
12863 258 32 77
12864 258 53 23
12865 258 233 76
12866 258 240 42
12867 258 212 77
12868 258 319 67
12869 258 395 80
12870 258 327 47
12871 258 82 52
12872 258 266 99
12873 258 242 64
12874 258 48 94
12875 258 257 75
12876 258 166 19
12877 258 191 20
12878 258 330 62
12879 258 285 90
12880 258 59 5
12881 258 353 75
12882 258 204 81
12883 258 171 3
12884 258 300 95
12885 258 67 71
12886 258 127 54
12887 258 194 55
12888 258 183 1
12889 258 197 93
12890 258 26 7
12891 258 27 45
12892 258 122 92
12893 258 251 35
12894 258 167 1
12895 258 283 61
12896 258 346 47
12897 258 277 99
12898 258 255 58
12899 258 336 55
12900 258 147 95
12901 259 276 24
12902 259 300 62
12903 259 126 73
12904 259 249 54
12905 259 292 84
12906 259 7 13
12907 259 70 15
12908 259 210 22
12909 259 163 70
12910 259 167 56
12911 259 359 76
12912 259 62 22
12913 259 376 18
12914 259 263 23
12915 259 84 21
12916 259 222 4
12917 259 0 64
12918 259 16 38
12919 259 311 19
12920 259 372 75
12921 259 335 18
12922 259 198 97
12923 259 257 42
12924 259 72 63
12925 259 370 62
12926 259 177 71
12927 259 82 75
12928 259 230 70
12929 259 344 24
12930 259 252 96
12931 259 296 88
12932 259 242 62
12933 259 133 54
12934 259 280 81
12935 259 382 60
12936 259 144 63
12937 259 320 6
12938 259 128 58
12939 259 146 37
12940 259 183 6
12941 259 136 55
12942 259 274 68
12943 259 69 10
12944 259 55 64
12945 259 220 33
12946 259 159 4
12947 259 41 99
12948 260 136 100
12949 260 298 50
12950 260 314 30
12951 260 57 69
12952 260 169 42
12953 260 200 95
12954 260 17 84
12955 260 330 44
12956 260 325 18
12957 260 79 40
12958 260 245 41
12959 260 145 23
12960 260 235 39
12961 260 23 14
12962 260 123 36
12963 260 202 13
12964 260 74 98
12965 260 101 83
12966 260 115 9
12967 260 25 60
12968 260 143 57
12969 260 364 88
12970 260 291 84
12971 260 335 87
12972 260 65 5
12973 260 22 41
12974 260 390 76
12975 260 4 9
12976 260 348 92
12977 260 120 31
12978 260 285 94
12979 260 344 54
12980 260 142 16
12981 260 340 70
12982 260 352 42
12983 260 47 50
12984 260 356 90
12985 260 85 23
12986 260 199 2
12987 260 350 12
12988 260 33 69
12989 260 187 53
12990 260 86 13
12991 260 304 13
12992 261 329 39
12993 261 271 82
12994 261 53 41
12995 261 246 15
12996 261 327 96
12997 261 297 50
12998 261 280 100
12999 261 292 61
13000 261 281 17
13001 261 396 49
13002 261 65 89
13003 261 70 18
13004 261 76 54
13005 261 104 46
13006 261 72 80
13007 261 67 49
13008 261 398 15
13009 261 247 55
13010 261 228 26
13011 261 348 41
13012 261 66 7
13013 261 273 23
13014 261 47 29
13015 261 39 19
13016 261 220 28
13017 261 221 9
13018 261 298 34
13019 261 256 21
13020 261 331 20
13021 261 41 26
13022 261 43 45
13023 261 360 39
13024 261 265 69
13025 261 347 6
13026 261 283 83
13027 261 361 85
13028 261 194 98
13029 261 367 9
13030 261 282 35
13031 261 122 79
13032 261 13 52
13033 261 19 5
13034 261 184 76
13035 261 130 13
13036 261 86 88
13037 261 217 39
13038 261 191 33
13039 261 95 60
13040 261 354 67
13041 261 112 46
13042 261 157 28
13043 261 325 67
13044 261 392 2
13045 261 358 97
13046 261 299 41
13047 261 153 85
13048 261 119 59
13049 261 56 80
13050 261 373 36
13051 261 131 9
13052 261 317 93
13053 261 385 10
13054 262 151 30
13055 262 273 30
13056 262 144 17
13057 262 256 72
13058 262 258 29
13059 262 308 35
13060 262 167 72
13061 262 236 37
13062 262 277 15
13063 262 3 1
13064 262 394 75
13065 262 387 26
13066 262 115 55
13067 262 125 100
13068 262 70 10
13069 262 147 69
13070 262 100 40
13071 262 37 68
13072 262 328 24
13073 262 242 3
13074 262 36 16
13075 262 184 69
13076 262 24 47
13077 262 142 54
13078 262 183 44
13079 262 29 100
13080 262 286 33
13081 262 201 46
13082 262 194 28
13083 262 137 40
13084 262 7 21
13085 262 216 55
13086 262 51 20
13087 262 344 84
13088 262 197 48
13089 262 26 64
13090 262 41 95
13091 262 77 92
13092 262 324 1
13093 262 4 96
13094 262 1 25
13095 262 135 95
13096 262 297 82
13097 262 202 40
13098 262 181 49
13099 262 207 20
13100 262 116 84
13101 262 361 70
13102 262 11 90
13103 262 353 20
13104 262 210 35
13105 262 293 38
13106 262 54 49
13107 262 213 49
13108 262 48 70
13109 262 350 27
13110 262 175 10
13111 262 30 95
13112 262 150 18
13113 262 305 81
13114 263 335 13
13115 263 57 12
13116 263 336 85
13117 263 228 28
13118 263 146 52
13119 263 40 74
13120 263 107 95
13121 263 21 30
13122 263 246 16
13123 263 25 35
13124 263 398 88
13125 263 128 19
13126 263 378 100
13127 263 247 64
13128 263 290 61
13129 263 89 25
13130 263 100 87
13131 263 138 38
13132 263 269 76
13133 263 240 13
13134 263 242 1
13135 263 329 44
13136 263 389 99
13137 263 295 32
13138 263 315 39
13139 263 180 24
13140 263 272 12
13141 263 19 27
13142 263 297 24
13143 263 217 92
13144 263 227 74
13145 263 199 75
13146 263 66 59
13147 263 396 18
13148 263 177 56
13149 263 43 88
13150 263 1 60
13151 263 38 76
13152 263 110 26
13153 263 288 37
13154 263 84 54
13155 263 114 71
13156 263 301 11
13157 263 34 36
13158 263 181 88
13159 263 166 44
13160 263 287 79
13161 263 86 32
13162 263 359 14
13163 264 292 6
13164 264 363 3
13165 264 316 20
13166 264 332 24
13167 264 218 79
13168 264 397 94
13169 264 171 69
13170 264 269 30
13171 264 128 99
13172 264 289 88
13173 264 166 76
13174 264 378 52
13175 264 150 4
13176 264 356 51
13177 264 343 44
13178 264 354 96
13179 264 184 16
13180 264 112 70
13181 264 44 11
13182 264 9 32
13183 264 63 29
13184 264 313 67
13185 264 276 24
13186 264 34 95
13187 264 57 94
13188 264 59 24
13189 264 255 81
13190 264 240 35
13191 264 104 36
13192 264 56 77
13193 264 245 17
13194 264 389 92
13195 264 62 36
13196 264 202 40
13197 264 358 96
13198 264 215 23
13199 264 36 37
13200 264 370 82
13201 264 88 76
13202 264 206 12
13203 264 30 73
13204 264 96 67
13205 264 143 34
13206 264 18 49
13207 264 161 29
13208 264 22 56
13209 264 330 32
13210 264 142 61
13211 264 335 82
13212 264 32 42
13213 264 172 53
13214 265 122 21
13215 265 331 53
13216 265 380 84
13217 265 354 10
13218 265 16 24
13219 265 243 15
13220 265 359 32
13221 265 93 53
13222 265 55 20
13223 265 105 81
13224 265 11 9
13225 265 190 11
13226 265 318 63
13227 265 192 70
13228 265 313 53
13229 265 189 38
13230 265 143 82
13231 265 73 28
13232 265 170 39
13233 265 279 36
13234 265 287 61
13235 265 153 95
13236 265 254 59
13237 265 172 20
13238 265 371 71
13239 265 51 81
13240 265 335 60
13241 265 39 87
13242 265 180 92
13243 265 191 73
13244 265 0 89
13245 265 36 42
13246 265 225 81
13247 265 360 19
13248 265 330 91
13249 265 103 19
13250 265 388 71
13251 265 76 60
13252 265 222 29
13253 265 231 49
13254 265 398 26
13255 265 211 91
13256 265 252 57
13257 266 281 75
13258 266 204 18
13259 266 76 87
13260 266 57 29
13261 266 175 2
13262 266 213 95
13263 266 295 16
13264 266 270 28
13265 266 225 58
13266 266 315 56
13267 266 200 70
13268 266 201 70
13269 266 351 47
13270 266 238 72
13271 266 352 17
13272 266 117 20
13273 266 32 22
13274 266 250 46
13275 266 290 30
13276 266 64 37
13277 266 208 19
13278 266 36 26
13279 266 143 51
13280 266 166 40
13281 266 7 38
13282 266 392 54
13283 266 116 99
13284 266 188 4
13285 266 360 83
13286 266 365 87
13287 266 96 94
13288 266 324 85
13289 266 264 10
13290 266 307 11
13291 266 108 32
13292 266 142 81
13293 266 155 18
13294 266 111 32
13295 266 75 42
13296 266 232 3
13297 267 264 23
13298 267 278 12
13299 267 96 28
13300 267 251 45
13301 267 135 13
13302 267 170 18
13303 267 311 39
13304 267 26 68
13305 267 337 86
13306 267 232 45
13307 267 196 79
13308 267 379 100
13309 267 259 78
13310 267 152 94
13311 267 347 7
13312 267 165 23
13313 267 222 59
13314 267 304 81
13315 267 224 30
13316 267 225 85
13317 267 4 53
13318 267 183 58
13319 267 254 54
13320 267 132 64
13321 267 244 4
13322 267 367 69
13323 267 316 82
13324 267 382 53
13325 267 234 73
13326 267 327 84
13327 267 397 39
13328 267 357 23
13329 267 59 5
13330 267 297 50
13331 267 175 70
13332 267 380 95
13333 267 7 8
13334 267 352 18
13335 267 0 83
13336 267 146 66
13337 267 119 19
13338 267 269 67
13339 267 219 62
13340 267 293 12
13341 267 67 3
13342 267 1 42
13343 267 306 30
13344 267 88 1
13345 267 58 27
13346 267 189 94
13347 268 22 12
13348 268 169 50
13349 268 47 43
13350 268 3 32
13351 268 139 80
13352 268 225 25
13353 268 183 86
13354 268 379 32
13355 268 175 97
13356 268 215 11
13357 268 297 99
13358 268 280 23
13359 268 77 12
13360 268 341 54
13361 268 227 88
13362 268 174 76
13363 268 34 9
13364 268 357 28
13365 268 222 84
13366 268 226 66
13367 268 105 68
13368 268 122 85
13369 268 321 89
13370 268 237 46
13371 268 20 26
13372 268 115 24
13373 268 366 98
13374 268 184 3
13375 268 339 65
13376 268 62 67
13377 268 202 67
13378 268 33 35
13379 268 199 47
13380 268 388 64
13381 268 95 80
13382 268 392 37
13383 268 345 64
13384 268 340 7
13385 268 128 50
13386 268 61 57
13387 268 290 1
13388 268 83 45
13389 268 380 1
13390 268 371 2
13391 268 76 50
13392 268 355 71
13393 268 150 51
13394 268 375 90
13395 268 73 98
13396 268 89 23
13397 269 320 58
13398 269 73 29
13399 269 379 64
13400 269 362 43
13401 269 143 87
13402 269 336 88
13403 269 96 18
13404 269 288 1
13405 269 385 95
13406 269 167 76
13407 269 257 7
13408 269 136 54
13409 269 228 34
13410 269 102 10
13411 269 106 31
13412 269 92 84
13413 269 194 49
13414 269 392 63
13415 269 135 83
13416 269 125 73
13417 269 283 82
13418 269 265 62
13419 269 394 43
13420 269 355 39
13421 269 152 8
13422 269 263 46
13423 269 23 25
13424 269 25 11
13425 269 399 79
13426 269 174 35
13427 269 139 5
13428 269 212 79
13429 269 112 49
13430 269 147 60
13431 269 57 76
13432 269 366 35
13433 269 233 78
13434 269 229 85
13435 269 204 47
13436 269 331 76
13437 269 322 29
13438 269 133 52
13439 269 284 66
13440 269 374 95
13441 269 306 19
13442 269 244 36
13443 269 234 83
13444 269 132 31
13445 269 118 37
13446 269 200 25
13447 269 110 14
13448 269 302 68
13449 269 300 2
13450 269 281 23
13451 270 76 10
13452 270 368 91
13453 270 284 100
13454 270 313 88
13455 270 318 25
13456 270 271 3
13457 270 175 85
13458 270 394 75
13459 270 6 19
13460 270 370 42
13461 270 379 56
13462 270 364 56
13463 270 241 82
13464 270 198 50
13465 270 339 91
13466 270 72 31
13467 270 62 13
13468 270 329 64
13469 270 315 86
13470 270 244 36
13471 270 20 33
13472 270 302 31
13473 270 107 72
13474 270 2 87
13475 270 148 55
13476 270 145 6
13477 270 17 62
13478 270 350 27
13479 270 53 6
13480 270 366 25
13481 270 166 15
13482 270 362 56
13483 270 261 30
13484 270 104 73
13485 270 218 99
13486 270 187 47
13487 270 260 76
13488 270 194 15
13489 270 42 14
13490 270 59 65
13491 270 92 80
13492 270 293 73
13493 270 86 50
13494 270 134 12
13495 270 386 68
13496 270 256 39
13497 270 39 70
13498 270 253 25
13499 270 358 27
13500 270 156 22
13501 270 36 64
13502 271 201 76
13503 271 246 27
13504 271 184 6
13505 271 157 63
13506 271 102 70
13507 271 163 25
13508 271 71 6
13509 271 180 7
13510 271 305 56
13511 271 41 52
13512 271 289 46
13513 271 206 25
13514 271 272 29
13515 271 69 48
13516 271 186 50
13517 271 124 85
13518 271 63 61
13519 271 352 19
13520 271 262 21
13521 271 245 38
13522 271 242 28
13523 271 251 69
13524 271 256 27
13525 271 114 80
13526 271 396 66
13527 271 291 72
13528 271 384 75
13529 271 170 22
13530 271 185 34
13531 271 263 7
13532 271 133 74
13533 271 171 16
13534 271 232 16
13535 271 151 13
13536 271 392 96
13537 271 231 52
13538 271 298 2
13539 271 5 80
13540 271 317 14
13541 271 167 38
13542 271 293 45
13543 271 325 27
13544 271 110 2
13545 271 380 80
13546 271 122 75
13547 271 86 52
13548 271 342 45
13549 271 319 34
13550 271 149 25
13551 271 6 13
13552 272 209 93
13553 272 90 58
13554 272 185 41
13555 272 135 30
13556 272 290 90
13557 272 346 6
13558 272 207 44
13559 272 287 82
13560 272 254 64
13561 272 356 64
13562 272 58 49
13563 272 99 78
13564 272 249 71
13565 272 170 48
13566 272 105 5
13567 272 11 93
13568 272 359 84
13569 272 24 7
13570 272 279 89
13571 272 40 4
13572 272 61 59
13573 272 167 26
13574 272 46 46
13575 272 326 96
13576 272 180 100
13577 272 370 80
13578 272 317 4
13579 272 142 4
13580 272 94 61
13581 272 316 39
13582 272 53 7
13583 272 33 100
13584 272 256 15
13585 272 381 82
13586 272 1 21
13587 272 93 30
13588 272 277 55
13589 272 136 50
13590 272 63 49
13591 272 82 39
13592 272 301 97
13593 273 306 75
13594 273 197 20
13595 273 107 59
13596 273 372 44
13597 273 7 97
13598 273 3 68
13599 273 23 23
13600 273 299 6
13601 273 52 97
13602 273 18 53
13603 273 345 32
13604 273 289 50
13605 273 222 54
13606 273 249 11
13607 273 179 64
13608 273 206 10
13609 273 86 65
13610 273 44 58
13611 273 87 66
13612 273 233 74
13613 273 328 34
13614 273 268 50
13615 273 34 45
13616 273 79 22
13617 273 338 74
13618 273 352 76
13619 273 324 3
13620 273 205 39
13621 273 346 28
13622 273 106 55
13623 273 373 91
13624 273 327 57
13625 273 201 72
13626 273 370 93
13627 273 252 18
13628 273 321 8
13629 273 399 51
13630 273 60 11
13631 273 224 58
13632 273 63 42
13633 273 26 52
13634 273 127 83
13635 273 200 74
13636 273 394 68
13637 273 120 60
13638 273 10 68
13639 273 307 54
13640 273 272 98
13641 273 341 93
13642 273 391 26
13643 274 186 52
13644 274 84 57
13645 274 92 6
13646 274 41 59
13647 274 344 20
13648 274 20 40
13649 274 90 16
13650 274 100 25
13651 274 252 84
13652 274 50 25
13653 274 358 39
13654 274 213 85
13655 274 44 33
13656 274 2 84
13657 274 38 44
13658 274 164 26
13659 274 200 61
13660 274 365 53
13661 274 301 8
13662 274 94 61
13663 274 284 61
13664 274 303 43
13665 274 238 41
13666 274 330 55
13667 274 52 20
13668 274 211 23
13669 274 157 80
13670 274 170 23
13671 274 321 27
13672 274 31 61
13673 274 126 47
13674 274 329 84
13675 274 249 22
13676 274 78 57
13677 274 292 61
13678 274 386 79
13679 274 115 57
13680 274 229 98
13681 274 314 97
13682 274 266 41
13683 274 360 68
13684 274 256 67
13685 274 272 61
13686 274 343 1
13687 274 214 56
13688 274 158 37
13689 274 316 100
13690 275 282 40
13691 275 33 78
13692 275 166 10
13693 275 354 96
13694 275 307 92
13695 275 80 30
13696 275 229 22
13697 275 31 7
13698 275 362 85
13699 275 211 18
13700 275 71 94
13701 275 366 29
13702 275 3 63
13703 275 367 91
13704 275 252 90
13705 275 292 42
13706 275 201 82
13707 275 355 48
13708 275 397 68
13709 275 274 58
13710 275 247 51
13711 275 73 98
13712 275 167 95
13713 275 170 59
13714 275 112 50
13715 275 242 2
13716 275 273 15
13717 275 269 58
13718 275 221 22
13719 275 109 81
13720 275 187 90
13721 275 35 93
13722 275 183 10
13723 275 302 79
13724 275 123 70
13725 275 13 20
13726 275 228 10
13727 275 194 73
13728 275 164 65
13729 275 30 27
13730 275 182 79
13731 275 305 56
13732 275 361 17
13733 275 389 12
13734 275 331 56
13735 275 179 44
13736 275 83 92
13737 275 379 64
13738 275 360 54
13739 276 172 65
13740 276 224 93
13741 276 360 67
13742 276 321 80
13743 276 379 66
13744 276 165 72
13745 276 280 96
13746 276 197 85
13747 276 107 95
13748 276 30 27
13749 276 305 88
13750 276 350 86
13751 276 61 29
13752 276 29 58
13753 276 123 46
13754 276 134 58
13755 276 150 96
13756 276 138 51
13757 276 359 81
13758 276 353 11
13759 276 246 14
13760 276 104 68
13761 276 148 23
13762 276 162 81
13763 276 72 11
13764 276 338 87
13765 276 184 1
13766 276 373 86
13767 276 19 43
13768 276 175 79
13769 276 79 64
13770 276 192 65
13771 276 163 9
13772 276 16 41
13773 276 333 29
13774 276 236 66
13775 276 71 94
13776 276 260 97
13777 276 47 96
13778 276 142 22
13779 276 117 48
13780 276 232 41
13781 276 284 29
13782 276 186 33
13783 276 366 100
13784 276 144 53
13785 276 213 11
13786 276 384 82
13787 276 51 56
13788 277 256 76
13789 277 339 42
13790 277 355 5
13791 277 136 7
13792 277 327 44
13793 277 186 33
13794 277 115 2
13795 277 27 23
13796 277 293 44
13797 277 380 18
13798 277 98 3
13799 277 155 40
13800 277 234 46
13801 277 158 60
13802 277 137 75
13803 277 378 36
13804 277 376 59
13805 277 208 85
13806 277 247 37
13807 277 231 81
13808 277 92 65
13809 277 31 11
13810 277 116 50
13811 277 152 31
13812 277 82 51
13813 277 86 13
13814 277 290 57
13815 277 51 20
13816 277 61 76
13817 277 321 49
13818 277 17 64
13819 277 397 10
13820 277 325 57
13821 277 392 70
13822 277 89 33
13823 277 189 45
13824 277 332 81
13825 277 335 35
13826 277 49 78
13827 277 263 27
13828 277 122 80
13829 277 398 97
13830 277 32 91
13831 277 215 89
13832 277 213 39
13833 277 43 37
13834 278 37 40
13835 278 94 59
13836 278 189 62
13837 278 39 18
13838 278 138 33
13839 278 70 31
13840 278 357 27
13841 278 241 44
13842 278 19 35
13843 278 250 33
13844 278 235 67
13845 278 52 37
13846 278 77 35
13847 278 100 97
13848 278 334 17
13849 278 179 30
13850 278 381 75
13851 278 92 4
13852 278 34 89
13853 278 78 18
13854 278 248 71
13855 278 282 63
13856 278 377 73
13857 278 324 65
13858 278 263 46
13859 278 131 20
13860 278 395 54
13861 278 253 86
13862 278 287 62
13863 278 373 32
13864 278 366 56
13865 278 294 73
13866 278 87 71
13867 278 353 20
13868 278 63 79
13869 278 224 38
13870 278 144 18
13871 278 170 74
13872 278 339 66
13873 278 352 80
13874 278 264 64
13875 278 165 10
13876 278 114 32
13877 278 3 38
13878 278 183 5
13879 278 180 29
13880 278 200 25
13881 278 59 45
13882 278 192 79
13883 278 175 64
13884 278 330 87
13885 279 87 86
13886 279 269 70
13887 279 252 19
13888 279 107 85
13889 279 206 78
13890 279 91 66
13891 279 278 33
13892 279 280 24
13893 279 173 62
13894 279 191 47
13895 279 247 48
13896 279 267 60
13897 279 313 14
13898 279 84 66
13899 279 97 34
13900 279 358 79
13901 279 242 49
13902 279 143 20
13903 279 80 5
13904 279 341 21
13905 279 232 78
13906 279 213 78
13907 279 110 19
13908 279 61 43
13909 279 243 73
13910 279 199 70
13911 279 296 31
13912 279 386 33
13913 279 215 56
13914 279 371 75
13915 279 175 50
13916 279 195 38
13917 279 222 72
13918 279 94 70
13919 279 231 48
13920 279 281 12
13921 279 52 94
13922 279 204 25
13923 279 180 73
13924 279 391 29
13925 279 6 6
13926 279 334 87
13927 279 4 81
13928 279 100 85
13929 279 132 24
13930 279 88 59
13931 279 43 92
13932 279 156 23
13933 279 134 71
13934 279 366 49
13935 279 82 2
13936 280 317 18
13937 280 135 60
13938 280 106 64
13939 280 394 25
13940 280 294 7
13941 280 30 42
13942 280 322 39
13943 280 231 55
13944 280 361 90
13945 280 98 25
13946 280 393 77
13947 280 152 73
13948 280 28 78
13949 280 90 70
13950 280 67 78
13951 280 293 98
13952 280 95 16
13953 280 329 55
13954 280 47 12
13955 280 220 76
13956 280 21 87
13957 280 332 96
13958 280 158 7
13959 280 390 46
13960 280 321 68
13961 280 297 16
13962 280 25 16
13963 280 284 25
13964 280 320 31
13965 280 29 63
13966 280 215 93
13967 280 340 75
13968 280 271 63
13969 280 88 35
13970 280 277 29
13971 280 197 3
13972 280 339 12
13973 280 260 6
13974 280 85 33
13975 280 264 29
13976 280 76 14
13977 280 229 66
13978 280 49 89
13979 280 22 78
13980 280 16 96
13981 280 304 9
13982 280 331 19
13983 280 111 8
13984 280 285 89
13985 280 148 2
13986 280 79 98
13987 280 375 75
13988 281 6 3
13989 281 296 95
13990 281 181 69
13991 281 351 82
13992 281 338 70
13993 281 388 29
13994 281 28 61
13995 281 9 94
13996 281 75 45
13997 281 126 73
13998 281 91 60
13999 281 375 4
14000 281 74 23
14001 281 83 94
14002 281 67 52
14003 281 283 26
14004 281 342 45
14005 281 36 83
14006 281 70 28
14007 281 76 62
14008 281 258 97
14009 281 348 10
14010 281 158 59
14011 281 344 60
14012 281 333 41
14013 281 10 7
14014 281 297 14
14015 281 93 27
14016 281 247 75
14017 281 99 55
14018 281 237 27
14019 281 85 85
14020 281 156 64
14021 281 191 95
14022 281 233 61
14023 281 322 17
14024 281 276 100
14025 281 142 35
14026 281 43 70
14027 281 221 100
14028 281 282 56
14029 281 266 42
14030 281 385 7
14031 281 222 86
14032 281 265 57
14033 281 230 29
14034 281 132 55
14035 281 381 28
14036 281 383 54
14037 281 226 15
14038 281 347 82
14039 281 314 33
14040 281 395 1
14041 281 52 59
14042 281 12 22
14043 281 188 42
14044 282 84 20
14045 282 34 33
14046 282 214 82
14047 282 120 4
14048 282 176 81
14049 282 77 69
14050 282 252 21
14051 282 8 34
14052 282 290 12
14053 282 315 53
14054 282 317 73
14055 282 358 77
14056 282 71 42
14057 282 363 13
14058 282 137 97
14059 282 309 44
14060 282 191 30
14061 282 244 45
14062 282 121 30
14063 282 203 29
14064 282 52 89
14065 282 360 71
14066 282 343 40
14067 282 264 38
14068 282 261 62
14069 282 190 40
14070 282 354 15
14071 282 368 32
14072 282 151 93
14073 282 338 72
14074 282 307 81
14075 282 166 94
14076 282 278 33
14077 282 170 12
14078 282 311 62
14079 282 352 84
14080 282 4 62
14081 282 224 35
14082 282 58 13
14083 282 105 12
14084 282 83 72
14085 282 270 36
14086 282 148 24
14087 282 375 87
14088 282 174 67
14089 282 324 59
14090 282 0 97
14091 282 333 61
14092 283 390 32
14093 283 230 70
14094 283 63 23
14095 283 304 37
14096 283 93 68
14097 283 215 57
14098 283 114 58
14099 283 260 42
14100 283 175 27
14101 283 69 21
14102 283 389 4
14103 283 154 79
14104 283 338 99
14105 283 67 7
14106 283 213 2
14107 283 372 57
14108 283 129 15
14109 283 110 79
14110 283 324 60
14111 283 28 70
14112 283 131 12
14113 283 228 88
14114 283 393 38
14115 283 302 62
14116 283 399 16
14117 283 314 86
14118 283 218 69
14119 283 244 81
14120 283 322 100
14121 283 360 47
14122 283 249 5
14123 283 98 62
14124 283 264 57
14125 283 130 25
14126 283 256 40
14127 283 377 76
14128 283 255 7
14129 283 105 18
14130 283 273 88
14131 283 83 41
14132 283 109 7
14133 283 97 54
14134 283 43 21
14135 283 373 64
14136 283 177 95
14137 283 281 88
14138 283 172 26
14139 283 66 60
14140 283 220 7
14141 283 199 50
14142 283 103 68
14143 283 336 47
14144 284 39 37
14145 284 262 3
14146 284 359 43
14147 284 66 81
14148 284 15 33
14149 284 143 40
14150 284 236 90
14151 284 219 34
14152 284 83 46
14153 284 342 47
14154 284 330 27
14155 284 24 58
14156 284 344 25
14157 284 265 12
14158 284 261 27
14159 284 255 26
14160 284 395 81
14161 284 300 17
14162 284 35 18
14163 284 139 67
14164 284 40 79
14165 284 74 34
14166 284 266 11
14167 284 319 21
14168 284 370 79
14169 284 107 69
14170 284 217 96
14171 284 336 95
14172 284 184 63
14173 284 247 96
14174 284 140 53
14175 284 366 48
14176 284 324 94
14177 284 209 81
14178 284 169 32
14179 284 4 43
14180 284 188 40
14181 284 16 64
14182 284 147 36
14183 284 64 66
14184 284 333 69
14185 284 244 40
14186 284 124 90
14187 284 362 59
14188 284 11 92
14189 284 287 4
14190 284 176 99
14191 284 394 85
14192 284 17 71
14193 284 18 18
14194 284 137 12
14195 284 245 88
14196 284 84 84
14197 284 363 63
14198 284 315 61
14199 284 233 54
14200 285 253 17
14201 285 274 92
14202 285 307 23
14203 285 95 85
14204 285 379 62
14205 285 214 82
14206 285 398 12
14207 285 15 47
14208 285 33 65
14209 285 303 9
14210 285 326 85
14211 285 147 10
14212 285 355 84
14213 285 28 13
14214 285 144 97
14215 285 318 24
14216 285 258 62
14217 285 82 63
14218 285 7 9
14219 285 117 4
14220 285 96 62
14221 285 316 8
14222 285 39 76
14223 285 2 47
14224 285 182 59
14225 285 167 96
14226 285 390 14
14227 285 192 37
14228 285 309 49
14229 285 194 23
14230 285 166 65
14231 285 283 14
14232 285 392 85
14233 285 376 86
14234 285 378 10
14235 285 349 11
14236 285 40 71
14237 285 364 58
14238 285 131 87
14239 285 292 86
14240 285 11 73
14241 285 371 100
14242 285 323 51
14243 285 45 92
14244 285 108 14
14245 285 254 80
14246 285 351 96
14247 285 74 17
14248 285 228 1
14249 285 320 69
14250 285 53 88
14251 285 202 42
14252 285 329 3
14253 285 213 9
14254 285 101 6
14255 285 229 22
14256 286 310 81
14257 286 81 90
14258 286 322 53
14259 286 25 87
14260 286 300 38
14261 286 355 97
14262 286 133 27
14263 286 136 78
14264 286 83 16
14265 286 45 43
14266 286 227 56
14267 286 347 91
14268 286 281 45
14269 286 76 100
14270 286 47 7
14271 286 154 66
14272 286 388 62
14273 286 397 96
14274 286 178 8
14275 286 22 59
14276 286 35 75
14277 286 273 94
14278 286 56 63
14279 286 330 64
14280 286 112 40
14281 286 191 86
14282 286 58 65
14283 286 230 41
14284 286 153 39
14285 286 266 44
14286 286 165 2
14287 286 187 97
14288 286 377 14
14289 286 60 59
14290 286 67 6
14291 286 277 99
14292 286 228 57
14293 286 150 83
14294 286 331 83
14295 286 341 43
14296 286 125 74
14297 286 354 27
14298 286 260 38
14299 286 172 86
14300 286 221 79
14301 286 238 40
14302 286 252 84
14303 286 139 50
14304 286 296 95
14305 286 30 67
14306 286 340 20
14307 286 342 58
14308 286 55 57
14309 286 237 52
14310 286 257 47
14311 286 270 34
14312 286 65 45
14313 286 327 90
14314 286 128 13
14315 286 316 98
14316 287 323 66
14317 287 12 29
14318 287 102 5
14319 287 395 59
14320 287 399 77
14321 287 335 30
14322 287 150 49
14323 287 325 45
14324 287 83 13
14325 287 72 24
14326 287 184 89
14327 287 174 62
14328 287 98 87
14329 287 215 74
14330 287 91 96
14331 287 296 78
14332 287 389 34
14333 287 120 67
14334 287 233 43
14335 287 191 95
14336 287 313 40
14337 287 141 38
14338 287 203 56
14339 287 243 86
14340 287 305 19
14341 287 314 89
14342 287 263 88
14343 287 63 47
14344 287 128 46
14345 287 258 56
14346 287 108 85
14347 287 309 27
14348 287 382 45
14349 287 25 56
14350 287 52 42
14351 287 376 46
14352 287 232 69
14353 287 13 20
14354 287 181 37
14355 287 222 28
14356 287 315 3
14357 287 351 47
14358 287 8 23
14359 287 226 2
14360 287 41 80
14361 287 164 92
14362 287 386 51
14363 287 43 83
14364 287 338 61
14365 287 268 32
14366 287 145 31
14367 288 97 58
14368 288 175 29
14369 288 52 25
14370 288 381 67
14371 288 235 67
14372 288 109 50
14373 288 60 19
14374 288 65 11
14375 288 153 14
14376 288 108 10
14377 288 202 44
14378 288 214 48
14379 288 8 54
14380 288 37 78
14381 288 321 12
14382 288 69 44
14383 288 165 27
14384 288 25 39
14385 288 292 34
14386 288 38 34
14387 288 226 99
14388 288 251 36
14389 288 128 59
14390 288 265 3
14391 288 2 89
14392 288 15 97
14393 288 254 31
14394 288 114 26
14395 288 199 87
14396 288 72 64
14397 288 152 25
14398 288 237 2
14399 288 189 42
14400 288 229 19
14401 288 100 21
14402 288 248 18
14403 288 345 42
14404 288 296 20
14405 288 316 31
14406 288 284 39
14407 288 164 72
14408 288 0 9
14409 288 331 31
14410 288 310 43
14411 288 48 4
14412 288 31 85
14413 288 241 41
14414 288 157 53
14415 288 303 85
14416 289 61 95
14417 289 365 72
14418 289 101 98
14419 289 246 24
14420 289 95 53
14421 289 299 84
14422 289 120 25
14423 289 367 19
14424 289 174 71
14425 289 377 17
14426 289 45 100
14427 289 11 7
14428 289 385 59
14429 289 327 2
14430 289 163 51
14431 289 153 60
14432 289 273 24
14433 289 52 7
14434 289 33 86
14435 289 64 8
14436 289 59 3
14437 289 5 59
14438 289 304 71
14439 289 393 13
14440 289 369 50
14441 289 72 87
14442 289 16 16
14443 289 170 11
14444 289 244 86
14445 289 258 88
14446 289 247 4
14447 289 102 95
14448 289 217 78
14449 289 147 84
14450 289 363 39
14451 289 260 72
14452 289 23 28
14453 289 232 61
14454 289 346 2
14455 289 158 92
14456 289 190 19
14457 289 144 74
14458 289 79 41
14459 289 230 21
14460 289 347 15
14461 289 375 17
14462 289 333 23
14463 289 295 83
14464 289 24 13
14465 289 32 46
14466 289 121 78
14467 289 353 24
14468 290 88 95
14469 290 55 11
14470 290 50 36
14471 290 41 50
14472 290 235 42
14473 290 360 48
14474 290 326 68
14475 290 172 24
14476 290 97 54
14477 290 255 53
14478 290 136 21
14479 290 231 77
14480 290 272 77
14481 290 12 36
14482 290 287 58
14483 290 261 3
14484 290 301 29
14485 290 396 9
14486 290 270 30
14487 290 127 19
14488 290 243 71
14489 290 16 18
14490 290 79 82
14491 290 367 28
14492 290 170 77
14493 290 32 17
14494 290 137 35
14495 290 118 3
14496 290 42 76
14497 290 98 100
14498 290 39 66
14499 290 239 43
14500 290 20 96
14501 290 337 15
14502 290 372 33
14503 290 356 31
14504 290 304 12
14505 290 152 50
14506 290 242 34
14507 290 266 74
14508 290 142 9
14509 290 225 32
14510 290 131 100
14511 290 311 91
14512 290 178 38
14513 290 169 36
14514 291 59 2
14515 291 245 39
14516 291 212 77
14517 291 318 98
14518 291 281 49
14519 291 345 26
14520 291 178 33
14521 291 223 15
14522 291 285 92
14523 291 315 65
14524 291 221 52
14525 291 322 76
14526 291 49 95
14527 291 50 72
14528 291 300 54
14529 291 224 53
14530 291 16 64
14531 291 207 56
14532 291 220 32
14533 291 382 38
14534 291 375 35
14535 291 118 48
14536 291 259 23
14537 291 79 72
14538 291 189 7
14539 291 31 87
14540 291 301 72
14541 291 111 41
14542 291 92 57
14543 291 186 34
14544 291 140 13
14545 291 336 94
14546 291 17 21
14547 291 42 40
14548 291 232 58
14549 291 71 52
14550 291 380 67
14551 291 181 64
14552 291 182 9
14553 291 166 83
14554 291 35 27
14555 291 396 79
14556 291 82 87
14557 291 132 96
14558 291 70 13
14559 291 28 48
14560 291 29 74
14561 291 264 5
14562 291 391 92
14563 292 135 83
14564 292 248 89
14565 292 328 63
14566 292 335 50
14567 292 44 96
14568 292 28 18
14569 292 23 80
14570 292 259 81
14571 292 349 33
14572 292 151 49
14573 292 297 32
14574 292 201 56
14575 292 178 58
14576 292 89 61
14577 292 91 20
14578 292 86 59
14579 292 238 22
14580 292 233 18
14581 292 189 77
14582 292 18 23
14583 292 107 53
14584 292 197 88
14585 292 192 34
14586 292 171 79
14587 292 311 67
14588 292 46 50
14589 292 172 67
14590 292 225 28
14591 292 125 1
14592 292 149 83
14593 292 193 93
14594 292 70 65
14595 292 121 45
14596 292 39 92
14597 292 168 3
14598 292 187 49
14599 292 104 57
14600 292 376 20
14601 292 195 83
14602 292 130 5
14603 292 245 75
14604 292 246 7
14605 292 96 10
14606 292 32 11
14607 292 82 77
14608 292 53 15
14609 292 243 26
14610 292 362 91
14611 292 185 26
14612 292 11 59
14613 292 21 38
14614 292 214 25
14615 292 260 75
14616 292 393 73
14617 292 100 21
14618 292 146 94
14619 292 383 33
14620 293 313 66
14621 293 226 29
14622 293 27 1
14623 293 399 24
14624 293 111 94
14625 293 359 84
14626 293 202 13
14627 293 300 1
14628 293 375 68
14629 293 131 58
14630 293 64 67
14631 293 282 57
14632 293 48 1
14633 293 128 37
14634 293 186 34
14635 293 272 92
14636 293 84 69
14637 293 225 81
14638 293 189 48
14639 293 319 48
14640 293 273 80
14641 293 217 91
14642 293 39 55
14643 293 247 86
14644 293 171 51
14645 293 315 25
14646 293 50 32
14647 293 244 92
14648 293 297 26
14649 293 213 69
14650 293 156 63
14651 293 166 35
14652 293 116 56
14653 293 104 78
14654 293 72 100
14655 293 347 80
14656 293 219 16
14657 293 387 84
14658 293 161 74
14659 293 201 25
14660 293 124 4
14661 293 360 100
14662 293 71 28
14663 293 325 12
14664 293 26 48
14665 293 331 67
14666 293 235 40
14667 293 37 99
14668 293 105 100
14669 293 388 17
14670 293 346 44
14671 293 259 53
14672 293 381 9
14673 293 335 34
14674 293 4 20
14675 293 232 98
14676 294 178 77
14677 294 118 29
14678 294 33 71
14679 294 132 30
14680 294 42 15
14681 294 241 10
14682 294 339 41
14683 294 332 77
14684 294 321 96
14685 294 171 23
14686 294 146 36
14687 294 388 61
14688 294 191 5
14689 294 183 97
14690 294 44 12
14691 294 106 42
14692 294 275 76
14693 294 40 68
14694 294 284 7
14695 294 135 90
14696 294 209 84
14697 294 170 58
14698 294 279 24
14699 294 194 68
14700 294 282 44
14701 294 68 83
14702 294 219 86
14703 294 59 39
14704 294 288 98
14705 294 285 58
14706 294 94 67
14707 294 243 98
14708 294 112 78
14709 294 277 40
14710 294 6 10
14711 294 390 4
14712 294 306 78
14713 294 356 62
14714 294 174 64
14715 294 370 18
14716 294 23 77
14717 294 142 97
14718 294 69 61
14719 294 35 11
14720 294 287 30
14721 294 350 2
14722 294 129 94
14723 295 93 93
14724 295 227 92
14725 295 286 51
14726 295 145 84
14727 295 362 51
14728 295 287 54
14729 295 208 60
14730 295 314 89
14731 295 293 73
14732 295 265 97
14733 295 236 72
14734 295 116 84
14735 295 143 16
14736 295 316 23
14737 295 355 99
14738 295 170 54
14739 295 304 61
14740 295 277 45
14741 295 354 78
14742 295 95 77
14743 295 197 70
14744 295 205 70
14745 295 370 20
14746 295 46 87
14747 295 144 21
14748 295 173 80
14749 295 309 61
14750 295 185 81
14751 295 101 11
14752 295 280 56
14753 295 319 85
14754 295 363 95
14755 295 284 7
14756 295 42 68
14757 295 130 60
14758 295 312 58
14759 295 386 50
14760 295 213 69
14761 295 360 56
14762 295 146 44
14763 295 87 87
14764 295 1 86
14765 295 73 40
14766 295 217 65
14767 295 83 51
14768 295 276 53
14769 295 142 19
14770 295 203 78
14771 296 290 78
14772 296 351 67
14773 296 334 9
14774 296 291 66
14775 296 46 13
14776 296 276 43
14777 296 33 90
14778 296 257 71
14779 296 77 91
14780 296 323 100
14781 296 57 23
14782 296 352 49
14783 296 184 78
14784 296 292 19
14785 296 362 38
14786 296 246 28
14787 296 71 77
14788 296 386 89
14789 296 52 30
14790 296 316 41
14791 296 361 76
14792 296 68 39
14793 296 105 11
14794 296 173 7
14795 296 273 76
14796 296 213 92
14797 296 202 5
14798 296 166 68
14799 296 183 27
14800 296 177 86
14801 296 176 81
14802 296 233 61
14803 296 231 63
14804 296 358 58
14805 296 165 41
14806 296 256 42
14807 296 101 57
14808 296 365 74
14809 296 240 80
14810 296 145 84
14811 296 280 30
14812 296 271 86
14813 296 140 73
14814 296 100 98
14815 296 294 87
14816 296 393 50
14817 296 103 66
14818 296 324 29
14819 297 162 31
14820 297 265 3
14821 297 11 85
14822 297 82 93
14823 297 355 76
14824 297 164 25
14825 297 208 29
14826 297 326 46
14827 297 251 30
14828 297 0 23
14829 297 376 74
14830 297 50 82
14831 297 9 50
14832 297 248 14
14833 297 392 8
14834 297 19 73
14835 297 378 11
14836 297 234 81
14837 297 199 89
14838 297 135 85
14839 297 236 61
14840 297 254 84
14841 297 345 46
14842 297 189 86
14843 297 247 28
14844 297 39 27
14845 297 333 97
14846 297 103 63
14847 297 176 26
14848 297 13 90
14849 297 309 65
14850 297 14 92
14851 297 63 75
14852 297 334 88
14853 297 170 94
14854 297 327 75
14855 297 21 95
14856 297 286 30
14857 297 117 1
14858 297 365 84
14859 297 28 67
14860 297 295 23
14861 297 136 64
14862 297 302 54
14863 297 106 35
14864 298 2 93
14865 298 256 9
14866 298 91 24
14867 298 268 64
14868 298 60 61
14869 298 175 66
14870 298 28 93
14871 298 161 82
14872 298 179 9
14873 298 111 89
14874 298 267 41
14875 298 173 85
14876 298 273 59
14877 298 335 91
14878 298 291 45
14879 298 217 76
14880 298 183 23
14881 298 320 8
14882 298 300 73
14883 298 311 66
14884 298 42 43
14885 298 40 81
14886 298 354 21
14887 298 110 8
14888 298 107 24
14889 298 202 64
14890 298 270 79
14891 298 254 2
14892 298 97 23
14893 298 49 26
14894 298 30 17
14895 298 385 74
14896 298 362 99
14897 298 367 49
14898 298 6 14
14899 298 310 19
14900 298 348 42
14901 298 228 11
14902 298 189 6
14903 298 234 32
14904 298 357 10
14905 298 274 53
14906 298 79 59
14907 298 249 4
14908 298 0 70
14909 298 19 53
14910 298 334 16
14911 298 148 95
14912 298 34 67
14913 298 365 77
14914 298 150 7
14915 298 114 61
14916 298 21 84
14917 299 300 72
14918 299 147 60
14919 299 125 59
14920 299 291 14
14921 299 184 75
14922 299 139 82
14923 299 157 70
14924 299 264 41
14925 299 360 70
14926 299 241 69
14927 299 233 97
14928 299 153 55
14929 299 98 84
14930 299 124 55
14931 299 391 10
14932 299 77 48
14933 299 218 98
14934 299 223 100
14935 299 312 94
14936 299 219 33
14937 299 27 47
14938 299 377 46
14939 299 43 5
14940 299 210 41
14941 299 242 80
14942 299 395 42
14943 299 380 41
14944 299 143 97
14945 299 325 4
14946 299 335 12
14947 299 162 59
14948 299 281 56
14949 299 373 41
14950 299 193 64
14951 299 67 66
14952 299 251 89
14953 299 2 38
14954 299 54 82
14955 299 260 78
14956 299 283 50
14957 299 13 98
14958 299 209 87
14959 299 214 76
14960 299 258 75
14961 299 113 58
14962 299 107 75
14963 299 386 82
14964 299 102 29
14965 299 359 94
14966 299 322 50
14967 300 40 66
14968 300 348 63
14969 300 30 22
14970 300 229 66
14971 300 395 59
14972 300 131 68
14973 300 386 82
14974 300 264 65
14975 300 196 59
14976 300 226 35
14977 300 137 49
14978 300 94 38
14979 300 193 99
14980 300 20 32
14981 300 357 86
14982 300 29 97
14983 300 254 3
14984 300 259 64
14985 300 101 11
14986 300 117 94
14987 300 283 70
14988 300 86 73
14989 300 381 34
14990 300 335 1
14991 300 347 43
14992 300 13 56
14993 300 361 62
14994 300 212 53
14995 300 303 34
14996 300 385 62
14997 300 354 59
14998 300 225 9
14999 300 349 99
15000 300 152 73
15001 300 255 53
15002 300 75 12
15003 300 174 41
15004 300 376 9
15005 300 368 30
15006 300 45 99
15007 300 83 28
15008 300 63 47
15009 300 54 79
15010 300 115 35
15011 300 302 51
15012 300 160 63
15013 300 186 48
15014 300 379 52
15015 300 274 86
15016 300 248 22
15017 300 176 46
15018 300 47 43
15019 301 147 19
15020 301 266 99
15021 301 319 68
15022 301 341 96
15023 301 270 62
15024 301 165 42
15025 301 168 24
15026 301 112 87
15027 301 198 67
15028 301 44 64
15029 301 128 66
15030 301 221 62
15031 301 22 36
15032 301 229 61
15033 301 59 25
15034 301 376 20
15035 301 183 49
15036 301 174 34
15037 301 133 26
15038 301 292 46
15039 301 223 30
15040 301 77 39
15041 301 268 63
15042 301 224 11
15043 301 156 96
15044 301 378 31
15045 301 60 62
15046 301 49 88
15047 301 390 78
15048 301 269 12
15049 301 317 83
15050 301 371 42
15051 301 108 16
15052 301 230 86
15053 301 53 13
15054 301 219 24
15055 301 184 40
15056 301 373 52
15057 301 152 29
15058 301 205 45
15059 301 346 89
15060 301 215 30
15061 301 75 13
15062 301 369 33
15063 301 61 91
15064 302 171 93
15065 302 252 64
15066 302 395 8
15067 302 98 88
15068 302 363 37
15069 302 138 24
15070 302 399 83
15071 302 154 38
15072 302 191 73
15073 302 190 79
15074 302 32 98
15075 302 255 25
15076 302 146 11
15077 302 3 62
15078 302 74 69
15079 302 39 8
15080 302 92 1
15081 302 217 14
15082 302 47 29
15083 302 25 27
15084 302 160 66
15085 302 16 11
15086 302 65 47
15087 302 283 78
15088 302 167 10
15089 302 158 4
15090 302 230 55
15091 302 153 54
15092 302 352 70
15093 302 240 40
15094 302 235 37
15095 302 244 90
15096 302 112 69
15097 302 199 10
15098 302 213 16
15099 302 85 57
15100 302 276 79
15101 302 269 9
15102 302 391 58
15103 302 132 17
15104 302 286 5
15105 302 221 23
15106 302 275 76
15107 302 93 18
15108 302 152 63
15109 302 41 81
15110 302 356 87
15111 302 304 46
15112 302 285 75
15113 302 376 53
15114 303 316 6
15115 303 66 17
15116 303 258 37
15117 303 184 47
15118 303 289 8
15119 303 280 30
15120 303 307 81
15121 303 323 65
15122 303 194 78
15123 303 128 95
15124 303 226 100
15125 303 309 46
15126 303 110 24
15127 303 302 6
15128 303 45 57
15129 303 148 93
15130 303 313 66
15131 303 138 9
15132 303 53 17
15133 303 340 54
15134 303 13 95
15135 303 170 36
15136 303 51 30
15137 303 358 26
15138 303 169 47
15139 303 376 62
15140 303 222 8
15141 303 81 42
15142 303 269 13
15143 303 339 72
15144 303 156 79
15145 303 168 11
15146 303 270 42
15147 303 141 94
15148 303 304 60
15149 303 162 99
15150 303 202 74
15151 303 61 22
15152 303 97 32
15153 303 176 16
15154 303 145 96
15155 303 82 75
15156 303 17 31
15157 303 225 61
15158 303 113 94
15159 303 71 24
15160 303 27 76
15161 303 1 3
15162 303 255 59
15163 303 393 6
15164 303 91 48
15165 303 334 72
15166 303 200 10
15167 303 260 5
15168 303 224 85
15169 303 140 4
15170 303 84 55
15171 303 80 81
15172 303 135 39
15173 304 217 10
15174 304 181 94
15175 304 34 71
15176 304 326 48
15177 304 311 89
15178 304 193 74
15179 304 31 2
15180 304 349 94
15181 304 340 96
15182 304 75 88
15183 304 71 29
15184 304 267 99
15185 304 312 89
15186 304 362 88
15187 304 388 28
15188 304 83 21
15189 304 52 6
15190 304 333 24
15191 304 100 26
15192 304 318 61
15193 304 232 68
15194 304 348 55
15195 304 1 32
15196 304 393 1
15197 304 123 15
15198 304 40 38
15199 304 263 23
15200 304 198 96
15201 304 236 10
15202 304 257 81
15203 304 173 13
15204 304 98 62
15205 304 145 62
15206 304 23 91
15207 304 26 28
15208 304 184 35
15209 304 235 89
15210 304 372 69
15211 304 86 81
15212 304 175 65
15213 304 357 84
15214 304 329 34
15215 304 13 95
15216 304 266 80
15217 304 188 43
15218 304 399 35
15219 304 122 3
15220 304 245 78
15221 304 168 66
15222 304 321 1
15223 304 7 63
15224 304 101 14
15225 304 64 44
15226 305 279 22
15227 305 143 36
15228 305 387 9
15229 305 136 2
15230 305 374 48
15231 305 342 7
15232 305 202 33
15233 305 230 57
15234 305 47 83
15235 305 267 35
15236 305 62 38
15237 305 224 99
15238 305 390 83
15239 305 362 15
15240 305 261 1
15241 305 370 59
15242 305 145 89
15243 305 343 44
15244 305 332 2
15245 305 30 73
15246 305 274 85
15247 305 354 17
15248 305 43 2
15249 305 31 53
15250 305 356 66
15251 305 243 49
15252 305 106 7
15253 305 32 58
15254 305 270 48
15255 305 254 20
15256 305 104 57
15257 305 294 60
15258 305 113 82
15259 305 151 81
15260 305 22 50
15261 305 271 18
15262 305 170 4
15263 305 118 8
15264 305 11 73
15265 305 95 5
15266 305 86 8
15267 305 97 32
15268 305 88 50
15269 305 119 55
15270 305 2 70
15271 305 288 85
15272 305 240 7
15273 305 259 24
15274 305 73 61
15275 305 287 97
15276 305 41 34
15277 305 368 82
15278 305 296 50
15279 305 128 36
15280 305 228 38
15281 305 378 74
15282 305 83 10
15283 305 324 68
15284 305 396 64
15285 306 297 55
15286 306 5 19
15287 306 368 60
15288 306 352 47
15289 306 70 99
15290 306 239 56
15291 306 144 13
15292 306 111 91
15293 306 215 98
15294 306 143 82
15295 306 267 72
15296 306 52 28
15297 306 319 67
15298 306 33 33
15299 306 264 34
15300 306 211 94
15301 306 238 49
15302 306 317 31
15303 306 246 61
15304 306 370 54
15305 306 374 49
15306 306 213 70
15307 306 308 69
15308 306 343 97
15309 306 336 50
15310 306 383 28
15311 306 101 80
15312 306 31 16
15313 306 228 11
15314 306 138 23
15315 306 160 16
15316 306 312 33
15317 306 257 84
15318 306 299 83
15319 306 322 38
15320 306 34 59
15321 306 225 59
15322 306 85 48
15323 306 59 21
15324 306 277 85
15325 306 272 8
15326 306 178 37
15327 306 202 60
15328 306 278 85
15329 306 250 39
15330 306 38 94
15331 306 390 59
15332 307 5 7
15333 307 190 30
15334 307 327 24
15335 307 286 37
15336 307 352 17
15337 307 171 55
15338 307 123 37
15339 307 236 92
15340 307 220 87
15341 307 115 36
15342 307 71 93
15343 307 323 67
15344 307 241 64
15345 307 381 83
15346 307 188 55
15347 307 57 99
15348 307 338 87
15349 307 262 73
15350 307 285 91
15351 307 252 49
15352 307 246 36
15353 307 385 62
15354 307 187 53
15355 307 22 71
15356 307 362 28
15357 307 26 51
15358 307 63 18
15359 307 384 54
15360 307 269 100
15361 307 212 39
15362 307 222 11
15363 307 328 99
15364 307 133 40
15365 307 210 9
15366 307 378 23
15367 307 145 34
15368 307 185 56
15369 307 249 58
15370 307 114 49
15371 307 121 87
15372 307 143 44
15373 307 95 32
15374 307 61 45
15375 307 271 69
15376 307 317 76
15377 307 386 27
15378 307 278 68
15379 307 350 76
15380 307 148 80
15381 307 354 2
15382 307 6 91
15383 308 351 20
15384 308 182 48
15385 308 234 91
15386 308 366 94
15387 308 393 36
15388 308 53 8
15389 308 271 36
15390 308 398 27
15391 308 230 63
15392 308 244 71
15393 308 380 90
15394 308 312 74
15395 308 88 100
15396 308 298 40
15397 308 40 24
15398 308 313 1
15399 308 126 57
15400 308 320 52
15401 308 367 6
15402 308 94 34
15403 308 265 80
15404 308 181 59
15405 308 92 67
15406 308 201 86
15407 308 225 26
15408 308 121 52
15409 308 276 19
15410 308 35 50
15411 308 141 62
15412 308 352 35
15413 308 315 82
15414 308 249 47
15415 308 162 95
15416 308 80 47
15417 308 390 99
15418 308 269 88
15419 308 240 26
15420 308 375 50
15421 308 285 32
15422 308 205 89
15423 308 385 16
15424 308 341 65
15425 308 147 19
15426 308 307 87
15427 308 140 34
15428 308 345 18
15429 308 354 45
15430 308 371 98
15431 308 44 97
15432 308 137 68
15433 308 57 85
15434 308 329 7
15435 308 287 95
15436 309 232 47
15437 309 73 43
15438 309 191 19
15439 309 303 55
15440 309 68 94
15441 309 157 10
15442 309 10 12
15443 309 127 33
15444 309 169 26
15445 309 239 96
15446 309 338 97
15447 309 178 29
15448 309 107 77
15449 309 125 61
15450 309 23 22
15451 309 264 41
15452 309 174 48
15453 309 317 22
15454 309 223 85
15455 309 379 79
15456 309 273 5
15457 309 111 52
15458 309 118 3
15459 309 179 50
15460 309 31 80
15461 309 18 61
15462 309 335 87
15463 309 385 83
15464 309 132 89
15465 309 203 18
15466 309 64 42
15467 309 54 69
15468 309 91 19
15469 309 141 60
15470 309 344 30
15471 309 247 33
15472 309 176 4
15473 309 399 6
15474 309 190 79
15475 309 354 48
15476 309 319 45
15477 309 272 10
15478 309 150 48
15479 309 270 8
15480 309 209 77
15481 309 211 13
15482 309 193 28
15483 309 396 98
15484 309 13 14
15485 309 240 70
15486 309 58 17
15487 309 94 2
15488 309 53 68
15489 309 82 10
15490 309 84 97
15491 309 246 25
15492 309 100 69
15493 309 72 82
15494 310 194 4
15495 310 114 43
15496 310 94 36
15497 310 387 50
15498 310 266 44
15499 310 99 36
15500 310 193 19
15501 310 1 24
15502 310 49 55
15503 310 72 77
15504 310 353 45
15505 310 125 60
15506 310 306 42
15507 310 278 56
15508 310 40 88
15509 310 150 96
15510 310 238 42
15511 310 81 62
15512 310 340 43
15513 310 239 73
15514 310 189 50
15515 310 46 36
15516 310 51 75
15517 310 199 41
15518 310 389 92
15519 310 6 6
15520 310 287 10
15521 310 252 69
15522 310 4 43
15523 310 228 100
15524 310 151 32
15525 310 342 94
15526 310 106 68
15527 310 155 62
15528 310 264 27
15529 310 202 62
15530 310 111 50
15531 310 343 28
15532 310 212 59
15533 310 248 79
15534 310 105 64
15535 310 75 42
15536 310 241 66
15537 310 346 59
15538 310 31 27
15539 310 136 92
15540 310 334 46
15541 310 360 21
15542 310 390 60
15543 310 272 78
15544 310 195 38
15545 310 192 8
15546 310 103 78
15547 310 2 92
15548 310 115 63
15549 310 129 84
15550 310 41 4
15551 311 258 79
15552 311 15 3
15553 311 159 70
15554 311 19 28
15555 311 26 49
15556 311 23 22
15557 311 331 97
15558 311 161 63
15559 311 54 48
15560 311 28 38
15561 311 153 26
15562 311 345 38
15563 311 308 47
15564 311 278 32
15565 311 378 78
15566 311 364 59
15567 311 232 21
15568 311 24 58
15569 311 240 63
15570 311 303 80
15571 311 342 93
15572 311 254 73
15573 311 148 47
15574 311 260 70
15575 311 389 69
15576 311 261 32
15577 311 220 31
15578 311 58 88
15579 311 186 57
15580 311 88 22
15581 311 173 51
15582 311 6 12
15583 311 392 74
15584 311 183 35
15585 311 50 51
15586 311 390 76
15587 311 142 100
15588 311 266 61
15589 311 197 71
15590 311 89 13
15591 311 299 99
15592 311 271 99
15593 311 41 38
15594 311 69 49
15595 312 124 32
15596 312 6 58
15597 312 173 6
15598 312 207 59
15599 312 239 92
15600 312 326 86
15601 312 335 29
15602 312 338 9
15603 312 41 48
15604 312 23 4
15605 312 307 52
15606 312 172 14
15607 312 260 65
15608 312 69 18
15609 312 36 2
15610 312 356 100
15611 312 176 76
15612 312 189 8
15613 312 329 69
15614 312 127 76
15615 312 141 17
15616 312 178 33
15617 312 202 20
15618 312 15 59
15619 312 143 64
15620 312 337 60
15621 312 350 71
15622 312 272 84
15623 312 386 11
15624 312 7 14
15625 312 213 60
15626 312 233 25
15627 312 113 89
15628 312 236 64
15629 312 110 10
15630 312 256 90
15631 312 393 98
15632 312 330 90
15633 312 13 88
15634 312 193 24
15635 312 191 29
15636 312 186 69
15637 312 47 85
15638 312 361 31
15639 312 66 75
15640 312 321 14
15641 313 153 66
15642 313 217 1
15643 313 288 67
15644 313 83 8
15645 313 51 35
15646 313 35 52
15647 313 169 13
15648 313 299 80
15649 313 52 81
15650 313 199 75
15651 313 268 7
15652 313 86 43
15653 313 17 92
15654 313 338 81
15655 313 53 8
15656 313 327 45
15657 313 126 27
15658 313 236 94
15659 313 3 56
15660 313 311 51
15661 313 151 40
15662 313 27 24
15663 313 91 57
15664 313 25 92
15665 313 102 63
15666 313 349 36
15667 313 376 88
15668 313 331 21
15669 313 100 10
15670 313 163 45
15671 313 253 82
15672 313 46 17
15673 313 138 20
15674 313 346 75
15675 313 267 76
15676 313 230 43
15677 313 106 59
15678 313 77 21
15679 313 26 9
15680 313 394 100
15681 313 211 52
15682 313 71 7
15683 313 168 11
15684 313 28 66
15685 313 254 8
15686 313 13 22
15687 313 11 13
15688 313 321 14
15689 313 371 69
15690 313 37 86
15691 313 194 16
15692 313 141 29
15693 314 269 42
15694 314 13 37
15695 314 153 95
15696 314 11 65
15697 314 250 100
15698 314 279 19
15699 314 49 84
15700 314 172 27
15701 314 394 94
15702 314 197 53
15703 314 315 93
15704 314 219 28
15705 314 264 7
15706 314 18 88
15707 314 225 13
15708 314 245 98
15709 314 253 74
15710 314 201 52
15711 314 1 33
15712 314 299 19
15713 314 236 45
15714 314 90 79
15715 314 200 66
15716 314 134 29
15717 314 12 77
15718 314 177 40
15719 314 192 22
15720 314 183 64
15721 314 364 61
15722 314 334 42
15723 314 70 49
15724 314 138 26
15725 314 268 90
15726 314 340 62
15727 314 349 44
15728 314 30 38
15729 314 226 6
15730 314 141 56
15731 314 189 67
15732 314 375 17
15733 314 211 36
15734 314 107 54
15735 314 360 32
15736 314 369 33
15737 314 36 48
15738 314 26 40
15739 314 99 41
15740 314 190 53
15741 314 80 41
15742 315 250 11
15743 315 286 39
15744 315 322 56
15745 315 248 66
15746 315 292 19
15747 315 277 78
15748 315 108 66
15749 315 150 71
15750 315 178 51
15751 315 313 43
15752 315 117 68
15753 315 368 45
15754 315 306 89
15755 315 223 32
15756 315 154 26
15757 315 238 93
15758 315 345 35
15759 315 350 39
15760 315 310 93
15761 315 389 84
15762 315 332 13
15763 315 362 24
15764 315 18 44
15765 315 51 64
15766 315 49 59
15767 315 188 80
15768 315 255 16
15769 315 224 13
15770 315 62 73
15771 315 231 95
15772 315 144 75
15773 315 34 28
15774 315 210 57
15775 315 148 92
15776 315 193 3
15777 315 331 69
15778 315 267 87
15779 315 4 52
15780 315 283 34
15781 315 73 84
15782 315 185 8
15783 315 252 23
15784 315 78 93
15785 315 386 97
15786 315 282 43
15787 315 390 73
15788 316 193 57
15789 316 0 61
15790 316 350 7
15791 316 151 56
15792 316 157 44
15793 316 120 1
15794 316 242 69
15795 316 221 42
15796 316 126 73
15797 316 325 85
15798 316 306 71
15799 316 84 89
15800 316 123 41
15801 316 2 88
15802 316 45 79
15803 316 209 40
15804 316 199 12
15805 316 11 72
15806 316 345 11
15807 316 139 34
15808 316 197 91
15809 316 382 42
15810 316 132 17
15811 316 266 64
15812 316 27 30
15813 316 101 94
15814 316 168 10
15815 316 29 71
15816 316 396 24
15817 316 32 91
15818 316 290 88
15819 316 59 38
15820 316 373 25
15821 316 346 68
15822 316 52 29
15823 317 381 82
15824 317 110 36
15825 317 268 46
15826 317 99 33
15827 317 346 17
15828 317 252 13
15829 317 148 11
15830 317 83 55
15831 317 28 36
15832 317 204 34
15833 317 224 54
15834 317 259 69
15835 317 181 13
15836 317 104 88
15837 317 20 54
15838 317 40 23
15839 317 374 50
15840 317 18 30
15841 317 115 29
15842 317 4 76
15843 317 335 88
15844 317 3 9
15845 317 21 88
15846 317 287 18
15847 317 373 52
15848 317 262 44
15849 317 53 59
15850 317 80 67
15851 317 100 44
15852 317 101 19
15853 317 201 44
15854 317 203 26
15855 317 159 83
15856 317 68 15
15857 317 383 21
15858 317 369 98
15859 317 309 40
15860 317 389 1
15861 317 267 13
15862 317 45 12
15863 317 162 16
15864 318 328 64
15865 318 289 16
15866 318 274 37
15867 318 210 65
15868 318 130 62
15869 318 85 19
15870 318 253 80
15871 318 252 20
15872 318 280 57
15873 318 147 88
15874 318 163 56
15875 318 260 10
15876 318 99 68
15877 318 394 77
15878 318 387 30
15879 318 29 57
15880 318 215 62
15881 318 395 41
15882 318 51 80
15883 318 26 65
15884 318 14 66
15885 318 59 52
15886 318 370 40
15887 318 0 17
15888 318 120 22
15889 318 247 32
15890 318 154 15
15891 318 173 18
15892 318 250 97
15893 318 278 79
15894 318 305 73
15895 318 375 74
15896 318 172 25
15897 319 112 53
15898 319 201 58
15899 319 249 45
15900 319 58 53
15901 319 227 86
15902 319 130 78
15903 319 148 91
15904 319 12 92
15905 319 90 57
15906 319 139 26
15907 319 25 14
15908 319 298 50
15909 319 145 28
15910 319 259 59
15911 319 169 76
15912 319 282 14
15913 319 189 34
15914 319 262 7
15915 319 229 15
15916 319 184 23
15917 319 345 57
15918 319 255 65
15919 319 295 36
15920 319 69 98
15921 319 170 14
15922 319 370 5
15923 319 247 91
15924 319 374 40
15925 319 279 52
15926 319 333 60
15927 319 101 84
15928 319 126 83
15929 319 7 79
15930 319 160 43
15931 319 99 47
15932 319 226 54
15933 319 102 97
15934 319 386 27
15935 319 251 12
15936 319 303 28
15937 319 183 45
15938 319 288 9
15939 319 19 77
15940 319 254 9
15941 319 28 30
15942 319 302 18
15943 319 140 30
15944 319 316 49
15945 319 46 33
15946 319 136 22
15947 320 273 7
15948 320 244 81
15949 320 348 59
15950 320 56 84
15951 320 181 20
15952 320 111 37
15953 320 333 6
15954 320 267 81
15955 320 388 52
15956 320 365 34
15957 320 254 73
15958 320 67 98
15959 320 146 59
15960 320 326 52
15961 320 23 34
15962 320 208 100
15963 320 214 61
15964 320 330 62
15965 320 72 30
15966 320 81 82
15967 320 107 16
15968 320 42 16
15969 320 61 58
15970 320 31 12
15971 320 345 22
15972 320 303 44
15973 320 118 11
15974 320 382 83
15975 320 60 67
15976 320 193 15
15977 320 190 86
15978 320 258 14
15979 320 80 77
15980 320 251 76
15981 320 151 72
15982 320 265 66
15983 320 379 80
15984 320 188 58
15985 320 385 96
15986 320 222 56
15987 320 22 70
15988 320 346 78
15989 320 35 83
15990 320 140 87
15991 320 28 76
15992 320 46 14
15993 320 266 70
15994 320 364 50
15995 320 4 18
15996 321 306 93
15997 321 391 39
15998 321 265 31
15999 321 110 12
16000 321 119 25
16001 321 397 66
16002 321 253 84
16003 321 214 58
16004 321 97 22
16005 321 83 13
16006 321 358 49
16007 321 236 61
16008 321 35 59
16009 321 362 16
16010 321 314 42
16011 321 132 90
16012 321 53 7
16013 321 376 90
16014 321 40 1
16015 321 171 77
16016 321 121 20
16017 321 366 87
16018 321 162 12
16019 321 125 9
16020 321 122 2
16021 321 20 10
16022 321 103 74
16023 321 181 26
16024 321 260 85
16025 321 167 72
16026 321 130 27
16027 321 47 79
16028 321 96 36
16029 321 3 83
16030 321 242 33
16031 321 283 24
16032 321 143 26
16033 321 282 87
16034 321 165 68
16035 321 382 80
16036 321 319 53
16037 321 357 97
16038 321 1 61
16039 321 218 14
16040 321 178 33
16041 322 161 19
16042 322 210 43
16043 322 97 40
16044 322 285 64
16045 322 300 7
16046 322 220 84
16047 322 255 77
16048 322 24 49
16049 322 359 60
16050 322 304 50
16051 322 388 8
16052 322 380 72
16053 322 20 68
16054 322 118 50
16055 322 79 69
16056 322 239 4
16057 322 124 14
16058 322 341 82
16059 322 107 9
16060 322 46 100
16061 322 374 3
16062 322 398 58
16063 322 325 31
16064 322 156 60
16065 322 6 96
16066 322 296 75
16067 322 328 79
16068 322 352 51
16069 322 310 35
16070 322 379 76
16071 322 50 9
16072 322 62 21
16073 322 153 33
16074 322 168 43
16075 322 291 96
16076 322 308 80
16077 322 135 52
16078 322 144 89
16079 322 338 72
16080 322 102 80
16081 322 206 72
16082 322 270 22
16083 322 19 99
16084 322 28 68
16085 322 23 54
16086 322 146 21
16087 322 123 69
16088 323 61 60
16089 323 26 76
16090 323 220 48
16091 323 293 51
16092 323 354 31
16093 323 197 99
16094 323 145 17
16095 323 79 80
16096 323 382 32
16097 323 80 73
16098 323 172 74
16099 323 330 2
16100 323 93 44
16101 323 278 76
16102 323 305 68
16103 323 222 9
16104 323 320 18
16105 323 166 10
16106 323 156 85
16107 323 329 15
16108 323 351 38
16109 323 227 77
16110 323 315 17
16111 323 392 94
16112 323 341 24
16113 323 20 36
16114 323 332 20
16115 323 300 80
16116 323 326 93
16117 323 303 80
16118 323 216 67
16119 323 84 12
16120 323 284 11
16121 323 217 73
16122 323 18 81
16123 323 280 35
16124 323 228 38
16125 323 184 11
16126 323 195 22
16127 323 181 87
16128 323 198 66
16129 323 264 95
16130 323 89 38
16131 323 149 60
16132 323 189 22
16133 323 36 1
16134 323 40 55
16135 323 251 19
16136 323 261 3
16137 323 82 37
16138 323 237 85
16139 323 258 22
16140 324 163 46
16141 324 21 12
16142 324 172 93
16143 324 10 62
16144 324 384 38
16145 324 252 35
16146 324 202 35
16147 324 41 90
16148 324 277 49
16149 324 383 31
16150 324 12 55
16151 324 352 67
16152 324 306 82
16153 324 23 76
16154 324 302 23
16155 324 168 34
16156 324 81 95
16157 324 330 40
16158 324 308 43
16159 324 346 21
16160 324 135 53
16161 324 367 64
16162 324 54 65
16163 324 118 72
16164 324 100 74
16165 324 354 45
16166 324 76 44
16167 324 47 29
16168 324 270 89
16169 324 18 67
16170 324 189 29
16171 324 70 30
16172 324 265 40
16173 324 124 24
16174 324 44 21
16175 324 27 44
16176 324 86 31
16177 324 16 23
16178 324 65 8
16179 324 329 35
16180 324 347 9
16181 324 74 63
16182 324 325 69
16183 324 224 66
16184 324 397 12
16185 324 316 2
16186 324 314 47
16187 324 174 93
16188 324 326 24
16189 324 241 39
16190 324 208 74
16191 325 88 1
16192 325 134 35
16193 325 173 28
16194 325 206 85
16195 325 291 75
16196 325 121 38
16197 325 239 62
16198 325 299 77
16199 325 3 73
16200 325 368 69
16201 325 125 22
16202 325 288 71
16203 325 219 72
16204 325 395 49
16205 325 47 69
16206 325 271 83
16207 325 234 40
16208 325 191 45
16209 325 64 63
16210 325 312 65
16211 325 110 92
16212 325 158 61
16213 325 137 100
16214 325 209 35
16215 325 311 23
16216 325 204 99
16217 325 221 81
16218 325 316 97
16219 325 82 76
16220 325 151 94
16221 325 227 70
16222 325 245 3
16223 325 83 15
16224 325 144 88
16225 325 273 33
16226 325 257 71
16227 325 166 99
16228 325 34 13
16229 325 135 26
16230 325 233 61
16231 325 285 20
16232 325 397 80
16233 326 87 27
16234 326 53 89
16235 326 9 20
16236 326 371 73
16237 326 294 6
16238 326 152 6
16239 326 155 84
16240 326 353 62
16241 326 174 18
16242 326 12 14
16243 326 298 27
16244 326 287 57
16245 326 99 66
16246 326 3 99
16247 326 43 64
16248 326 332 5
16249 326 96 86
16250 326 359 25
16251 326 244 16
16252 326 335 26
16253 326 320 78
16254 326 317 95
16255 326 217 85
16256 326 394 65
16257 326 122 16
16258 326 307 52
16259 326 39 64
16260 326 140 29
16261 326 391 34
16262 326 234 32
16263 326 159 98
16264 326 211 45
16265 326 19 91
16266 326 59 82
16267 326 171 100
16268 326 0 95
16269 326 305 11
16270 326 198 72
16271 326 177 6
16272 326 58 95
16273 326 4 38
16274 326 105 99
16275 326 112 90
16276 326 179 35
16277 326 117 67
16278 326 390 64
16279 326 300 34
16280 326 222 16
16281 326 221 99
16282 326 28 68
16283 326 138 100
16284 326 295 56
16285 326 55 88
16286 326 372 41
16287 326 334 21
16288 326 212 5
16289 326 310 65
16290 326 206 86
16291 326 52 27
16292 327 332 44
16293 327 250 71
16294 327 156 96
16295 327 359 11
16296 327 233 85
16297 327 296 79
16298 327 369 24
16299 327 140 17
16300 327 146 24
16301 327 315 51
16302 327 48 87
16303 327 354 72
16304 327 394 67
16305 327 383 4
16306 327 261 67
16307 327 92 34
16308 327 231 69
16309 327 87 36
16310 327 351 1
16311 327 274 44
16312 327 28 49
16313 327 370 3
16314 327 56 51
16315 327 117 67
16316 327 272 50
16317 327 347 34
16318 327 81 100
16319 327 371 23
16320 327 129 30
16321 327 74 40
16322 327 65 81
16323 327 108 66
16324 327 212 93
16325 327 322 77
16326 327 168 87
16327 327 181 96
16328 327 188 93
16329 327 0 19
16330 327 98 100
16331 327 226 31
16332 327 285 26
16333 327 145 96
16334 327 41 41
16335 327 27 67
16336 327 397 51
16337 327 263 51
16338 327 138 85
16339 327 241 54
16340 327 107 37
16341 327 378 34
16342 327 323 26
16343 327 313 16
16344 327 190 37
16345 327 167 10
16346 327 291 66
16347 327 58 13
16348 327 90 74
16349 327 298 42
16350 327 89 94
16351 328 46 71
16352 328 91 77
16353 328 112 56
16354 328 340 50
16355 328 217 63
16356 328 287 49
16357 328 259 52
16358 328 203 87
16359 328 12 54
16360 328 396 36
16361 328 245 15
16362 328 391 30
16363 328 235 53
16364 328 120 61
16365 328 264 63
16366 328 22 97
16367 328 17 18
16368 328 373 54
16369 328 121 90
16370 328 325 69
16371 328 392 21
16372 328 163 73
16373 328 67 29
16374 328 362 83
16375 328 106 100
16376 328 16 29
16377 328 35 63
16378 328 55 17
16379 328 142 100
16380 328 88 98
16381 328 18 35
16382 328 114 6
16383 328 147 83
16384 328 294 88
16385 328 382 49
16386 328 379 42
16387 328 218 89
16388 328 265 96
16389 328 111 45
16390 328 268 79
16391 328 276 52
16392 328 248 95
16393 328 66 63
16394 328 216 17
16395 328 387 58
16396 328 53 52
16397 328 358 74
16398 328 349 11
16399 328 309 76
16400 329 358 23
16401 329 148 17
16402 329 274 76
16403 329 221 78
16404 329 282 46
16405 329 374 34
16406 329 32 23
16407 329 82 72
16408 329 399 5
16409 329 373 76
16410 329 145 66
16411 329 37 67
16412 329 308 31
16413 329 84 60
16414 329 43 76
16415 329 155 64
16416 329 344 67
16417 329 173 95
16418 329 112 44
16419 329 369 35
16420 329 259 45
16421 329 302 88
16422 329 172 47
16423 329 202 3
16424 329 24 78
16425 329 176 21
16426 329 350 21
16427 329 140 26
16428 329 208 5
16429 329 382 82
16430 329 136 49
16431 329 48 32
16432 329 126 54
16433 329 361 5
16434 329 322 39
16435 329 186 13
16436 329 52 99
16437 329 72 89
16438 329 162 38
16439 329 194 39
16440 329 375 75
16441 329 278 82
16442 329 236 22
16443 329 94 95
16444 329 180 6
16445 329 71 5
16446 329 323 39
16447 329 223 30
16448 329 234 95
16449 329 225 46
16450 329 371 62
16451 330 171 30
16452 330 300 73
16453 330 82 21
16454 330 301 82
16455 330 31 43
16456 330 231 29
16457 330 207 90
16458 330 317 55
16459 330 195 83
16460 330 150 83
16461 330 168 28
16462 330 129 76
16463 330 22 23
16464 330 66 21
16465 330 353 67
16466 330 125 55
16467 330 69 24
16468 330 352 71
16469 330 397 70
16470 330 338 42
16471 330 107 69
16472 330 55 43
16473 330 67 29
16474 330 68 35
16475 330 287 78
16476 330 48 91
16477 330 52 39
16478 330 326 66
16479 330 370 99
16480 330 312 36
16481 330 368 12
16482 330 96 25
16483 330 354 41
16484 330 240 19
16485 330 297 76
16486 330 4 56
16487 330 322 54
16488 330 307 36
16489 330 64 84
16490 330 305 11
16491 330 130 37
16492 330 260 49
16493 330 331 60
16494 330 251 40
16495 330 374 14
16496 330 249 13
16497 330 269 70
16498 330 395 10
16499 331 248 99
16500 331 372 87
16501 331 379 46
16502 331 98 50
16503 331 224 71
16504 331 114 52
16505 331 311 15
16506 331 88 42
16507 331 40 85
16508 331 256 27
16509 331 323 40
16510 331 186 84
16511 331 216 33
16512 331 47 84
16513 331 72 89
16514 331 196 16
16515 331 110 94
16516 331 197 94
16517 331 20 39
16518 331 214 31
16519 331 261 78
16520 331 183 79
16521 331 348 57
16522 331 345 17
16523 331 288 79
16524 331 225 28
16525 331 50 41
16526 331 83 49
16527 331 270 57
16528 331 325 56
16529 331 79 70
16530 331 145 36
16531 331 69 6
16532 331 188 27
16533 331 58 96
16534 331 254 86
16535 331 80 97
16536 331 230 62
16537 331 26 11
16538 331 70 35
16539 331 177 11
16540 331 157 90
16541 331 199 91
16542 331 0 83
16543 331 267 94
16544 331 73 64
16545 331 220 73
16546 331 250 89
16547 331 279 3
16548 331 202 64
16549 331 286 25
16550 331 233 34
16551 331 116 65
16552 331 239 51
16553 331 103 19
16554 331 68 29
16555 331 392 26
16556 332 342 88
16557 332 176 70
16558 332 130 67
16559 332 44 69
16560 332 23 95
16561 332 180 64
16562 332 52 6
16563 332 274 39
16564 332 339 8
16565 332 148 56
16566 332 118 9
16567 332 178 3
16568 332 248 89
16569 332 280 21
16570 332 308 78
16571 332 159 93
16572 332 250 70
16573 332 227 23
16574 332 64 9
16575 332 87 63
16576 332 134 57
16577 332 287 62
16578 332 290 87
16579 332 187 56
16580 332 78 79
16581 332 141 42
16582 332 137 56
16583 332 15 36
16584 332 173 94
16585 332 50 33
16586 332 324 89
16587 332 157 62
16588 332 272 86
16589 332 97 78
16590 332 212 25
16591 332 54 76
16592 332 220 57
16593 332 225 4
16594 332 197 97
16595 332 146 50
16596 332 129 30
16597 332 167 48
16598 332 171 50
16599 332 261 94
16600 332 85 94
16601 332 391 53
16602 332 270 6
16603 332 110 53
16604 332 109 84
16605 332 224 33
16606 332 37 7
16607 332 51 34
16608 332 399 15
16609 332 265 45
16610 332 56 28
16611 332 168 55
16612 332 160 46
16613 333 69 82
16614 333 45 77
16615 333 351 4
16616 333 115 38
16617 333 257 80
16618 333 337 3
16619 333 349 61
16620 333 311 80
16621 333 50 85
16622 333 127 14
16623 333 8 47
16624 333 76 39
16625 333 172 21
16626 333 346 42
16627 333 180 94
16628 333 106 9
16629 333 384 65
16630 333 95 96
16631 333 274 77
16632 333 196 57
16633 333 35 15
16634 333 264 38
16635 333 383 77
16636 333 149 57
16637 333 390 60
16638 333 319 89
16639 333 330 93
16640 333 176 62
16641 333 344 76
16642 333 254 18
16643 333 367 76
16644 333 156 79
16645 333 132 49
16646 333 305 10
16647 333 123 31
16648 333 131 12
16649 333 218 31
16650 333 323 64
16651 333 318 11
16652 333 169 7
16653 333 107 99
16654 333 47 73
16655 333 181 16
16656 333 243 8
16657 333 182 61
16658 333 315 42
16659 333 33 49
16660 334 19 82
16661 334 78 20
16662 334 122 35
16663 334 167 23
16664 334 48 60
16665 334 317 45
16666 334 123 5
16667 334 194 21
16668 334 25 38
16669 334 174 76
16670 334 273 69
16671 334 62 62
16672 334 15 5
16673 334 241 20
16674 334 373 1
16675 334 119 66
16676 334 111 41
16677 334 356 68
16678 334 255 81
16679 334 186 87
16680 334 239 17
16681 334 368 57
16682 334 351 77
16683 334 290 28
16684 334 360 35
16685 334 55 54
16686 334 157 41
16687 334 315 87
16688 334 18 85
16689 334 91 56
16690 334 161 40
16691 334 146 11
16692 334 89 20
16693 334 238 23
16694 334 116 12
16695 334 379 52
16696 334 345 45
16697 334 148 26
16698 335 52 30
16699 335 304 53
16700 335 124 26
16701 335 30 7
16702 335 212 80
16703 335 308 43
16704 335 370 63
16705 335 201 65
16706 335 121 43
16707 335 272 33
16708 335 397 100
16709 335 213 14
16710 335 77 32
16711 335 95 67
16712 335 346 67
16713 335 195 61
16714 335 155 5
16715 335 130 27
16716 335 193 6
16717 335 44 41
16718 335 132 88
16719 335 390 29
16720 335 55 82
16721 335 216 26
16722 335 307 30
16723 335 331 72
16724 335 231 94
16725 335 251 92
16726 335 134 74
16727 335 72 16
16728 335 106 96
16729 335 217 17
16730 335 387 95
16731 335 263 12
16732 335 351 2
16733 335 293 38
16734 335 3 76
16735 335 353 40
16736 335 382 2
16737 335 102 31
16738 335 191 17
16739 335 164 83
16740 335 181 36
16741 335 154 70
16742 335 210 86
16743 335 143 80
16744 335 108 87
16745 335 114 1
16746 335 303 7
16747 335 192 43
16748 336 5 51
16749 336 279 96
16750 336 226 24
16751 336 53 86
16752 336 149 45
16753 336 143 96
16754 336 396 53
16755 336 75 12
16756 336 173 21
16757 336 322 3
16758 336 317 80
16759 336 292 61
16760 336 377 28
16761 336 320 25
16762 336 214 23
16763 336 367 89
16764 336 43 9
16765 336 379 59
16766 336 147 35
16767 336 236 4
16768 336 62 53
16769 336 378 97
16770 336 228 44
16771 336 310 57
16772 336 368 44
16773 336 194 54
16774 336 124 14
16775 336 364 52
16776 336 212 64
16777 336 247 28
16778 336 219 18
16779 336 366 23
16780 336 99 59
16781 336 58 94
16782 336 51 13
16783 336 341 90
16784 336 55 42
16785 336 76 40
16786 336 311 65
16787 336 13 40
16788 336 12 15
16789 336 180 9
16790 336 153 25
16791 336 344 89
16792 336 97 82
16793 336 270 2
16794 336 95 18
16795 336 133 30
16796 336 64 32
16797 336 259 19
16798 336 343 78
16799 336 237 48
16800 336 157 73
16801 337 143 85
16802 337 1 20
16803 337 339 88
16804 337 264 64
16805 337 250 72
16806 337 164 88
16807 337 11 66
16808 337 300 91
16809 337 254 15
16810 337 334 80
16811 337 207 13
16812 337 228 16
16813 337 85 44
16814 337 10 41
16815 337 213 14
16816 337 191 78
16817 337 107 19
16818 337 13 45
16819 337 310 7
16820 337 224 76
16821 337 341 78
16822 337 109 13
16823 337 122 63
16824 337 364 16
16825 337 344 47
16826 337 118 53
16827 337 54 57
16828 337 3 73
16829 337 48 42
16830 337 303 13
16831 337 206 58
16832 337 251 32
16833 337 308 45
16834 337 282 79
16835 337 368 23
16836 337 133 60
16837 337 183 18
16838 337 99 48
16839 337 47 61
16840 337 318 89
16841 337 155 96
16842 337 218 28
16843 337 332 14
16844 337 115 4
16845 337 184 7
16846 337 382 79
16847 337 274 41
16848 337 399 42
16849 337 103 95
16850 337 278 5
16851 338 312 27
16852 338 15 96
16853 338 4 89
16854 338 194 37
16855 338 299 79
16856 338 393 3
16857 338 220 21
16858 338 302 65
16859 338 361 1
16860 338 81 77
16861 338 112 78
16862 338 386 41
16863 338 356 53
16864 338 171 57
16865 338 342 26
16866 338 209 55
16867 338 266 20
16868 338 235 85
16869 338 67 55
16870 338 17 13
16871 338 11 62
16872 338 65 12
16873 338 238 82
16874 338 137 74
16875 338 381 25
16876 338 105 10
16877 338 306 91
16878 338 46 43
16879 338 301 97
16880 338 151 15
16881 338 391 55
16882 338 30 81
16883 338 73 51
16884 338 36 40
16885 338 77 3
16886 338 122 50
16887 338 240 33
16888 338 84 12
16889 338 40 87
16890 338 185 26
16891 338 274 27
16892 338 331 54
16893 338 132 61
16894 338 384 80
16895 338 269 86
16896 338 177 87
16897 338 124 59
16898 338 168 24
16899 338 119 86
16900 338 237 63
16901 338 277 89
16902 338 315 37
16903 338 150 28
16904 338 248 46
16905 338 245 10
16906 339 265 11
16907 339 276 30
16908 339 154 84
16909 339 292 85
16910 339 53 16
16911 339 372 73
16912 339 100 4
16913 339 170 90
16914 339 287 55
16915 339 6 20
16916 339 373 36
16917 339 351 40
16918 339 88 1
16919 339 108 36
16920 339 239 31
16921 339 55 83
16922 339 78 59
16923 339 234 29
16924 339 133 69
16925 339 349 13
16926 339 259 64
16927 339 368 83
16928 339 267 66
16929 339 329 32
16930 339 383 60
16931 339 325 24
16932 339 367 57
16933 339 90 81
16934 339 141 7
16935 339 365 37
16936 339 218 36
16937 339 397 64
16938 339 167 19
16939 339 80 84
16940 339 183 13
16941 339 217 4
16942 339 34 95
16943 339 26 11
16944 339 30 35
16945 339 60 80
16946 339 324 27
16947 339 191 72
16948 339 384 2
16949 339 322 4
16950 339 327 72
16951 339 262 75
16952 339 38 3
16953 339 164 91
16954 339 271 89
16955 339 375 50
16956 339 224 53
16957 339 68 1
16958 339 393 56
16959 340 4 46
16960 340 316 64
16961 340 103 88
16962 340 26 2
16963 340 30 68
16964 340 302 68
16965 340 54 33
16966 340 31 14
16967 340 181 89
16968 340 85 25
16969 340 83 83
16970 340 251 49
16971 340 270 13
16972 340 70 7
16973 340 266 46
16974 340 211 80
16975 340 355 84
16976 340 180 82
16977 340 257 4
16978 340 307 19
16979 340 57 68
16980 340 376 3
16981 340 93 20
16982 340 284 35
16983 340 146 6
16984 340 194 13
16985 340 399 75
16986 340 10 44
16987 340 43 16
16988 340 326 42
16989 340 61 66
16990 340 176 80
16991 340 129 16
16992 340 225 77
16993 340 256 36
16994 340 330 53
16995 340 335 61
16996 340 14 74
16997 340 44 49
16998 340 383 41
16999 340 124 8
17000 340 196 53
17001 340 263 27
17002 340 278 64
17003 340 53 95
17004 340 55 70
17005 340 292 76
17006 340 161 45
17007 340 79 97
17008 340 318 93
17009 340 51 21
17010 340 327 43
17011 341 374 18
17012 341 172 99
17013 341 373 62
17014 341 132 50
17015 341 361 77
17016 341 11 64
17017 341 263 21
17018 341 27 10
17019 341 237 3
17020 341 279 51
17021 341 36 85
17022 341 22 48
17023 341 308 36
17024 341 302 30
17025 341 301 56
17026 341 189 23
17027 341 345 98
17028 341 97 37
17029 341 178 61
17030 341 309 26
17031 341 53 36
17032 341 87 43
17033 341 78 4
17034 341 266 34
17035 341 166 16
17036 341 28 8
17037 341 260 31
17038 341 244 23
17039 341 119 76
17040 341 391 26
17041 341 319 34
17042 341 133 100
17043 341 312 18
17044 341 386 92
17045 341 111 29
17046 341 73 28
17047 341 310 48
17048 341 199 47
17049 341 153 86
17050 341 40 87
17051 341 117 12
17052 341 379 73
17053 341 86 58
17054 341 93 56
17055 341 14 71
17056 341 358 62
17057 341 17 30
17058 341 183 86
17059 341 0 48
17060 341 243 89
17061 341 387 6
17062 341 195 31
17063 341 324 41
17064 342 101 98
17065 342 176 66
17066 342 32 11
17067 342 307 42
17068 342 139 47
17069 342 367 26
17070 342 107 43
17071 342 395 39
17072 342 55 84
17073 342 364 45
17074 342 238 66
17075 342 189 58
17076 342 178 57
17077 342 247 11
17078 342 46 8
17079 342 125 36
17080 342 103 38
17081 342 356 80
17082 342 4 59
17083 342 115 73
17084 342 259 69
17085 342 64 43
17086 342 318 73
17087 342 71 83
17088 342 186 18
17089 342 218 24
17090 342 51 45
17091 342 170 97
17092 342 204 88
17093 342 195 48
17094 342 246 47
17095 342 13 26
17096 342 129 17
17097 342 24 73
17098 342 210 7
17099 342 262 70
17100 342 99 88
17101 342 104 73
17102 342 10 89
17103 342 3 84
17104 343 316 49
17105 343 19 50
17106 343 320 78
17107 343 135 91
17108 343 218 4
17109 343 7 99
17110 343 136 99
17111 343 369 16
17112 343 31 21
17113 343 309 43
17114 343 322 72
17115 343 256 10
17116 343 171 56
17117 343 198 2
17118 343 239 42
17119 343 254 46
17120 343 21 82
17121 343 26 35
17122 343 362 48
17123 343 55 60
17124 343 315 35
17125 343 9 51
17126 343 159 41
17127 343 238 44
17128 343 240 94
17129 343 209 69
17130 343 284 69
17131 343 377 50
17132 343 262 59
17133 343 176 75
17134 343 206 60
17135 343 200 66
17136 343 43 60
17137 343 83 76
17138 343 142 46
17139 343 77 74
17140 343 372 25
17141 343 327 35
17142 343 260 76
17143 343 154 86
17144 343 319 23
17145 343 79 6
17146 343 363 79
17147 343 155 59
17148 343 338 66
17149 343 161 19
17150 343 228 34
17151 343 166 80
17152 343 147 92
17153 343 307 8
17154 343 172 39
17155 343 340 90
17156 343 89 25
17157 343 281 37
17158 343 312 74
17159 344 14 27
17160 344 276 41
17161 344 129 99
17162 344 61 6
17163 344 99 23
17164 344 197 22
17165 344 147 69
17166 344 390 2
17167 344 331 74
17168 344 23 55
17169 344 133 34
17170 344 299 12
17171 344 2 68
17172 344 0 54
17173 344 145 31
17174 344 40 52
17175 344 391 58
17176 344 349 27
17177 344 321 57
17178 344 386 57
17179 344 76 74
17180 344 306 26
17181 344 20 45
17182 344 161 38
17183 344 382 70
17184 344 92 75
17185 344 325 32
17186 344 33 3
17187 344 230 63
17188 344 174 3
17189 344 301 79
17190 344 103 2
17191 344 369 81
17192 344 139 1
17193 344 323 100
17194 344 134 39
17195 344 96 77
17196 344 59 15
17197 344 320 23
17198 344 315 35
17199 344 95 15
17200 344 25 20
17201 344 204 82
17202 344 27 68
17203 344 217 7
17204 344 159 35
17205 344 383 72
17206 344 185 84
17207 344 120 95
17208 344 328 76
17209 344 246 43
17210 344 108 60
17211 345 8 67
17212 345 67 100
17213 345 226 32
17214 345 352 16
17215 345 179 51
17216 345 246 76
17217 345 300 60
17218 345 289 74
17219 345 258 86
17220 345 166 18
17221 345 51 22
17222 345 299 32
17223 345 380 1
17224 345 360 99
17225 345 55 64
17226 345 182 44
17227 345 6 20
17228 345 64 56
17229 345 76 44
17230 345 252 65
17231 345 53 18
17232 345 271 94
17233 345 100 18
17234 345 254 84
17235 345 333 67
17236 345 46 6
17237 345 373 55
17238 345 386 91
17239 345 74 37
17240 345 202 88
17241 345 171 21
17242 345 283 3
17243 345 89 40
17244 345 237 25
17245 345 28 32
17246 345 277 56
17247 345 118 20
17248 345 200 18
17249 345 293 14
17250 345 173 36
17251 345 97 79
17252 345 121 96
17253 345 123 37
17254 345 336 5
17255 345 332 56
17256 345 327 76
17257 345 16 71
17258 345 296 67
17259 345 381 29
17260 345 261 45
17261 345 197 17
17262 345 392 2
17263 346 84 4
17264 346 187 88
17265 346 151 60
17266 346 156 70
17267 346 323 49
17268 346 165 67
17269 346 141 62
17270 346 223 98
17271 346 6 24
17272 346 218 5
17273 346 109 29
17274 346 34 22
17275 346 233 13
17276 346 278 36
17277 346 299 32
17278 346 194 87
17279 346 180 47
17280 346 13 81
17281 346 183 43
17282 346 385 44
17283 346 185 10
17284 346 31 79
17285 346 268 72
17286 346 7 18
17287 346 68 17
17288 346 18 9
17289 346 195 88
17290 346 70 81
17291 346 129 55
17292 346 226 64
17293 346 364 23
17294 346 290 52
17295 346 314 25
17296 346 152 86
17297 346 371 20
17298 346 106 42
17299 346 248 8
17300 346 97 25
17301 346 341 22
17302 346 369 41
17303 346 113 4
17304 346 334 63
17305 346 188 23
17306 346 266 63
17307 346 272 10
17308 346 265 68
17309 346 41 5
17310 346 60 98
17311 346 5 76
17312 346 17 68
17313 347 186 33
17314 347 277 54
17315 347 304 84
17316 347 224 77
17317 347 238 88
17318 347 0 92
17319 347 150 76
17320 347 57 63
17321 347 254 77
17322 347 69 26
17323 347 264 79
17324 347 2 69
17325 347 151 99
17326 347 62 19
17327 347 330 68
17328 347 198 92
17329 347 82 6
17330 347 281 22
17331 347 297 43
17332 347 286 54
17333 347 252 18
17334 347 117 52
17335 347 201 17
17336 347 399 30
17337 347 263 92
17338 347 108 57
17339 347 267 51
17340 347 58 21
17341 347 43 74
17342 347 129 87
17343 347 98 49
17344 347 339 42
17345 347 260 41
17346 347 111 68
17347 347 319 11
17348 347 88 64
17349 347 21 37
17350 347 276 90
17351 347 205 20
17352 347 44 35
17353 347 24 95
17354 347 89 34
17355 347 352 15
17356 347 28 52
17357 347 100 47
17358 347 144 65
17359 347 194 49
17360 347 156 32
17361 347 34 94
17362 347 221 40
17363 348 316 35
17364 348 307 96
17365 348 120 93
17366 348 83 63
17367 348 29 95
17368 348 240 70
17369 348 342 32
17370 348 92 24
17371 348 78 52
17372 348 329 86
17373 348 122 22
17374 348 106 34
17375 348 322 78
17376 348 235 77
17377 348 35 9
17378 348 321 40
17379 348 364 33
17380 348 68 25
17381 348 84 8
17382 348 326 10
17383 348 218 40
17384 348 344 25
17385 348 366 71
17386 348 247 64
17387 348 239 54
17388 348 26 29
17389 348 382 100
17390 348 304 99
17391 348 192 52
17392 348 61 39
17393 348 21 59
17394 348 201 54
17395 348 69 40
17396 348 203 31
17397 348 258 100
17398 348 340 74
17399 348 391 2
17400 348 332 43
17401 348 305 63
17402 348 182 40
17403 348 164 81
17404 348 108 81
17405 348 62 36
17406 348 178 45
17407 348 268 73
17408 349 255 82
17409 349 36 93
17410 349 273 23
17411 349 32 25
17412 349 10 88
17413 349 234 28
17414 349 85 30
17415 349 95 56
17416 349 153 89
17417 349 258 33
17418 349 257 95
17419 349 382 84
17420 349 179 11
17421 349 147 76
17422 349 286 5
17423 349 103 78
17424 349 328 27
17425 349 61 59
17426 349 26 1
17427 349 108 32
17428 349 264 1
17429 349 389 45
17430 349 83 2
17431 349 219 11
17432 349 213 86
17433 349 144 6
17434 349 195 51
17435 349 338 10
17436 349 394 13
17437 349 13 23
17438 349 196 69
17439 349 209 79
17440 349 162 43
17441 349 346 13
17442 349 223 49
17443 349 190 74
17444 349 14 59
17445 349 254 67
17446 349 31 93
17447 349 356 13
17448 349 92 56
17449 349 5 66
17450 349 38 53
17451 349 314 37
17452 349 2 60
17453 349 326 18
17454 349 311 6
17455 349 278 70
17456 349 337 10
17457 349 155 59
17458 349 45 17
17459 350 277 18
17460 350 306 96
17461 350 28 22
17462 350 206 27
17463 350 349 12
17464 350 220 47
17465 350 262 96
17466 350 382 49
17467 350 165 67
17468 350 39 61
17469 350 233 39
17470 350 122 17
17471 350 361 26
17472 350 169 18
17473 350 74 70
17474 350 48 15
17475 350 332 17
17476 350 390 67
17477 350 367 25
17478 350 188 14
17479 350 27 65
17480 350 301 34
17481 350 128 38
17482 350 302 41
17483 350 235 49
17484 350 93 73
17485 350 369 37
17486 350 258 19
17487 350 330 100
17488 350 395 47
17489 350 203 100
17490 350 62 65
17491 350 168 24
17492 350 342 17
17493 350 173 86
17494 350 182 49
17495 350 260 40
17496 350 14 78
17497 350 213 60
17498 350 250 89
17499 350 75 88
17500 350 316 90
17501 350 134 10
17502 350 226 1
17503 350 151 87
17504 350 127 58
17505 350 207 11
17506 350 347 39
17507 350 130 23
17508 350 123 15
17509 350 58 60
17510 350 388 82
17511 350 224 16
17512 350 154 97
17513 350 312 66
17514 350 340 84
17515 350 317 14
17516 350 32 47
17517 350 360 20
17518 350 293 8
17519 350 186 90
17520 351 370 99
17521 351 259 78
17522 351 5 37
17523 351 373 10
17524 351 59 89
17525 351 280 71
17526 351 295 9
17527 351 69 66
17528 351 315 33
17529 351 337 59
17530 351 15 72
17531 351 37 55
17532 351 368 19
17533 351 215 14
17534 351 269 66
17535 351 57 4
17536 351 289 27
17537 351 380 46
17538 351 346 26
17539 351 29 7
17540 351 127 53
17541 351 24 70
17542 351 277 23
17543 351 145 48
17544 351 64 62
17545 351 378 44
17546 351 310 29
17547 351 3 27
17548 351 129 56
17549 351 349 44
17550 351 194 94
17551 351 68 70
17552 351 201 69
17553 351 20 73
17554 351 80 85
17555 351 211 49
17556 351 350 85
17557 351 226 53
17558 351 254 90
17559 351 40 20
17560 351 67 15
17561 351 210 77
17562 351 333 4
17563 351 139 12
17564 351 399 16
17565 351 55 33
17566 351 7 21
17567 351 246 63
17568 351 103 38
17569 351 255 61
17570 351 283 79
17571 352 371 79
17572 352 260 79
17573 352 89 56
17574 352 214 30
17575 352 29 93
17576 352 22 63
17577 352 159 51
17578 352 188 92
17579 352 206 1
17580 352 267 85
17581 352 316 92
17582 352 338 23
17583 352 356 37
17584 352 107 73
17585 352 311 28
17586 352 68 89
17587 352 43 98
17588 352 168 85
17589 352 19 17
17590 352 181 70
17591 352 336 19
17592 352 57 67
17593 352 284 80
17594 352 111 80
17595 352 313 8
17596 352 236 70
17597 352 113 44
17598 352 60 63
17599 352 128 33
17600 352 272 36
17601 352 4 27
17602 352 245 5
17603 352 199 37
17604 352 50 74
17605 352 326 12
17606 352 25 47
17607 352 86 94
17608 352 370 49
17609 352 97 8
17610 352 55 66
17611 352 355 57
17612 352 392 23
17613 352 246 43
17614 352 46 63
17615 352 219 48
17616 352 73 46
17617 353 6 4
17618 353 282 34
17619 353 359 33
17620 353 108 100
17621 353 348 11
17622 353 55 83
17623 353 84 6
17624 353 173 35
17625 353 57 44
17626 353 386 23
17627 353 290 39
17628 353 218 19
17629 353 321 59
17630 353 113 68
17631 353 391 38
17632 353 148 72
17633 353 129 16
17634 353 3 73
17635 353 305 22
17636 353 397 66
17637 353 194 96
17638 353 277 48
17639 353 288 84
17640 353 79 46
17641 353 280 37
17642 353 203 43
17643 353 137 30
17644 353 115 91
17645 353 116 34
17646 353 140 94
17647 353 169 89
17648 353 155 79
17649 353 130 74
17650 353 222 58
17651 353 77 23
17652 353 295 73
17653 353 338 18
17654 353 101 62
17655 353 81 57
17656 353 175 76
17657 353 200 79
17658 353 304 47
17659 353 121 37
17660 353 118 18
17661 353 156 5
17662 353 106 19
17663 353 344 48
17664 353 368 99
17665 353 176 73
17666 353 15 34
17667 353 283 79
17668 353 286 45
17669 353 8 46
17670 353 308 60
17671 353 120 97
17672 353 244 21
17673 353 90 32
17674 354 118 21
17675 354 325 42
17676 354 99 46
17677 354 68 1
17678 354 248 84
17679 354 160 74
17680 354 377 60
17681 354 262 44
17682 354 104 27
17683 354 314 20
17684 354 321 40
17685 354 261 95
17686 354 367 22
17687 354 299 38
17688 354 195 94
17689 354 26 81
17690 354 301 73
17691 354 365 38
17692 354 203 94
17693 354 266 19
17694 354 303 98
17695 354 386 1
17696 354 64 82
17697 354 296 78
17698 354 304 94
17699 354 49 54
17700 354 272 21
17701 354 393 42
17702 354 193 60
17703 354 95 64
17704 354 186 81
17705 354 212 95
17706 354 236 32
17707 354 130 43
17708 354 30 21
17709 354 324 33
17710 354 334 11
17711 354 286 27
17712 354 331 84
17713 354 291 82
17714 354 9 98
17715 354 105 12
17716 354 229 94
17717 354 362 47
17718 354 322 75
17719 355 289 72
17720 355 136 52
17721 355 5 49
17722 355 52 54
17723 355 128 57
17724 355 303 33
17725 355 189 56
17726 355 116 80
17727 355 69 9
17728 355 146 73
17729 355 299 97
17730 355 185 54
17731 355 68 51
17732 355 175 26
17733 355 283 85
17734 355 91 64
17735 355 178 29
17736 355 79 18
17737 355 60 66
17738 355 326 66
17739 355 140 65
17740 355 363 90
17741 355 118 51
17742 355 293 20
17743 355 4 46
17744 355 262 65
17745 355 92 40
17746 355 182 17
17747 355 336 85
17748 355 198 1
17749 355 386 23
17750 355 301 25
17751 355 380 33
17752 355 227 17
17753 355 222 40
17754 355 256 40
17755 355 206 18
17756 355 143 21
17757 355 267 91
17758 355 96 74
17759 355 328 99
17760 355 130 78
17761 355 209 13
17762 355 290 59
17763 355 168 17
17764 355 205 38
17765 355 300 37
17766 355 343 4
17767 355 288 9
17768 355 55 35
17769 355 195 93
17770 355 32 64
17771 355 298 20
17772 355 388 83
17773 355 13 19
17774 355 8 18
17775 355 260 23
17776 355 76 93
17777 355 246 39
17778 355 254 74
17779 355 84 29
17780 355 381 81
17781 356 355 2
17782 356 331 40
17783 356 39 41
17784 356 28 77
17785 356 58 92
17786 356 41 71
17787 356 108 98
17788 356 141 13
17789 356 280 69
17790 356 139 13
17791 356 226 48
17792 356 222 8
17793 356 374 98
17794 356 265 96
17795 356 178 38
17796 356 247 84
17797 356 192 76
17798 356 170 61
17799 356 337 85
17800 356 244 69
17801 356 278 13
17802 356 235 32
17803 356 376 35
17804 356 71 50
17805 356 389 84
17806 356 223 10
17807 356 128 70
17808 356 208 43
17809 356 239 62
17810 356 53 19
17811 356 69 37
17812 356 185 67
17813 356 96 57
17814 356 1 23
17815 356 307 29
17816 356 72 80
17817 356 261 72
17818 356 152 41
17819 356 272 60
17820 356 187 82
17821 356 277 86
17822 356 365 77
17823 356 275 36
17824 356 290 22
17825 356 61 4
17826 356 268 12
17827 356 121 53
17828 356 140 31
17829 356 144 15
17830 356 199 47
17831 356 367 76
17832 356 85 74
17833 356 394 99
17834 356 155 13
17835 356 219 91
17836 356 47 5
17837 356 4 5
17838 356 315 53
17839 356 363 46
17840 356 350 29
17841 356 354 88
17842 357 258 69
17843 357 206 12
17844 357 250 51
17845 357 285 60
17846 357 72 85
17847 357 375 48
17848 357 107 21
17849 357 170 70
17850 357 20 80
17851 357 88 64
17852 357 213 62
17853 357 274 61
17854 357 393 66
17855 357 360 80
17856 357 243 89
17857 357 313 37
17858 357 330 46
17859 357 188 13
17860 357 112 2
17861 357 7 8
17862 357 143 59
17863 357 15 98
17864 357 268 38
17865 357 277 58
17866 357 319 13
17867 357 254 50
17868 357 248 99
17869 357 368 35
17870 357 60 57
17871 357 136 83
17872 357 231 2
17873 357 286 25
17874 357 384 37
17875 357 21 9
17876 357 295 37
17877 357 291 17
17878 357 202 92
17879 357 373 40
17880 357 51 59
17881 357 271 74
17882 357 246 73
17883 357 275 87
17884 357 240 89
17885 357 365 28
17886 357 193 87
17887 357 379 78
17888 357 173 98
17889 357 320 46
17890 357 135 54
17891 357 366 16
17892 358 145 74
17893 358 78 51
17894 358 152 61
17895 358 83 63
17896 358 55 43
17897 358 246 46
17898 358 384 79
17899 358 280 89
17900 358 341 33
17901 358 262 76
17902 358 258 43
17903 358 334 70
17904 358 221 27
17905 358 209 29
17906 358 240 89
17907 358 158 74
17908 358 74 3
17909 358 45 79
17910 358 297 13
17911 358 321 35
17912 358 265 29
17913 358 82 30
17914 358 49 13
17915 358 13 69
17916 358 6 60
17917 358 89 44
17918 358 357 26
17919 358 40 43
17920 358 269 61
17921 358 87 2
17922 358 159 22
17923 358 150 21
17924 358 302 53
17925 358 39 57
17926 358 327 65
17927 358 270 24
17928 358 144 37
17929 358 2 95
17930 358 350 34
17931 358 12 25
17932 358 161 39
17933 358 101 58
17934 358 71 3
17935 358 107 86
17936 358 16 55
17937 358 176 57
17938 359 382 33
17939 359 337 61
17940 359 310 15
17941 359 176 56
17942 359 243 79
17943 359 94 44
17944 359 210 56
17945 359 101 84
17946 359 65 71
17947 359 146 54
17948 359 356 7
17949 359 155 13
17950 359 9 64
17951 359 97 60
17952 359 330 70
17953 359 106 44
17954 359 291 1
17955 359 78 63
17956 359 48 64
17957 359 281 34
17958 359 203 17
17959 359 1 16
17960 359 377 43
17961 359 111 56
17962 359 167 57
17963 359 283 32
17964 359 133 80
17965 359 68 71
17966 359 85 48
17967 359 340 20
17968 359 234 97
17969 359 271 56
17970 359 144 2
17971 359 202 69
17972 359 102 22
17973 359 246 27
17974 359 60 4
17975 359 314 89
17976 359 396 7
17977 359 212 61
17978 359 115 39
17979 359 92 94
17980 359 96 50
17981 359 184 96
17982 359 57 17
17983 359 386 78
17984 359 363 22
17985 359 257 49
17986 359 373 34
17987 359 185 2
17988 359 267 89
17989 359 336 51
17990 359 309 14
17991 359 14 40
17992 360 4 17
17993 360 14 34
17994 360 12 20
17995 360 248 15
17996 360 265 97
17997 360 134 34
17998 360 335 52
17999 360 61 53
18000 360 328 46
18001 360 55 13
18002 360 351 70
18003 360 322 71
18004 360 192 19
18005 360 177 93
18006 360 304 18
18007 360 89 94
18008 360 277 22
18009 360 274 98
18010 360 44 23
18011 360 393 55
18012 360 273 10
18013 360 388 46
18014 360 59 82
18015 360 174 92
18016 360 169 59
18017 360 352 55
18018 360 243 76
18019 360 65 52
18020 360 225 4
18021 360 144 37
18022 360 280 92
18023 360 94 98
18024 360 143 76
18025 360 278 81
18026 360 197 46
18027 360 240 17
18028 360 242 20
18029 360 64 44
18030 360 39 34
18031 360 313 14
18032 360 363 60
18033 360 310 81
18034 360 101 4
18035 360 104 76
18036 360 73 100
18037 360 283 86
18038 361 253 38
18039 361 251 100
18040 361 6 2
18041 361 337 72
18042 361 71 34
18043 361 61 26
18044 361 55 96
18045 361 214 19
18046 361 222 32
18047 361 154 90
18048 361 310 62
18049 361 193 41
18050 361 227 24
18051 361 19 87
18052 361 78 81
18053 361 11 90
18054 361 64 98
18055 361 74 32
18056 361 161 10
18057 361 206 78
18058 361 394 44
18059 361 105 26
18060 361 313 14
18061 361 134 80
18062 361 51 86
18063 361 203 23
18064 361 316 100
18065 361 162 13
18066 361 333 92
18067 361 42 5
18068 361 140 54
18069 361 56 72
18070 361 392 40
18071 361 115 24
18072 361 388 88
18073 361 224 55
18074 361 338 44
18075 361 93 65
18076 362 198 10
18077 362 283 87
18078 362 182 58
18079 362 310 16
18080 362 266 83
18081 362 269 76
18082 362 206 62
18083 362 146 58
18084 362 76 77
18085 362 183 70
18086 362 16 6
18087 362 205 47
18088 362 399 90
18089 362 109 28
18090 362 274 6
18091 362 352 34
18092 362 173 30
18093 362 22 4
18094 362 322 4
18095 362 209 35
18096 362 177 14
18097 362 86 97
18098 362 298 14
18099 362 325 73
18100 362 343 82
18101 362 26 42
18102 362 1 56
18103 362 318 78
18104 362 255 44
18105 362 145 68
18106 362 59 4
18107 362 276 52
18108 362 114 42
18109 362 191 20
18110 362 133 54
18111 362 370 58
18112 362 308 35
18113 362 128 73
18114 362 257 63
18115 362 320 49
18116 362 319 7
18117 362 374 27
18118 363 91 85
18119 363 100 40
18120 363 381 16
18121 363 202 93
18122 363 203 97
18123 363 290 49
18124 363 278 56
18125 363 134 91
18126 363 45 58
18127 363 13 17
18128 363 303 5
18129 363 130 10
18130 363 151 61
18131 363 392 3
18132 363 63 62
18133 363 61 100
18134 363 166 53
18135 363 68 89
18136 363 106 5
18137 363 252 91
18138 363 84 16
18139 363 112 93
18140 363 374 57
18141 363 26 17
18142 363 158 36
18143 363 135 11
18144 363 71 6
18145 363 189 22
18146 363 343 91
18147 363 227 66
18148 363 371 45
18149 363 96 53
18150 363 146 27
18151 363 153 7
18152 363 97 57
18153 363 86 13
18154 363 389 30
18155 363 258 33
18156 363 331 53
18157 363 315 69
18158 363 199 23
18159 363 201 43
18160 363 101 67
18161 363 145 8
18162 363 31 83
18163 363 316 15
18164 363 341 77
18165 363 365 82
18166 363 118 40
18167 363 1 10
18168 363 378 54
18169 363 174 90
18170 364 81 89
18171 364 343 86
18172 364 15 50
18173 364 158 58
18174 364 160 62
18175 364 305 23
18176 364 266 6
18177 364 44 48
18178 364 309 81
18179 364 312 99
18180 364 55 76
18181 364 219 25
18182 364 395 67
18183 364 240 4
18184 364 66 17
18185 364 31 5
18186 364 190 62
18187 364 388 50
18188 364 153 12
18189 364 63 41
18190 364 306 49
18191 364 26 13
18192 364 185 11
18193 364 284 61
18194 364 4 49
18195 364 218 45
18196 364 149 33
18197 364 65 56
18198 364 245 27
18199 364 376 2
18200 364 163 35
18201 364 195 39
18202 364 33 65
18203 364 283 83
18204 364 56 25
18205 364 57 72
18206 364 121 99
18207 364 223 36
18208 364 281 64
18209 364 351 4
18210 364 164 9
18211 364 13 14
18212 364 214 88
18213 364 146 97
18214 364 49 89
18215 364 122 44
18216 364 350 34
18217 364 45 67
18218 364 374 76
18219 364 169 3
18220 364 54 82
18221 365 370 81
18222 365 316 69
18223 365 199 97
18224 365 329 82
18225 365 79 71
18226 365 353 13
18227 365 354 43
18228 365 295 43
18229 365 274 58
18230 365 215 71
18231 365 3 8
18232 365 392 8
18233 365 15 25
18234 365 59 25
18235 365 378 40
18236 365 350 20
18237 365 377 68
18238 365 270 4
18239 365 302 39
18240 365 333 56
18241 365 156 48
18242 365 138 90
18243 365 258 72
18244 365 160 99
18245 365 195 49
18246 365 150 35
18247 365 204 98
18248 365 6 92
18249 365 272 3
18250 365 96 78
18251 365 176 34
18252 365 183 8
18253 365 360 41
18254 365 126 22
18255 365 128 24
18256 365 51 98
18257 365 309 88
18258 365 27 19
18259 365 157 38
18260 365 212 51
18261 365 152 91
18262 365 139 24
18263 365 371 69
18264 365 343 67
18265 365 369 54
18266 365 284 92
18267 365 80 18
18268 365 394 42
18269 365 292 23
18270 365 205 51
18271 365 172 61
18272 365 373 45
18273 365 168 27
18274 365 331 97
18275 365 142 40
18276 366 166 97
18277 366 140 82
18278 366 391 85
18279 366 325 79
18280 366 247 8
18281 366 359 93
18282 366 62 65
18283 366 262 97
18284 366 167 51
18285 366 141 5
18286 366 245 10
18287 366 321 32
18288 366 313 63
18289 366 7 39
18290 366 339 22
18291 366 393 72
18292 366 275 57
18293 366 198 7
18294 366 11 12
18295 366 386 12
18296 366 241 68
18297 366 310 80
18298 366 107 75
18299 366 56 58
18300 366 377 14
18301 366 90 73
18302 366 394 4
18303 366 145 57
18304 366 360 13
18305 366 357 75
18306 366 254 56
18307 366 368 74
18308 366 5 88
18309 366 122 13
18310 367 344 36
18311 367 303 6
18312 367 106 72
18313 367 391 34
18314 367 46 32
18315 367 87 50
18316 367 116 38
18317 367 209 44
18318 367 166 42
18319 367 2 2
18320 367 135 58
18321 367 236 91
18322 367 155 28
18323 367 176 95
18324 367 101 21
18325 367 195 80
18326 367 271 87
18327 367 261 67
18328 367 258 16
18329 367 347 65
18330 367 186 58
18331 367 161 38
18332 367 277 11
18333 367 316 59
18334 367 48 28
18335 367 144 16
18336 367 95 17
18337 367 263 60
18338 367 204 39
18339 367 164 30
18340 367 304 74
18341 367 286 100
18342 367 208 85
18343 367 53 65
18344 367 326 15
18345 367 147 6
18346 367 359 93
18347 367 29 7
18348 367 269 94
18349 367 199 40
18350 367 317 8
18351 367 127 35
18352 367 308 5
18353 367 201 80
18354 367 104 62
18355 367 232 28
18356 367 74 13
18357 367 178 7
18358 367 156 9
18359 367 68 13
18360 367 220 35
18361 367 117 71
18362 368 329 67
18363 368 282 40
18364 368 107 97
18365 368 300 22
18366 368 108 34
18367 368 370 50
18368 368 150 100
18369 368 315 99
18370 368 398 75
18371 368 382 6
18372 368 272 10
18373 368 394 26
18374 368 178 8
18375 368 364 27
18376 368 167 80
18377 368 350 25
18378 368 57 28
18379 368 71 41
18380 368 59 96
18381 368 94 86
18382 368 369 26
18383 368 209 39
18384 368 355 12
18385 368 10 23
18386 368 155 6
18387 368 120 86
18388 368 118 92
18389 368 245 62
18390 368 136 33
18391 368 103 15
18392 368 388 13
18393 368 372 25
18394 368 219 83
18395 368 89 17
18396 368 396 67
18397 368 322 35
18398 368 30 21
18399 368 41 88
18400 368 210 92
18401 368 292 70
18402 368 40 87
18403 368 218 54
18404 368 75 33
18405 368 56 18
18406 368 173 7
18407 368 182 1
18408 368 49 75
18409 368 312 46
18410 368 389 17
18411 368 345 80
18412 368 177 49
18413 368 95 78
18414 368 222 18
18415 369 318 4
18416 369 358 52
18417 369 154 75
18418 369 157 18
18419 369 362 61
18420 369 288 42
18421 369 188 31
18422 369 97 34
18423 369 240 72
18424 369 390 15
18425 369 9 27
18426 369 227 95
18427 369 11 39
18428 369 22 95
18429 369 181 2
18430 369 238 38
18431 369 231 66
18432 369 63 42
18433 369 2 34
18434 369 214 95
18435 369 27 47
18436 369 341 45
18437 369 203 93
18438 369 253 4
18439 369 33 87
18440 369 76 21
18441 369 96 48
18442 369 256 94
18443 369 79 96
18444 369 98 60
18445 369 103 9
18446 369 28 61
18447 369 176 95
18448 369 294 51
18449 369 124 94
18450 369 69 96
18451 369 139 4
18452 369 86 13
18453 369 212 36
18454 370 62 49
18455 370 209 19
18456 370 58 9
18457 370 284 39
18458 370 164 38
18459 370 259 47
18460 370 324 49
18461 370 384 90
18462 370 136 76
18463 370 236 53
18464 370 380 76
18465 370 340 9
18466 370 210 43
18467 370 376 96
18468 370 325 81
18469 370 66 74
18470 370 374 95
18471 370 7 11
18472 370 253 37
18473 370 255 86
18474 370 312 1
18475 370 187 39
18476 370 54 76
18477 370 76 95
18478 370 171 24
18479 370 112 72
18480 370 71 52
18481 370 229 82
18482 370 85 60
18483 370 82 88
18484 370 105 73
18485 370 30 43
18486 370 98 6
18487 370 77 8
18488 370 10 49
18489 370 248 21
18490 370 101 46
18491 370 22 36
18492 370 281 45
18493 370 344 18
18494 370 19 46
18495 370 224 30
18496 370 53 9
18497 370 169 22
18498 370 146 9
18499 371 376 70
18500 371 333 30
18501 371 183 97
18502 371 257 10
18503 371 91 75
18504 371 389 80
18505 371 139 81
18506 371 187 51
18507 371 338 33
18508 371 42 26
18509 371 45 22
18510 371 227 61
18511 371 15 71
18512 371 275 71
18513 371 328 95
18514 371 230 92
18515 371 369 11
18516 371 157 23
18517 371 170 65
18518 371 137 13
18519 371 301 49
18520 371 125 76
18521 371 237 95
18522 371 304 8
18523 371 353 40
18524 371 158 47
18525 371 296 38
18526 371 204 48
18527 371 197 78
18528 371 177 90
18529 371 251 22
18530 371 373 2
18531 371 46 67
18532 371 203 66
18533 371 194 16
18534 371 354 71
18535 371 185 35
18536 371 54 49
18537 371 41 89
18538 371 6 85
18539 371 24 58
18540 371 20 93
18541 371 274 38
18542 371 271 40
18543 371 269 73
18544 371 272 72
18545 372 163 41
18546 372 99 78
18547 372 13 69
18548 372 5 33
18549 372 332 16
18550 372 282 1
18551 372 111 62
18552 372 131 51
18553 372 263 71
18554 372 394 53
18555 372 351 6
18556 372 238 67
18557 372 58 77
18558 372 292 54
18559 372 12 68
18560 372 88 8
18561 372 47 50
18562 372 114 95
18563 372 370 49
18564 372 348 86
18565 372 56 56
18566 372 364 55
18567 372 26 84
18568 372 328 30
18569 372 373 22
18570 372 320 6
18571 372 322 51
18572 372 162 50
18573 372 30 41
18574 372 340 76
18575 372 121 46
18576 372 116 100
18577 372 258 52
18578 372 68 77
18579 372 176 98
18580 372 133 2
18581 372 167 49
18582 372 335 47
18583 372 262 85
18584 372 128 21
18585 372 81 62
18586 372 87 43
18587 372 201 29
18588 372 103 65
18589 372 115 28
18590 372 271 49
18591 372 143 99
18592 372 317 31
18593 372 101 41
18594 372 21 47
18595 372 206 74
18596 372 264 79
18597 372 215 70
18598 372 29 1
18599 373 289 50
18600 373 117 90
18601 373 185 50
18602 373 133 97
18603 373 251 91
18604 373 248 86
18605 373 30 81
18606 373 258 74
18607 373 171 55
18608 373 146 81
18609 373 318 77
18610 373 306 26
18611 373 122 49
18612 373 399 91
18613 373 97 12
18614 373 123 93
18615 373 5 2
18616 373 297 4
18617 373 371 12
18618 373 287 60
18619 373 351 9
18620 373 55 17
18621 373 15 43
18622 373 381 2
18623 373 360 49
18624 373 9 49
18625 373 315 92
18626 373 308 1
18627 373 394 63
18628 373 282 17
18629 373 226 65
18630 373 207 62
18631 373 34 43
18632 373 141 92
18633 373 354 100
18634 373 161 64
18635 373 75 45
18636 373 104 37
18637 373 292 86
18638 373 324 71
18639 373 154 29
18640 373 252 88
18641 373 20 82
18642 373 369 3
18643 374 299 40
18644 374 248 33
18645 374 285 25
18646 374 305 77
18647 374 40 54
18648 374 326 37
18649 374 173 97
18650 374 163 91
18651 374 48 11
18652 374 322 86
18653 374 116 41
18654 374 153 10
18655 374 31 96
18656 374 360 95
18657 374 343 35
18658 374 136 17
18659 374 208 43
18660 374 45 51
18661 374 283 18
18662 374 115 14
18663 374 365 76
18664 374 350 7
18665 374 121 77
18666 374 391 32
18667 374 398 37
18668 374 104 40
18669 374 220 19
18670 374 262 100
18671 374 18 93
18672 374 172 50
18673 374 287 88
18674 374 124 11
18675 374 252 63
18676 374 369 97
18677 374 182 33
18678 374 73 87
18679 374 88 34
18680 374 263 17
18681 374 233 72
18682 374 2 65
18683 374 126 23
18684 374 43 63
18685 374 135 52
18686 374 311 93
18687 374 94 84
18688 374 240 10
18689 374 201 32
18690 374 51 11
18691 374 150 93
18692 374 26 59
18693 374 103 90
18694 374 321 44
18695 374 247 5
18696 374 245 82
18697 374 189 76
18698 375 289 88
18699 375 141 84
18700 375 19 1
18701 375 318 69
18702 375 239 94
18703 375 255 2
18704 375 160 2
18705 375 115 81
18706 375 230 52
18707 375 285 5
18708 375 225 2
18709 375 14 43
18710 375 273 5
18711 375 275 7
18712 375 340 81
18713 375 298 24
18714 375 253 90
18715 375 270 56
18716 375 138 80
18717 375 334 33
18718 375 373 27
18719 375 324 32
18720 375 145 12
18721 375 280 25
18722 375 163 24
18723 375 46 24
18724 375 131 44
18725 375 238 44
18726 375 161 59
18727 375 107 3
18728 375 146 94
18729 375 201 50
18730 375 303 46
18731 375 370 6
18732 375 229 73
18733 375 170 95
18734 375 278 38
18735 375 41 86
18736 375 353 1
18737 375 307 80
18738 375 276 40
18739 375 174 84
18740 375 24 68
18741 375 151 78
18742 375 245 44
18743 375 283 40
18744 375 274 63
18745 375 137 78
18746 375 149 23
18747 375 221 84
18748 375 6 85
18749 375 363 51
18750 375 104 40
18751 375 188 37
18752 375 394 83
18753 375 171 67
18754 375 384 87
18755 375 320 30
18756 375 381 72
18757 375 314 30
18758 375 23 7
18759 375 18 25
18760 375 287 29
18761 375 80 51
18762 376 85 12
18763 376 346 84
18764 376 169 92
18765 376 294 77
18766 376 98 23
18767 376 172 45
18768 376 262 11
18769 376 261 76
18770 376 65 13
18771 376 119 63
18772 376 310 41
18773 376 41 52
18774 376 309 34
18775 376 277 87
18776 376 364 30
18777 376 71 82
18778 376 70 14
18779 376 291 98
18780 376 90 53
18781 376 269 17
18782 376 138 79
18783 376 329 36
18784 376 139 67
18785 376 66 23
18786 376 268 27
18787 376 216 68
18788 376 32 85
18789 376 382 20
18790 376 385 37
18791 376 93 100
18792 376 185 29
18793 376 36 4
18794 376 316 93
18795 376 280 70
18796 376 220 29
18797 376 360 54
18798 376 321 99
18799 376 304 29
18800 376 255 79
18801 376 142 17
18802 376 378 37
18803 376 190 50
18804 376 226 39
18805 376 314 74
18806 376 88 28
18807 376 60 96
18808 376 354 32
18809 376 26 79
18810 376 219 79
18811 376 272 29
18812 376 59 40
18813 376 357 77
18814 376 340 21
18815 376 236 43
18816 376 140 93
18817 376 241 69
18818 376 271 65
18819 376 108 59
18820 377 213 91
18821 377 33 88
18822 377 106 87
18823 377 189 3
18824 377 88 16
18825 377 322 33
18826 377 207 1
18827 377 4 60
18828 377 108 31
18829 377 192 72
18830 377 263 90
18831 377 89 58
18832 377 196 99
18833 377 212 66
18834 377 231 84
18835 377 34 1
18836 377 152 75
18837 377 294 94
18838 377 115 57
18839 377 125 10
18840 377 272 31
18841 377 253 89
18842 377 22 16
18843 377 38 58
18844 377 359 35
18845 377 278 63
18846 377 46 89
18847 377 375 73
18848 377 124 10
18849 377 82 40
18850 377 30 67
18851 377 157 50
18852 377 259 74
18853 377 15 79
18854 377 399 56
18855 377 121 5
18856 377 117 3
18857 377 18 61
18858 377 16 10
18859 377 54 75
18860 377 237 39
18861 377 299 53
18862 377 205 13
18863 377 47 57
18864 377 242 100
18865 377 360 26
18866 377 14 20
18867 377 297 49
18868 377 43 80
18869 377 105 71
18870 377 397 57
18871 377 186 75
18872 377 317 52
18873 377 206 53
18874 378 220 85
18875 378 31 88
18876 378 190 89
18877 378 93 34
18878 378 113 75
18879 378 209 15
18880 378 200 88
18881 378 80 23
18882 378 28 49
18883 378 234 81
18884 378 71 7
18885 378 372 86
18886 378 263 39
18887 378 388 33
18888 378 57 32
18889 378 350 24
18890 378 49 83
18891 378 115 45
18892 378 265 54
18893 378 120 74
18894 378 240 87
18895 378 250 34
18896 378 282 38
18897 378 144 61
18898 378 110 3
18899 378 45 19
18900 378 1 66
18901 378 320 70
18902 378 127 60
18903 378 33 46
18904 378 153 84
18905 378 34 66
18906 378 363 1
18907 378 133 7
18908 378 126 13
18909 378 67 35
18910 378 248 40
18911 378 257 89
18912 378 347 84
18913 378 86 60
18914 378 157 55
18915 378 244 22
18916 378 76 81
18917 378 0 23
18918 378 357 32
18919 379 384 69
18920 379 322 15
18921 379 71 74
18922 379 91 29
18923 379 153 60
18924 379 30 77
18925 379 197 50
18926 379 278 46
18927 379 12 3
18928 379 125 67
18929 379 86 39
18930 379 5 89
18931 379 57 67
18932 379 14 8
18933 379 308 99
18934 379 295 12
18935 379 238 80
18936 379 172 67
18937 379 185 46
18938 379 140 70
18939 379 118 98
18940 379 386 80
18941 379 343 39
18942 379 17 39
18943 379 19 79
18944 379 316 5
18945 379 127 78
18946 379 334 84
18947 379 320 30
18948 379 124 84
18949 379 353 45
18950 379 335 75
18951 379 148 50
18952 379 398 19
18953 379 265 21
18954 379 49 72
18955 379 89 44
18956 379 26 38
18957 379 106 4
18958 379 385 56
18959 379 18 61
18960 379 254 70
18961 379 355 20
18962 379 339 50
18963 379 287 83
18964 379 16 28
18965 379 309 96
18966 379 24 58
18967 379 195 27
18968 379 336 84
18969 379 368 42
18970 379 175 24
18971 379 76 57
18972 379 312 30
18973 379 366 81
18974 379 218 37
18975 379 48 26
18976 379 342 29
18977 379 181 36
18978 379 286 63
18979 379 360 81
18980 379 117 91
18981 380 345 19
18982 380 270 48
18983 380 309 48
18984 380 275 51
18985 380 173 82
18986 380 343 5
18987 380 247 98
18988 380 87 94
18989 380 40 32
18990 380 197 100
18991 380 272 2
18992 380 389 17
18993 380 321 1
18994 380 4 69
18995 380 151 2
18996 380 336 45
18997 380 153 52
18998 380 384 68
18999 380 312 5
19000 380 261 18
19001 380 281 68
19002 380 392 48
19003 380 38 27
19004 380 310 35
19005 380 372 63
19006 380 290 15
19007 380 257 58
19008 380 192 35
19009 380 229 40
19010 380 233 38
19011 380 279 37
19012 380 190 78
19013 380 104 10
19014 380 123 22
19015 380 66 88
19016 380 289 65
19017 380 164 47
19018 380 361 5
19019 380 95 37
19020 380 43 7
19021 380 378 53
19022 380 186 93
19023 380 230 12
19024 380 245 68
19025 380 382 68
19026 380 51 8
19027 380 213 37
19028 380 125 60
19029 380 19 16
19030 380 203 60
19031 380 3 82
19032 380 83 68
19033 380 218 51
19034 380 107 16
19035 381 149 46
19036 381 272 50
19037 381 141 29
19038 381 126 92
19039 381 257 82
19040 381 2 34
19041 381 365 33
19042 381 267 20
19043 381 300 96
19044 381 194 41
19045 381 358 92
19046 381 314 35
19047 381 393 4
19048 381 24 99
19049 381 13 56
19050 381 262 7
19051 381 110 33
19052 381 189 31
19053 381 335 94
19054 381 170 99
19055 381 321 61
19056 381 379 69
19057 381 150 19
19058 381 212 90
19059 381 203 99
19060 381 22 21
19061 381 280 14
19062 381 112 58
19063 381 316 81
19064 381 0 12
19065 381 68 61
19066 381 384 95
19067 381 347 21
19068 381 172 15
19069 381 222 76
19070 381 205 25
19071 381 36 7
19072 381 50 47
19073 381 17 74
19074 381 278 2
19075 381 41 52
19076 381 377 100
19077 381 85 57
19078 381 57 45
19079 381 344 73
19080 381 76 86
19081 381 37 82
19082 381 190 91
19083 381 180 19
19084 381 233 44
19085 381 148 82
19086 381 223 93
19087 382 346 51
19088 382 390 56
19089 382 171 57
19090 382 209 27
19091 382 254 37
19092 382 118 75
19093 382 375 90
19094 382 320 2
19095 382 387 78
19096 382 83 91
19097 382 262 97
19098 382 255 7
19099 382 72 3
19100 382 264 36
19101 382 54 97
19102 382 327 57
19103 382 349 64
19104 382 241 76
19105 382 91 38
19106 382 364 89
19107 382 132 85
19108 382 17 9
19109 382 6 51
19110 382 362 85
19111 382 40 76
19112 382 286 90
19113 382 142 50
19114 382 116 62
19115 382 19 53
19116 382 74 59
19117 382 383 69
19118 382 182 16
19119 382 235 61
19120 382 179 56
19121 382 107 59
19122 382 0 33
19123 382 351 78
19124 382 290 90
19125 382 360 86
19126 382 134 78
19127 383 362 58
19128 383 66 55
19129 383 309 99
19130 383 241 57
19131 383 262 87
19132 383 194 80
19133 383 20 61
19134 383 253 56
19135 383 361 65
19136 383 373 14
19137 383 223 81
19138 383 252 40
19139 383 21 90
19140 383 352 25
19141 383 106 51
19142 383 240 96
19143 383 372 58
19144 383 16 31
19145 383 228 56
19146 383 277 32
19147 383 380 25
19148 383 395 30
19149 383 317 31
19150 383 151 37
19151 383 213 10
19152 383 190 70
19153 383 326 73
19154 383 35 24
19155 383 389 4
19156 383 378 78
19157 383 350 10
19158 383 104 38
19159 383 14 94
19160 383 142 38
19161 383 205 70
19162 383 37 83
19163 383 74 78
19164 383 258 50
19165 383 379 48
19166 383 80 75
19167 383 121 68
19168 383 285 90
19169 383 5 63
19170 383 396 15
19171 383 275 12
19172 383 59 66
19173 383 388 98
19174 383 88 39
19175 383 327 7
19176 384 70 1
19177 384 242 3
19178 384 349 17
19179 384 356 57
19180 384 166 41
19181 384 200 40
19182 384 34 13
19183 384 240 99
19184 384 142 98
19185 384 257 85
19186 384 320 70
19187 384 202 64
19188 384 241 28
19189 384 302 5
19190 384 3 69
19191 384 64 43
19192 384 16 48
19193 384 301 82
19194 384 312 81
19195 384 137 72
19196 384 343 33
19197 384 138 88
19198 384 360 55
19199 384 204 83
19200 384 213 47
19201 384 313 22
19202 384 271 67
19203 384 273 50
19204 384 220 47
19205 384 100 14
19206 384 79 43
19207 384 112 72
19208 384 163 37
19209 384 264 16
19210 384 331 95
19211 384 249 73
19212 384 158 41
19213 384 340 43
19214 384 129 9
19215 384 319 98
19216 384 223 84
19217 384 90 47
19218 384 365 91
19219 384 191 13
19220 384 173 60
19221 384 203 18
19222 384 76 1
19223 384 304 11
19224 384 72 26
19225 384 57 42
19226 384 322 31
19227 385 344 7
19228 385 313 71
19229 385 136 8
19230 385 315 92
19231 385 326 58
19232 385 290 13
19233 385 26 32
19234 385 169 14
19235 385 364 32
19236 385 143 2
19237 385 310 73
19238 385 386 36
19239 385 27 55
19240 385 54 78
19241 385 373 22
19242 385 292 52
19243 385 192 78
19244 385 2 84
19245 385 15 55
19246 385 160 21
19247 385 22 3
19248 385 222 16
19249 385 40 17
19250 385 374 2
19251 385 76 18
19252 385 340 69
19253 385 302 20
19254 385 89 46
19255 385 329 4
19256 385 253 15
19257 385 190 44
19258 385 322 88
19259 385 4 82
19260 385 199 1
19261 385 251 41
19262 385 79 44
19263 385 156 78
19264 385 278 79
19265 386 136 94
19266 386 375 49
19267 386 361 75
19268 386 360 58
19269 386 124 27
19270 386 330 61
19271 386 275 100
19272 386 15 38
19273 386 67 97
19274 386 208 19
19275 386 192 1
19276 386 184 51
19277 386 153 59
19278 386 97 92
19279 386 263 98
19280 386 198 30
19281 386 126 100
19282 386 65 46
19283 386 293 11
19284 386 276 19
19285 386 363 87
19286 386 280 59
19287 386 308 54
19288 386 30 90
19289 386 112 12
19290 386 248 23
19291 386 172 65
19292 386 203 54
19293 386 284 30
19294 386 356 42
19295 386 317 9
19296 386 266 54
19297 386 260 84
19298 386 193 15
19299 386 237 81
19300 386 23 99
19301 386 297 38
19302 386 306 89
19303 386 199 7
19304 386 80 46
19305 386 141 46
19306 386 163 53
19307 386 88 66
19308 386 200 37
19309 386 106 93
19310 386 41 92
19311 386 246 92
19312 386 159 22
19313 386 349 73
19314 386 3 49
19315 386 196 24
19316 386 51 67
19317 387 19 31
19318 387 81 41
19319 387 52 45
19320 387 90 47
19321 387 70 48
19322 387 80 43
19323 387 67 32
19324 387 14 48
19325 387 210 46
19326 387 282 26
19327 387 385 75
19328 387 137 52
19329 387 305 76
19330 387 397 87
19331 387 355 59
19332 387 253 64
19333 387 42 21
19334 387 193 32
19335 387 359 22
19336 387 201 90
19337 387 364 50
19338 387 335 38
19339 387 322 11
19340 387 399 69
19341 387 301 86
19342 387 68 10
19343 387 45 66
19344 387 275 100
19345 387 79 25
19346 387 238 35
19347 387 101 84
19348 387 257 57
19349 387 31 89
19350 387 184 5
19351 387 168 4
19352 387 132 17
19353 387 180 42
19354 387 69 25
19355 387 309 76
19356 387 308 33
19357 387 115 83
19358 387 241 56
19359 387 276 71
19360 387 310 88
19361 387 74 94
19362 387 195 79
19363 387 390 48
19364 387 160 84
19365 387 380 74
19366 387 0 100
19367 387 358 54
19368 388 208 97
19369 388 99 7
19370 388 205 93
19371 388 18 81
19372 388 150 69
19373 388 30 80
19374 388 144 42
19375 388 100 25
19376 388 277 69
19377 388 245 57
19378 388 314 57
19379 388 399 22
19380 388 137 18
19381 388 96 40
19382 388 66 23
19383 388 341 70
19384 388 39 67
19385 388 161 96
19386 388 92 82
19387 388 273 90
19388 388 327 39
19389 388 285 4
19390 388 187 61
19391 388 53 8
19392 388 373 65
19393 388 309 4
19394 388 220 16
19395 388 147 49
19396 388 346 33
19397 388 136 66
19398 388 246 62
19399 388 188 83
19400 388 243 50
19401 388 75 13
19402 388 356 45
19403 389 393 97
19404 389 377 6
19405 389 179 57
19406 389 243 20
19407 389 295 48
19408 389 60 65
19409 389 46 79
19410 389 148 64
19411 389 187 62
19412 389 162 38
19413 389 141 99
19414 389 367 87
19415 389 33 84
19416 389 267 86
19417 389 376 1
19418 389 265 37
19419 389 7 91
19420 389 348 28
19421 389 134 76
19422 389 149 94
19423 389 165 55
19424 389 309 99
19425 389 315 72
19426 389 356 36
19427 389 121 84
19428 389 175 60
19429 389 313 8
19430 389 170 28
19431 389 239 12
19432 389 4 12
19433 389 74 68
19434 389 39 13
19435 389 300 30
19436 389 256 2
19437 389 48 79
19438 389 5 85
19439 389 358 14
19440 389 135 71
19441 389 207 36
19442 389 110 95
19443 389 397 95
19444 389 248 46
19445 389 32 10
19446 389 185 36
19447 389 272 88
19448 389 347 28
19449 389 172 1
19450 389 359 85
19451 389 197 75
19452 389 217 9
19453 389 152 22
19454 389 318 88
19455 390 234 68
19456 390 299 52
19457 390 331 79
19458 390 173 22
19459 390 81 98
19460 390 197 67
19461 390 123 62
19462 390 215 50
19463 390 33 85
19464 390 305 97
19465 390 287 16
19466 390 364 33
19467 390 109 48
19468 390 142 30
19469 390 291 43
19470 390 358 77
19471 390 77 7
19472 390 230 47
19473 390 252 83
19474 390 296 86
19475 390 38 43
19476 390 95 99
19477 390 355 88
19478 390 226 8
19479 390 214 36
19480 390 155 19
19481 390 124 36
19482 390 251 90
19483 390 117 51
19484 390 348 11
19485 390 9 63
19486 390 99 72
19487 390 385 88
19488 390 48 67
19489 390 55 21
19490 390 61 52
19491 390 29 85
19492 390 19 87
19493 390 356 79
19494 390 152 52
19495 390 263 5
19496 390 233 23
19497 390 376 50
19498 390 102 80
19499 390 395 60
19500 390 165 51
19501 390 283 29
19502 390 211 55
19503 390 122 94
19504 390 239 94
19505 390 126 52
19506 390 346 60
19507 390 250 20
19508 391 293 26
19509 391 0 62
19510 391 170 34
19511 391 36 59
19512 391 395 96
19513 391 347 67
19514 391 348 36
19515 391 55 87
19516 391 377 25
19517 391 309 18
19518 391 53 61
19519 391 149 19
19520 391 369 51
19521 391 78 64
19522 391 26 2
19523 391 214 15
19524 391 179 47
19525 391 66 80
19526 391 355 92
19527 391 107 66
19528 391 353 98
19529 391 47 73
19530 391 232 1
19531 391 310 22
19532 391 273 1
19533 391 342 93
19534 391 52 15
19535 391 69 26
19536 391 194 83
19537 391 261 53
19538 391 79 43
19539 391 32 38
19540 391 311 97
19541 391 160 70
19542 391 205 68
19543 391 116 25
19544 391 41 83
19545 391 28 87
19546 391 158 47
19547 391 100 76
19548 391 20 9
19549 391 262 88
19550 391 196 44
19551 391 350 74
19552 391 94 84
19553 391 141 83
19554 391 167 53
19555 391 249 32
19556 391 76 6
19557 391 184 68
19558 391 135 75
19559 391 259 42
19560 391 298 57
19561 391 70 92
19562 391 80 71
19563 391 340 60
19564 392 139 9
19565 392 93 28
19566 392 221 90
19567 392 344 47
19568 392 68 86
19569 392 66 83
19570 392 324 5
19571 392 294 43
19572 392 312 42
19573 392 78 22
19574 392 338 2
19575 392 257 62
19576 392 155 5
19577 392 254 26
19578 392 164 3
19579 392 330 3
19580 392 225 85
19581 392 247 81
19582 392 198 45
19583 392 245 36
19584 392 241 71
19585 392 358 100
19586 392 143 28
19587 392 219 90
19588 392 21 6
19589 392 382 93
19590 392 19 31
19591 392 218 90
19592 392 90 7
19593 392 322 89
19594 392 115 43
19595 392 375 19
19596 392 335 84
19597 392 55 25
19598 392 23 20
19599 392 193 50
19600 392 84 26
19601 392 238 46
19602 392 349 51
19603 392 36 38
19604 392 307 39
19605 392 207 31
19606 392 227 25
19607 392 4 52
19608 392 270 63
19609 392 169 15
19610 392 10 8
19611 392 279 14
19612 392 214 78
19613 392 102 98
19614 392 75 45
19615 392 244 88
19616 392 379 11
19617 392 199 38
19618 392 54 10
19619 392 331 70
19620 392 35 36
19621 392 239 67
19622 392 317 12
19623 393 193 20
19624 393 103 36
19625 393 327 31
19626 393 82 98
19627 393 44 11
19628 393 336 17
19629 393 285 58
19630 393 157 42
19631 393 373 93
19632 393 43 47
19633 393 152 84
19634 393 169 59
19635 393 96 48
19636 393 142 52
19637 393 77 94
19638 393 183 57
19639 393 392 89
19640 393 42 91
19641 393 6 75
19642 393 381 31
19643 393 194 57
19644 393 187 89
19645 393 146 62
19646 393 341 7
19647 393 337 52
19648 393 278 85
19649 393 140 51
19650 393 377 56
19651 393 271 13
19652 393 306 23
19653 393 340 80
19654 393 275 71
19655 393 156 93
19656 393 188 57
19657 393 369 74
19658 393 111 85
19659 393 85 72
19660 393 117 57
19661 393 234 93
19662 393 304 93
19663 393 54 73
19664 393 372 77
19665 393 357 34
19666 393 61 26
19667 393 293 28
19668 393 395 69
19669 394 65 47
19670 394 195 33
19671 394 348 46
19672 394 32 74
19673 394 336 89
19674 394 33 81
19675 394 291 88
19676 394 259 80
19677 394 53 79
19678 394 197 79
19679 394 384 42
19680 394 66 42
19681 394 217 92
19682 394 91 60
19683 394 185 77
19684 394 376 55
19685 394 59 44
19686 394 112 82
19687 394 388 97
19688 394 79 10
19689 394 354 38
19690 394 86 73
19691 394 342 38
19692 394 187 91
19693 394 397 92
19694 394 292 99
19695 394 205 56
19696 394 103 98
19697 394 350 69
19698 394 231 5
19699 394 331 12
19700 394 141 2
19701 394 243 34
19702 394 276 56
19703 394 393 58
19704 394 319 40
19705 394 323 48
19706 394 31 60
19707 394 352 64
19708 394 64 10
19709 394 98 78
19710 394 21 16
19711 394 125 84
19712 394 173 75
19713 394 182 29
19714 394 377 27
19715 394 56 65
19716 394 357 26
19717 394 306 9
19718 394 208 86
19719 394 246 69
19720 394 260 31
19721 394 296 37
19722 394 177 67
19723 394 142 69
19724 394 124 38
19725 394 277 71
19726 394 379 49
19727 394 76 50
19728 394 144 30
19729 394 196 82
19730 394 121 89
19731 394 280 83
19732 394 360 100
19733 395 329 68
19734 395 254 72
19735 395 396 67
19736 395 7 10
19737 395 261 41
19738 395 1 1
19739 395 9 27
19740 395 394 59
19741 395 18 98
19742 395 295 70
19743 395 102 43
19744 395 380 94
19745 395 236 100
19746 395 62 71
19747 395 103 42
19748 395 64 63
19749 395 10 30
19750 395 50 97
19751 395 0 68
19752 395 39 35
19753 395 270 48
19754 395 67 38
19755 395 348 28
19756 395 350 13
19757 395 49 7
19758 395 131 47
19759 395 282 55
19760 395 186 56
19761 395 362 53
19762 395 271 21
19763 395 257 39
19764 395 139 99
19765 395 151 19
19766 395 317 19
19767 395 237 60
19768 395 40 34
19769 395 391 9
19770 395 170 81
19771 395 107 63
19772 395 266 52
19773 395 25 89
19774 395 277 24
19775 395 38 4
19776 395 108 98
19777 395 235 70
19778 395 379 9
19779 395 54 73
19780 396 257 91
19781 396 112 21
19782 396 79 3
19783 396 352 87
19784 396 299 41
19785 396 276 64
19786 396 286 66
19787 396 9 98
19788 396 275 47
19789 396 320 40
19790 396 22 19
19791 396 329 22
19792 396 94 17
19793 396 386 37
19794 396 242 23
19795 396 73 46
19796 396 346 3
19797 396 343 11
19798 396 126 84
19799 396 8 29
19800 396 149 40
19801 396 231 80
19802 396 263 69
19803 396 17 62
19804 396 229 53
19805 396 345 89
19806 396 121 90
19807 396 315 28
19808 396 357 21
19809 396 211 18
19810 396 155 70
19811 396 219 49
19812 396 258 100
19813 396 134 44
19814 396 303 17
19815 396 175 6
19816 396 314 40
19817 396 174 15
19818 396 140 32
19819 396 331 98
19820 396 272 100
19821 396 339 83
19822 396 359 70
19823 396 39 64
19824 396 248 57
19825 396 58 75
19826 396 23 43
19827 396 358 7
19828 396 237 32
19829 396 76 84
19830 396 375 2
19831 396 371 42
19832 396 75 84
19833 397 342 92
19834 397 380 16
19835 397 153 4
19836 397 332 41
19837 397 12 5
19838 397 310 76
19839 397 279 40
19840 397 353 88
19841 397 176 73
19842 397 142 62
19843 397 189 57
19844 397 110 20
19845 397 230 48
19846 397 37 39
19847 397 170 92
19848 397 127 8
19849 397 84 19
19850 397 80 93
19851 397 331 76
19852 397 183 79
19853 397 324 69
19854 397 159 22
19855 397 308 79
19856 397 118 31
19857 397 293 67
19858 397 392 88
19859 397 117 22
19860 397 83 32
19861 397 388 22
19862 397 289 5
19863 397 382 37
19864 397 243 15
19865 397 22 37
19866 397 190 44
19867 397 345 78
19868 397 212 13
19869 397 204 3
19870 397 81 18
19871 397 99 58
19872 397 115 34
19873 397 323 69
19874 397 267 81
19875 397 264 87
19876 397 201 80
19877 397 63 62
19878 397 304 48
19879 397 146 17
19880 397 87 40
19881 397 43 27
19882 397 297 54
19883 397 29 13
19884 397 245 49
19885 397 285 79
19886 397 296 49
19887 397 343 56
19888 398 230 17
19889 398 356 69
19890 398 75 80
19891 398 250 4
19892 398 41 53
19893 398 371 77
19894 398 7 56
19895 398 232 65
19896 398 110 30
19897 398 158 11
19898 398 329 32
19899 398 394 4
19900 398 340 85
19901 398 48 75
19902 398 273 74
19903 398 252 68
19904 398 350 57
19905 398 272 69
19906 398 313 54
19907 398 140 18
19908 398 278 90
19909 398 275 58
19910 398 225 89
19911 398 50 77
19912 398 361 17
19913 398 203 21
19914 398 18 9
19915 398 341 25
19916 398 364 4
19917 398 291 10
19918 398 315 61
19919 398 70 23
19920 398 79 28
19921 398 153 61
19922 398 262 83
19923 398 143 31
19924 398 391 79
19925 398 128 36
19926 398 257 30
19927 398 383 38
19928 398 163 81
19929 398 376 22
19930 398 226 14
19931 398 95 94
19932 398 199 22
19933 398 17 8
19934 398 105 55
19935 398 179 21
19936 398 277 82
19937 398 178 41
19938 398 120 99
19939 398 331 45
19940 398 53 23
19941 398 35 65
19942 399 64 97
19943 399 128 3
19944 399 275 14
19945 399 296 100
19946 399 365 71
19947 399 124 24
19948 399 173 17
19949 399 13 59
19950 399 297 11
19951 399 104 90
19952 399 127 8
19953 399 339 75
19954 399 300 90
19955 399 118 3
19956 399 322 99
19957 399 136 41
19958 399 71 95
19959 399 264 44
19960 399 164 90
19961 399 41 35
19962 399 105 37
19963 399 323 86
19964 399 129 76
19965 399 139 16
19966 399 230 35
19967 399 342 15
19968 399 234 25
19969 399 214 90
19970 399 111 61
19971 399 287 73
19972 399 113 67
19973 399 294 29
19974 399 62 59
19975 399 285 40
19976 399 37 18
19977 399 345 59
19978 399 5 80
19979 399 189 15
19980 399 368 43
19981 399 318 29
19982 399 331 94
19983 399 125 29
19984 399 193 41
19985 399 361 32
19986 399 338 8
19987 399 87 28
19988 399 68 28
19989 399 220 34
19990 399 190 79
19991 399 292 75
19992 399 99 55
19993 399 393 56
19994 399 141 3
19995 399 84 91
19996 399 340 70
19997 399 186 63
19998 399 219 48
19999 399 370 52
