0 0 776 55
1 0 417 50
2 0 54 47
3 0 154 100
4 0 448 14
5 0 116 50
6 0 738 81
7 0 625 55
8 0 812 67
9 0 29 1
10 0 496 62
11 0 817 25
12 0 627 78
13 0 760 49
14 0 701 41
15 0 953 3
16 0 243 84
17 0 269 33
18 0 903 53
19 0 214 18
20 0 3 68
21 0 260 98
22 0 241 95
23 0 284 71
24 0 940 45
25 0 872 46
26 0 342 87
27 0 46 57
28 0 396 5
29 0 926 56
30 0 531 89
31 0 752 87
32 0 345 41
33 0 205 53
34 0 784 7
35 0 837 33
36 0 710 85
37 0 714 59
38 0 660 49
39 0 856 90
40 0 63 62
41 0 469 93
42 0 827 78
43 0 720 30
44 0 421 58
45 0 36 76
46 0 804 64
47 0 537 47
48 0 78 55
49 0 675 68
50 0 963 72
51 0 668 56
52 0 876 65
53 1 276 22
54 1 389 23
55 1 203 47
56 1 975 20
57 1 217 32
58 1 824 37
59 1 914 84
60 1 673 90
61 1 36 84
62 1 659 76
63 1 838 38
64 1 597 43
65 1 691 34
66 1 320 50
67 1 407 26
68 1 694 23
69 1 338 36
70 1 445 12
71 1 923 82
72 1 536 48
73 1 524 22
74 1 332 70
75 1 8 38
76 1 853 30
77 1 74 76
78 1 76 38
79 1 499 94
80 1 771 68
81 1 278 22
82 1 712 73
83 1 145 24
84 1 298 84
85 1 529 57
86 1 95 98
87 1 907 2
88 1 968 45
89 1 580 53
90 1 990 32
91 1 371 70
92 1 114 96
93 1 562 24
94 1 361 68
95 1 25 57
96 1 446 45
97 1 801 96
98 1 509 97
99 1 765 75
100 2 450 9
101 2 32 77
102 2 9 40
103 2 314 86
104 2 184 51
105 2 345 5
106 2 850 19
107 2 543 3
108 2 265 93
109 2 853 59
110 2 770 6
111 2 429 19
112 2 294 57
113 2 722 30
114 2 367 76
115 2 529 29
116 2 285 46
117 2 321 63
118 2 629 47
119 2 720 23
120 2 414 18
121 2 4 60
122 2 676 98
123 2 650 35
124 2 815 14
125 2 196 15
126 2 663 53
127 2 748 28
128 2 640 97
129 2 319 39
130 2 787 31
131 2 410 44
132 2 884 55
133 2 50 74
134 2 480 90
135 2 746 19
136 2 816 7
137 2 953 84
138 2 513 73
139 2 329 8
140 2 834 53
141 2 81 64
142 2 80 24
143 2 837 16
144 2 41 78
145 2 489 55
146 2 525 4
147 2 904 3
148 2 524 79
149 2 138 72
150 2 849 66
151 2 253 55
152 2 274 39
153 2 892 99
154 2 783 64
155 2 445 26
156 2 73 69
157 2 694 89
158 2 271 74
159 2 441 51
160 2 587 32
161 2 392 19
162 2 618 61
163 2 939 84
164 2 83 21
165 2 315 19
166 3 436 25
167 3 469 99
168 3 899 84
169 3 121 14
170 3 690 47
171 3 321 50
172 3 602 87
173 3 269 39
174 3 892 64
175 3 878 53
176 3 575 59
177 3 419 88
178 3 106 6
179 3 975 51
180 3 773 86
181 3 38 69
182 3 421 17
183 3 872 82
184 3 621 14
185 3 74 86
186 3 28 43
187 3 533 95
188 3 37 20
189 3 414 77
190 3 61 65
191 3 98 2
192 3 595 75
193 3 998 13
194 3 929 18
195 3 542 25
196 3 763 37
197 3 398 90
198 3 852 35
199 3 560 97
200 3 984 84
201 3 323 73
202 3 909 28
203 3 757 33
204 3 671 92
205 3 862 21
206 3 893 29
207 3 949 92
208 3 615 30
209 3 194 15
210 3 57 43
211 3 554 91
212 3 571 68
213 3 839 9
214 3 523 76
215 3 272 74
216 3 342 26
217 3 661 9
218 4 33 92
219 4 531 70
220 4 361 5
221 4 816 41
222 4 483 93
223 4 42 57
224 4 325 47
225 4 742 47
226 4 83 14
227 4 73 83
228 4 96 50
229 4 326 3
230 4 197 97
231 4 123 22
232 4 191 3
233 4 185 1
234 4 745 3
235 4 268 67
236 4 960 78
237 4 967 55
238 4 22 24
239 4 756 30
240 4 600 98
241 4 105 38
242 4 170 13
243 4 970 81
244 4 323 53
245 4 25 4
246 4 996 71
247 4 563 21
248 4 764 80
249 4 670 31
250 4 263 59
251 4 293 89
252 4 424 47
253 4 514 97
254 4 714 81
255 4 613 62
256 4 662 90
257 4 610 3
258 4 854 20
259 4 7 90
260 4 920 39
261 4 337 96
262 4 696 72
263 4 459 26
264 4 32 49
265 4 399 31
266 4 550 86
267 4 596 13
268 4 782 63
269 4 258 72
270 4 313 89
271 4 571 78
272 4 974 25
273 4 553 25
274 5 877 29
275 5 372 58
276 5 154 3
277 5 219 79
278 5 388 23
279 5 964 91
280 5 612 100
281 5 968 18
282 5 986 36
283 5 741 63
284 5 531 51
285 5 282 61
286 5 804 48
287 5 529 99
288 5 786 44
289 5 604 69
290 5 414 81
291 5 445 31
292 5 708 34
293 5 34 13
294 5 429 72
295 5 82 15
296 5 713 37
297 5 297 72
298 5 763 50
299 5 821 13
300 5 805 100
301 5 549 40
302 5 503 44
303 5 83 99
304 5 190 82
305 5 736 20
306 5 909 14
307 5 682 90
308 5 761 38
309 5 304 1
310 5 21 62
311 5 300 14
312 5 49 78
313 5 91 57
314 5 489 97
315 5 684 86
316 5 570 76
317 5 539 53
318 5 941 78
319 5 387 92
320 5 640 8
321 5 733 90
322 5 3 24
323 5 930 19
324 5 37 22
325 5 643 81
326 5 652 59
327 5 649 48
328 5 911 5
329 5 557 27
330 5 451 5
331 6 357 37
332 6 30 37
333 6 355 78
334 6 834 24
335 6 901 79
336 6 50 20
337 6 100 63
338 6 766 43
339 6 622 15
340 6 194 58
341 6 888 25
342 6 253 32
343 6 541 54
344 6 569 63
345 6 623 60
346 6 135 83
347 6 665 11
348 6 80 56
349 6 49 77
350 6 103 100
351 6 259 31
352 6 258 66
353 6 416 13
354 6 628 50
355 6 687 35
356 6 277 8
357 6 816 33
358 6 645 74
359 6 795 24
360 6 551 52
361 6 518 91
362 6 179 29
363 6 362 68
364 6 399 42
365 6 313 77
366 6 510 11
367 6 756 54
368 6 252 61
369 6 188 14
370 6 172 27
371 6 173 75
372 6 783 87
373 6 929 15
374 6 654 71
375 6 286 53
376 6 785 31
377 6 52 91
378 6 615 57
379 6 727 39
380 6 627 22
381 6 284 14
382 6 554 2
383 6 41 62
384 6 288 74
385 6 118 61
386 6 832 47
387 6 970 79
388 6 677 98
389 6 807 52
390 6 538 27
391 6 778 38
392 7 61 47
393 7 512 85
394 7 971 85
395 7 714 55
396 7 739 61
397 7 277 8
398 7 234 84
399 7 891 51
400 7 634 4
401 7 226 9
402 7 137 69
403 7 672 49
404 7 297 41
405 7 81 77
406 7 263 85
407 7 311 29
408 7 623 48
409 7 699 99
410 7 784 60
411 7 690 19
412 7 69 16
413 7 91 42
414 7 667 54
415 7 84 9
416 7 565 66
417 7 320 74
418 7 148 13
419 7 694 62
420 7 355 77
421 7 52 68
422 7 281 56
423 7 773 82
424 7 989 81
425 7 959 93
426 7 72 83
427 7 413 69
428 7 371 58
429 7 840 28
430 7 668 35
431 7 524 3
432 7 493 84
433 7 278 79
434 7 32 38
435 7 579 9
436 7 622 14
437 8 371 49
438 8 701 82
439 8 699 77
440 8 423 59
441 8 737 86
442 8 255 33
443 8 19 49
444 8 897 25
445 8 754 46
446 8 758 49
447 8 32 58
448 8 414 76
449 8 766 34
450 8 7 47
451 8 942 56
452 8 739 40
453 8 469 86
454 8 452 54
455 8 795 74
456 8 76 24
457 8 784 57
458 8 400 97
459 8 297 54
460 8 644 67
461 8 39 1
462 8 938 55
463 8 292 41
464 8 777 40
465 8 177 27
466 8 393 99
467 8 814 40
468 8 733 65
469 8 803 49
470 8 556 80
471 8 380 56
472 8 282 10
473 8 408 68
474 8 543 57
475 8 640 79
476 8 101 21
477 8 341 39
478 8 301 89
479 8 645 67
480 8 480 18
481 9 105 55
482 9 334 23
483 9 152 35
484 9 585 54
485 9 705 70
486 9 415 38
487 9 996 2
488 9 438 40
489 9 579 11
490 9 765 47
491 9 254 86
492 9 682 83
493 9 300 18
494 9 172 69
495 9 262 18
496 9 327 62
497 9 692 5
498 9 921 83
499 9 349 50
500 9 71 42
501 9 324 58
502 9 637 81
503 9 599 19
504 9 638 8
505 9 900 63
506 9 360 34
507 9 856 90
508 9 884 35
509 9 402 37
510 9 76 35
511 9 489 35
512 9 14 98
513 9 985 54
514 9 845 84
515 9 570 29
516 9 941 61
517 9 64 15
518 9 340 3
519 9 920 69
520 10 11 14
521 10 892 20
522 10 663 25
523 10 355 91
524 10 829 97
525 10 397 80
526 10 826 8
527 10 292 14
528 10 77 49
529 10 633 28
530 10 469 63
531 10 495 76
532 10 531 7
533 10 875 31
534 10 683 67
535 10 294 23
536 10 616 82
537 10 553 13
538 10 584 1
539 10 443 59
540 10 453 71
541 10 478 6
542 10 325 53
543 10 681 74
544 10 448 2
545 10 932 33
546 10 938 16
547 10 739 12
548 10 81 73
549 10 500 31
550 10 893 3
551 10 619 47
552 10 2 18
553 10 286 34
554 10 855 38
555 10 283 12
556 10 458 48
557 10 607 35
558 10 242 89
559 10 358 60
560 10 148 100
561 10 356 90
562 10 557 42
563 10 686 89
564 10 925 58
565 10 181 39
566 10 212 21
567 11 963 48
568 11 158 4
569 11 734 28
570 11 738 35
571 11 592 91
572 11 77 26
573 11 192 76
574 11 837 42
575 11 650 76
576 11 349 2
577 11 222 25
578 11 366 12
579 11 666 66
580 11 332 10
581 11 216 55
582 11 27 100
583 11 579 57
584 11 487 14
585 11 485 18
586 11 950 38
587 11 789 44
588 11 166 77
589 11 648 7
590 11 541 52
591 11 968 54
592 11 989 85
593 11 908 56
594 11 347 58
595 11 311 58
596 11 451 60
597 11 89 100
598 11 654 85
599 11 362 62
600 11 651 86
601 11 898 42
602 11 895 98
603 11 103 45
604 11 383 97
605 11 987 74
606 11 545 84
607 11 493 44
608 11 300 41
609 11 232 18
610 11 953 16
611 11 567 10
612 11 100 75
613 11 698 32
614 12 611 34
615 12 592 65
616 12 268 11
617 12 972 4
618 12 997 51
619 12 654 63
620 12 48 58
621 12 428 29
622 12 906 84
623 12 440 13
624 12 812 42
625 12 782 61
626 12 487 61
627 12 775 80
628 12 553 63
629 12 706 52
630 12 596 79
631 12 849 84
632 12 41 93
633 12 510 40
634 12 269 57
635 12 982 92
636 12 844 63
637 12 621 98
638 12 884 55
639 12 477 45
640 12 114 17
641 12 689 2
642 12 974 3
643 12 129 95
644 12 433 10
645 12 20 53
646 12 543 51
647 12 707 40
648 12 838 49
649 12 53 93
650 12 225 48
651 12 902 89
652 12 133 3
653 12 234 65
654 12 415 70
655 12 378 12
656 12 149 1
657 12 537 55
658 12 967 84
659 12 895 3
660 12 163 32
661 12 475 28
662 12 237 14
663 12 850 32
664 12 386 32
665 12 598 33
666 12 759 8
667 12 98 21
668 12 246 75
669 12 648 35
670 12 943 26
671 12 948 31
672 12 612 59
673 13 505 50
674 13 952 76
675 13 813 34
676 13 528 29
677 13 343 12
678 13 6 69
679 13 635 30
680 13 295 27
681 13 599 53
682 13 640 48
683 13 258 71
684 13 507 32
685 13 106 77
686 13 183 21
687 13 473 88
688 13 807 67
689 13 627 44
690 13 595 68
691 13 164 40
692 13 384 36
693 13 994 34
694 13 340 88
695 13 227 96
696 13 808 87
697 13 299 47
698 13 308 56
699 13 364 36
700 13 325 96
701 13 563 7
702 13 136 78
703 13 495 47
704 13 489 7
705 13 728 8
706 13 699 37
707 13 174 97
708 13 451 3
709 13 273 7
710 13 780 46
711 13 793 16
712 13 427 17
713 13 62 73
714 13 842 41
715 13 853 20
716 13 833 97
717 13 554 88
718 14 919 54
719 14 325 11
720 14 474 81
721 14 975 7
722 14 881 47
723 14 698 63
724 14 3 90
725 14 461 46
726 14 677 72
727 14 164 60
728 14 533 69
729 14 957 8
730 14 657 21
731 14 67 50
732 14 713 32
733 14 52 68
734 14 286 14
735 14 102 48
736 14 523 21
737 14 56 71
738 14 394 49
739 14 237 71
740 14 891 36
741 14 800 31
742 14 79 82
743 14 720 90
744 14 625 71
745 14 277 40
746 14 670 43
747 14 705 21
748 14 684 74
749 14 338 99
750 14 835 100
751 14 948 100
752 14 370 16
753 14 285 25
754 15 305 31
755 15 870 69
756 15 89 1
757 15 72 22
758 15 894 56
759 15 964 32
760 15 610 30
761 15 628 10
762 15 662 80
763 15 122 24
764 15 971 75
765 15 741 93
766 15 560 34
767 15 703 77
768 15 851 20
769 15 534 40
770 15 682 78
771 15 80 37
772 15 722 61
773 15 702 11
774 15 772 24
775 15 822 96
776 15 509 54
777 15 437 100
778 15 167 70
779 15 910 19
780 15 411 43
781 15 635 74
782 15 914 34
783 15 499 57
784 15 797 27
785 15 771 6
786 15 460 7
787 15 531 19
788 15 142 94
789 15 474 65
790 15 277 11
791 15 370 21
792 15 10 4
793 15 302 3
794 15 431 88
795 15 254 53
796 15 408 58
797 15 405 1
798 15 960 75
799 16 861 81
800 16 472 38
801 16 39 82
802 16 809 46
803 16 561 42
804 16 222 84
805 16 209 6
806 16 370 12
807 16 733 32
808 16 777 80
809 16 244 33
810 16 151 15
811 16 138 85
812 16 338 76
813 16 601 28
814 16 896 24
815 16 194 2
816 16 609 89
817 16 766 57
818 16 486 84
819 16 658 23
820 16 440 48
821 16 554 100
822 16 143 79
823 16 647 52
824 16 269 57
825 16 759 59
826 16 3 95
827 16 630 38
828 16 994 42
829 16 346 99
830 16 215 94
831 16 65 29
832 16 343 81
833 16 315 5
834 16 289 67
835 16 393 62
836 16 576 87
837 16 166 94
838 16 969 40
839 16 698 33
840 16 134 62
841 16 936 92
842 16 403 2
843 16 757 94
844 16 265 54
845 16 512 13
846 16 181 35
847 17 958 31
848 17 458 29
849 17 995 99
850 17 87 96
851 17 651 18
852 17 50 72
853 17 870 94
854 17 536 6
855 17 772 57
856 17 113 5
857 17 742 79
858 17 956 30
859 17 135 43
860 17 949 45
861 17 69 7
862 17 240 89
863 17 639 93
864 17 171 23
865 17 2 64
866 17 416 42
867 17 9 62
868 17 356 85
869 17 752 73
870 17 169 89
871 17 73 65
872 17 999 90
873 17 952 27
874 17 668 4
875 17 755 70
876 17 705 40
877 17 168 48
878 17 241 65
879 17 516 86
880 17 196 77
881 17 451 54
882 17 305 63
883 17 338 87
884 17 703 38
885 17 235 61
886 17 951 70
887 17 594 85
888 17 714 73
889 17 744 50
890 17 977 61
891 17 964 58
892 17 541 43
893 17 401 28
894 17 518 88
895 17 326 84
896 17 759 48
897 17 847 88
898 18 105 55
899 18 89 29
900 18 489 28
901 18 886 39
902 18 94 15
903 18 325 31
904 18 967 64
905 18 455 69
906 18 730 87
907 18 36 10
908 18 457 65
909 18 628 9
910 18 514 21
911 18 576 40
912 18 710 48
913 18 622 26
914 18 143 85
915 18 279 8
916 18 751 68
917 18 774 18
918 18 386 52
919 18 494 73
920 18 184 13
921 18 22 30
922 18 304 78
923 18 221 55
924 18 609 79
925 18 619 56
926 18 949 42
927 18 7 18
928 18 122 72
929 18 383 72
930 18 512 2
931 18 167 49
932 18 677 24
933 18 248 71
934 18 178 100
935 18 744 4
936 18 26 28
937 18 379 80
938 18 873 84
939 18 49 88
940 18 115 82
941 18 246 94
942 18 793 1
943 18 253 60
944 19 200 81
945 19 943 29
946 19 948 69
947 19 866 71
948 19 426 61
949 19 99 38
950 19 248 86
951 19 107 87
952 19 227 54
953 19 681 49
954 19 366 84
955 19 906 91
956 19 759 2
957 19 444 19
958 19 721 44
959 19 590 74
960 19 119 73
961 19 14 31
962 19 731 66
963 19 499 52
964 19 794 95
965 19 494 76
966 19 639 52
967 19 963 98
968 19 43 13
969 19 290 39
970 19 133 64
971 19 724 3
972 19 814 78
973 19 961 41
974 19 763 74
975 19 355 60
976 19 193 73
977 19 247 29
978 19 400 95
979 19 810 35
980 19 204 68
981 19 12 56
982 19 175 67
983 19 123 25
984 19 1 37
985 19 512 22
986 19 847 93
987 19 94 99
988 19 855 29
989 19 699 48
990 19 838 32
991 19 209 26
992 19 646 72
993 20 693 97
994 20 117 51
995 20 511 96
996 20 528 28
997 20 746 38
998 20 254 80
999 20 3 15
1000 20 508 92
1001 20 150 87
1002 20 261 47
1003 20 976 50
1004 20 795 17
1005 20 484 1
1006 20 230 92
1007 20 544 84
1008 20 586 10
1009 20 834 70
1010 20 674 85
1011 20 696 34
1012 20 518 82
1013 20 874 91
1014 20 944 92
1015 20 18 5
1016 20 416 41
1017 20 737 8
1018 20 147 32
1019 20 239 49
1020 20 545 59
1021 20 603 86
1022 20 844 16
1023 20 600 71
1024 20 304 94
1025 20 194 34
1026 20 756 66
1027 20 994 28
1028 20 912 11
1029 20 453 14
1030 20 688 51
1031 21 826 24
1032 21 945 52
1033 21 981 1
1034 21 122 72
1035 21 921 70
1036 21 3 29
1037 21 684 68
1038 21 218 90
1039 21 709 94
1040 21 881 40
1041 21 368 42
1042 21 879 59
1043 21 341 35
1044 21 60 96
1045 21 235 95
1046 21 27 15
1047 21 147 5
1048 21 574 11
1049 21 421 50
1050 21 712 93
1051 21 795 28
1052 21 548 76
1053 21 605 7
1054 21 95 81
1055 21 597 37
1056 21 564 30
1057 21 463 42
1058 21 466 84
1059 21 425 47
1060 21 169 6
1061 21 239 12
1062 21 297 78
1063 21 799 3
1064 21 928 48
1065 21 568 34
1066 21 215 75
1067 21 612 39
1068 21 713 12
1069 21 552 72
1070 21 704 88
1071 21 794 41
1072 21 109 4
1073 21 560 22
1074 21 937 63
1075 21 588 49
1076 21 142 89
1077 21 786 79
1078 22 748 33
1079 22 107 54
1080 22 458 80
1081 22 762 76
1082 22 277 68
1083 22 849 2
1084 22 645 96
1085 22 203 46
1086 22 175 36
1087 22 82 25
1088 22 264 86
1089 22 860 34
1090 22 409 74
1091 22 363 82
1092 22 134 98
1093 22 867 97
1094 22 589 96
1095 22 213 22
1096 22 744 68
1097 22 460 66
1098 22 50 55
1099 22 68 71
1100 22 317 51
1101 22 811 6
1102 22 28 92
1103 22 102 70
1104 22 723 42
1105 22 283 78
1106 22 899 78
1107 22 991 50
1108 22 475 51
1109 22 830 53
1110 22 790 90
1111 22 242 14
1112 22 634 21
1113 22 508 19
1114 22 549 93
1115 22 728 62
1116 22 27 77
1117 22 501 19
1118 22 341 39
1119 23 576 89
1120 23 981 84
1121 23 85 12
1122 23 369 55
1123 23 153 35
1124 23 100 49
1125 23 185 85
1126 23 884 53
1127 23 253 29
1128 23 965 24
1129 23 250 38
1130 23 304 59
1131 23 289 16
1132 23 602 81
1133 23 975 5
1134 23 646 82
1135 23 285 23
1136 23 447 99
1137 23 882 56
1138 23 877 25
1139 23 598 11
1140 23 525 63
1141 23 957 55
1142 23 248 6
1143 23 123 45
1144 23 213 45
1145 23 694 35
1146 23 19 100
1147 23 73 92
1148 23 907 93
1149 23 717 4
1150 23 184 66
1151 23 628 56
1152 23 234 61
1153 23 320 1
1154 23 759 53
1155 23 62 36
1156 23 341 46
1157 23 386 1
1158 23 46 55
1159 23 995 30
1160 23 748 9
1161 23 620 38
1162 23 539 31
1163 23 423 4
1164 23 217 91
1165 23 211 4
1166 23 238 21
1167 24 224 10
1168 24 489 32
1169 24 97 5
1170 24 47 41
1171 24 381 92
1172 24 867 96
1173 24 141 30
1174 24 865 89
1175 24 56 24
1176 24 655 67
1177 24 739 88
1178 24 491 41
1179 24 506 57
1180 24 726 7
1181 24 475 14
1182 24 596 100
1183 24 624 59
1184 24 39 93
1185 24 704 76
1186 24 216 94
1187 24 539 94
1188 24 146 20
1189 24 540 12
1190 24 743 78
1191 24 109 7
1192 24 484 47
1193 24 637 58
1194 24 323 45
1195 24 415 78
1196 24 165 52
1197 24 652 78
1198 24 927 57
1199 24 152 1
1200 24 552 59
1201 24 124 35
1202 24 431 48
1203 24 170 11
1204 24 600 64
1205 24 699 18
1206 24 774 98
1207 24 125 74
1208 24 869 71
1209 24 882 42
1210 24 987 26
1211 24 697 56
1212 24 903 69
1213 24 718 62
1214 24 528 49
1215 24 138 12
1216 24 413 40
1217 24 178 8
1218 24 628 78
1219 24 625 69
1220 24 770 8
1221 24 190 88
1222 24 458 75
1223 24 855 16
1224 24 185 45
1225 24 977 90
1226 24 481 95
1227 25 175 94
1228 25 538 36
1229 25 374 71
1230 25 470 36
1231 25 338 84
1232 25 684 42
1233 25 862 93
1234 25 294 9
1235 25 129 36
1236 25 577 28
1237 25 767 75
1238 25 941 82
1239 25 814 82
1240 25 762 86
1241 25 831 75
1242 25 910 83
1243 25 944 76
1244 25 608 52
1245 25 432 2
1246 25 459 10
1247 25 763 26
1248 25 590 76
1249 25 914 85
1250 25 896 67
1251 25 266 99
1252 25 26 59
1253 25 310 4
1254 25 834 26
1255 25 917 35
1256 25 655 95
1257 25 332 65
1258 25 769 66
1259 25 541 98
1260 25 142 40
1261 25 135 1
1262 25 444 2
1263 25 693 43
1264 25 37 52
1265 25 828 18
1266 25 768 70
1267 25 999 87
1268 25 380 13
1269 25 567 59
1270 25 837 74
1271 25 17 46
1272 25 49 12
1273 25 399 18
1274 25 90 88
1275 25 64 14
1276 25 262 5
1277 26 7 66
1278 26 937 68
1279 26 311 83
1280 26 748 31
1281 26 227 60
1282 26 832 35
1283 26 249 13
1284 26 720 95
1285 26 45 55
1286 26 709 31
1287 26 390 13
1288 26 516 1
1289 26 60 99
1290 26 514 95
1291 26 465 11
1292 26 415 65
1293 26 492 52
1294 26 678 90
1295 26 839 16
1296 26 491 24
1297 26 276 94
1298 26 902 88
1299 26 268 43
1300 26 991 70
1301 26 539 18
1302 26 586 81
1303 26 262 15
1304 26 557 74
1305 26 742 31
1306 26 537 10
1307 26 269 34
1308 26 974 30
1309 26 950 28
1310 26 934 62
1311 26 882 35
1312 26 976 83
1313 26 772 38
1314 26 956 77
1315 26 914 88
1316 26 733 94
1317 26 366 65
1318 26 734 100
1319 26 367 26
1320 26 127 74
1321 26 209 50
1322 26 714 18
1323 26 387 80
1324 26 623 56
1325 26 643 29
1326 26 362 82
1327 26 666 40
1328 26 554 47
1329 26 645 15
1330 26 601 44
1331 26 96 70
1332 26 426 47
1333 26 618 55
1334 27 76 95
1335 27 155 34
1336 27 81 28
1337 27 206 64
1338 27 384 73
1339 27 652 8
1340 27 903 81
1341 27 433 56
1342 27 135 45
1343 27 136 61
1344 27 677 22
1345 27 471 84
1346 27 823 82
1347 27 536 66
1348 27 986 67
1349 27 753 72
1350 27 831 51
1351 27 546 67
1352 27 472 69
1353 27 15 28
1354 27 124 20
1355 27 410 17
1356 27 982 86
1357 27 7 37
1358 27 656 20
1359 27 182 66
1360 27 720 21
1361 27 922 7
1362 27 771 49
1363 27 499 90
1364 27 767 66
1365 27 164 70
1366 27 647 15
1367 27 52 61
1368 27 26 45
1369 27 809 3
1370 27 314 94
1371 27 926 94
1372 27 200 20
1373 27 202 96
1374 27 38 48
1375 27 56 17
1376 28 4 16
1377 28 41 56
1378 28 592 87
1379 28 250 96
1380 28 301 86
1381 28 307 14
1382 28 727 64
1383 28 448 35
1384 28 518 94
1385 28 802 57
1386 28 713 83
1387 28 430 65
1388 28 619 35
1389 28 583 11
1390 28 155 95
1391 28 183 9
1392 28 835 19
1393 28 892 40
1394 28 74 36
1395 28 345 41
1396 28 824 32
1397 28 924 86
1398 28 236 49
1399 28 838 24
1400 28 707 46
1401 28 954 4
1402 28 547 66
1403 28 136 96
1404 28 473 55
1405 28 965 78
1406 28 996 21
1407 28 683 75
1408 28 328 86
1409 28 142 94
1410 28 538 44
1411 28 636 32
1412 28 66 64
1413 28 453 2
1414 28 959 61
1415 28 399 50
1416 28 584 93
1417 28 716 8
1418 28 598 96
1419 28 911 27
1420 28 876 1
1421 28 241 93
1422 28 601 23
1423 29 4 66
1424 29 817 36
1425 29 34 68
1426 29 452 13
1427 29 947 77
1428 29 25 32
1429 29 178 39
1430 29 138 44
1431 29 711 98
1432 29 930 61
1433 29 131 55
1434 29 673 40
1435 29 306 17
1436 29 880 74
1437 29 968 27
1438 29 271 42
1439 29 910 12
1440 29 779 11
1441 29 58 11
1442 29 284 11
1443 29 975 71
1444 29 932 59
1445 29 943 81
1446 29 959 54
1447 29 437 23
1448 29 641 71
1449 29 111 56
1450 29 133 64
1451 29 324 51
1452 29 174 37
1453 29 242 43
1454 29 719 4
1455 29 643 2
1456 29 441 69
1457 29 563 97
1458 29 625 16
1459 29 677 15
1460 29 3 85
1461 29 805 77
1462 29 71 2
1463 29 804 52
1464 29 866 33
1465 29 986 23
1466 29 594 19
1467 29 827 12
1468 29 585 39
1469 29 756 61
1470 29 670 57
1471 29 703 15
1472 29 333 15
1473 30 633 36
1474 30 40 29
1475 30 388 85
1476 30 534 72
1477 30 405 17
1478 30 730 51
1479 30 456 82
1480 30 605 98
1481 30 817 90
1482 30 911 83
1483 30 471 20
1484 30 198 60
1485 30 121 45
1486 30 922 47
1487 30 736 69
1488 30 796 80
1489 30 503 100
1490 30 518 48
1491 30 310 41
1492 30 601 92
1493 30 355 59
1494 30 248 62
1495 30 173 75
1496 30 412 46
1497 30 933 70
1498 30 593 89
1499 30 678 71
1500 30 499 64
1501 30 202 6
1502 30 31 49
1503 30 894 6
1504 30 539 43
1505 30 991 3
1506 30 278 34
1507 30 609 12
1508 30 447 32
1509 30 233 22
1510 30 521 56
1511 30 28 65
1512 30 12 45
1513 30 338 99
1514 30 739 22
1515 30 416 7
1516 30 234 17
1517 31 150 54
1518 31 854 16
1519 31 550 85
1520 31 51 18
1521 31 690 29
1522 31 325 36
1523 31 975 89
1524 31 495 43
1525 31 719 68
1526 31 386 73
1527 31 899 79
1528 31 525 61
1529 31 595 9
1530 31 644 97
1531 31 882 56
1532 31 752 89
1533 31 94 25
1534 31 448 59
1535 31 105 15
1536 31 197 43
1537 31 616 62
1538 31 457 84
1539 31 700 72
1540 31 905 42
1541 31 310 9
1542 31 628 57
1543 31 373 32
1544 31 931 91
1545 31 557 15
1546 31 720 1
1547 31 483 17
1548 31 210 51
1549 31 503 12
1550 31 329 83
1551 31 997 18
1552 31 512 20
1553 31 954 35
1554 31 501 59
1555 31 767 21
1556 31 598 12
1557 31 194 95
1558 31 17 61
1559 31 946 71
1560 31 536 7
1561 31 571 15
1562 31 750 45
1563 31 180 61
1564 31 906 56
1565 31 664 73
1566 31 367 59
1567 31 839 20
1568 31 991 73
1569 32 571 14
1570 32 388 74
1571 32 457 11
1572 32 89 96
1573 32 774 21
1574 32 406 59
1575 32 242 66
1576 32 737 74
1577 32 831 74
1578 32 943 22
1579 32 645 41
1580 32 837 11
1581 32 543 72
1582 32 683 84
1583 32 994 55
1584 32 251 76
1585 32 937 48
1586 32 521 72
1587 32 867 5
1588 32 450 68
1589 32 500 80
1590 32 172 93
1591 32 717 8
1592 32 463 21
1593 32 448 62
1594 32 959 52
1595 32 209 81
1596 32 832 57
1597 32 346 58
1598 32 741 40
1599 32 208 49
1600 32 616 34
1601 32 981 83
1602 32 711 31
1603 32 952 21
1604 32 337 51
1605 32 254 41
1606 32 999 62
1607 32 139 45
1608 32 853 55
1609 32 602 74
1610 32 336 65
1611 32 596 60
1612 32 874 85
1613 32 435 93
1614 33 698 69
1615 33 778 50
1616 33 400 52
1617 33 4 57
1618 33 600 70
1619 33 688 53
1620 33 656 1
1621 33 28 48
1622 33 945 86
1623 33 126 30
1624 33 284 63
1625 33 652 95
1626 33 706 96
1627 33 297 32
1628 33 690 56
1629 33 666 30
1630 33 85 22
1631 33 903 28
1632 33 966 33
1633 33 366 39
1634 33 855 2
1635 33 27 84
1636 33 359 21
1637 33 950 30
1638 33 536 39
1639 33 794 71
1640 33 969 5
1641 33 911 69
1642 33 584 10
1643 33 862 74
1644 33 84 25
1645 33 287 13
1646 33 146 37
1647 33 282 82
1648 33 214 24
1649 33 404 89
1650 33 808 40
1651 33 482 35
1652 33 685 44
1653 33 430 84
1654 34 578 30
1655 34 420 32
1656 34 98 61
1657 34 28 31
1658 34 571 2
1659 34 653 3
1660 34 733 88
1661 34 878 58
1662 34 599 49
1663 34 496 16
1664 34 231 73
1665 34 542 4
1666 34 185 24
1667 34 613 3
1668 34 474 14
1669 34 632 27
1670 34 905 58
1671 34 892 18
1672 34 296 27
1673 34 506 25
1674 34 3 83
1675 34 694 67
1676 34 623 38
1677 34 617 85
1678 34 595 2
1679 34 355 75
1680 34 769 35
1681 34 441 71
1682 34 153 85
1683 34 111 9
1684 34 126 17
1685 34 975 65
1686 34 500 34
1687 34 192 57
1688 34 353 18
1689 34 516 52
1690 34 847 6
1691 34 292 94
1692 34 608 80
1693 34 439 43
1694 34 823 79
1695 34 51 3
1696 34 346 91
1697 34 726 68
1698 34 36 40
1699 34 553 2
1700 34 114 96
1701 34 742 93
1702 35 806 98
1703 35 423 6
1704 35 198 56
1705 35 98 87
1706 35 695 80
1707 35 762 93
1708 35 484 10
1709 35 428 71
1710 35 88 67
1711 35 373 76
1712 35 543 74
1713 35 297 15
1714 35 592 78
1715 35 301 27
1716 35 764 11
1717 35 691 92
1718 35 632 54
1719 35 538 72
1720 35 124 14
1721 35 559 6
1722 35 645 76
1723 35 970 13
1724 35 185 79
1725 35 372 15
1726 35 129 29
1727 35 304 40
1728 35 855 54
1729 35 136 23
1730 35 790 70
1731 35 217 73
1732 35 310 50
1733 35 273 3
1734 35 209 64
1735 35 497 86
1736 35 576 25
1737 35 351 44
1738 35 674 9
1739 35 119 91
1740 35 617 15
1741 35 113 90
1742 35 908 91
1743 35 648 46
1744 35 692 99
1745 35 4 10
1746 35 551 74
1747 35 569 11
1748 35 328 4
1749 35 146 83
1750 35 333 73
1751 35 458 65
1752 35 666 55
1753 35 469 10
1754 36 459 11
1755 36 601 77
1756 36 77 30
1757 36 651 8
1758 36 849 28
1759 36 506 88
1760 36 710 53
1761 36 269 46
1762 36 698 52
1763 36 359 79
1764 36 410 42
1765 36 958 9
1766 36 548 75
1767 36 734 15
1768 36 260 47
1769 36 976 2
1770 36 706 2
1771 36 713 64
1772 36 219 75
1773 36 288 28
1774 36 168 71
1775 36 587 30
1776 36 607 25
1777 36 673 37
1778 36 449 21
1779 36 718 62
1780 36 567 24
1781 36 517 97
1782 36 586 71
1783 36 197 43
1784 36 850 100
1785 36 394 12
1786 36 581 35
1787 36 563 53
1788 36 49 35
1789 36 294 53
1790 36 157 36
1791 36 464 27
1792 36 141 16
1793 36 286 67
1794 36 735 13
1795 36 730 91
1796 36 870 48
1797 36 73 54
1798 36 123 60
1799 36 86 85
1800 36 156 91
1801 36 636 15
1802 36 309 8
1803 36 902 77
1804 36 292 95
1805 37 85 76
1806 37 986 17
1807 37 10 27
1808 37 198 91
1809 37 250 57
1810 37 351 77
1811 37 748 27
1812 37 648 33
1813 37 756 59
1814 37 705 35
1815 37 602 94
1816 37 855 89
1817 37 793 34
1818 37 969 31
1819 37 568 80
1820 37 470 50
1821 37 975 61
1822 37 848 77
1823 37 943 47
1824 37 844 62
1825 37 829 74
1826 37 675 97
1827 37 348 50
1828 37 763 38
1829 37 605 84
1830 37 371 74
1831 37 165 11
1832 37 130 84
1833 37 655 37
1834 37 503 15
1835 37 905 73
1836 37 983 81
1837 37 990 23
1838 37 592 35
1839 37 82 25
1840 37 121 14
1841 37 571 30
1842 37 98 23
1843 37 684 61
1844 37 373 21
1845 37 136 13
1846 37 932 84
1847 37 925 23
1848 37 485 56
1849 37 416 99
1850 37 265 61
1851 37 203 40
1852 37 805 3
1853 37 514 54
1854 37 643 97
1855 37 227 24
1856 37 968 33
1857 37 642 91
1858 37 378 66
1859 37 531 10
1860 38 430 87
1861 38 217 63
1862 38 273 49
1863 38 722 64
1864 38 400 7
1865 38 603 94
1866 38 576 59
1867 38 243 85
1868 38 128 22
1869 38 575 67
1870 38 741 85
1871 38 582 12
1872 38 694 68
1873 38 803 5
1874 38 824 24
1875 38 505 74
1876 38 530 98
1877 38 434 99
1878 38 365 51
1879 38 303 27
1880 38 964 16
1881 38 628 57
1882 38 179 67
1883 38 808 86
1884 38 272 77
1885 38 213 16
1886 38 541 40
1887 38 841 71
1888 38 768 66
1889 38 957 22
1890 38 296 74
1891 38 55 31
1892 38 567 51
1893 38 43 37
1894 38 492 14
1895 38 731 40
1896 38 887 54
1897 38 194 19
1898 38 977 74
1899 38 210 94
1900 38 571 30
1901 38 840 66
1902 38 168 75
1903 38 636 95
1904 38 794 18
1905 38 176 76
1906 38 734 43
1907 38 728 81
1908 38 832 99
1909 38 533 47
1910 38 953 100
1911 38 932 88
1912 38 452 5
1913 38 516 56
1914 38 618 3
1915 39 702 92
1916 39 641 38
1917 39 974 68
1918 39 443 2
1919 39 74 70
1920 39 216 37
1921 39 677 68
1922 39 97 18
1923 39 737 32
1924 39 352 11
1925 39 546 59
1926 39 450 10
1927 39 807 17
1928 39 174 96
1929 39 522 92
1930 39 958 45
1931 39 173 49
1932 39 248 29
1933 39 852 81
1934 39 983 18
1935 39 670 92
1936 39 667 87
1937 39 963 87
1938 39 820 71
1939 39 928 67
1940 39 816 98
1941 39 138 73
1942 39 619 42
1943 39 68 28
1944 39 167 23
1945 39 359 21
1946 39 253 50
1947 39 646 82
1948 39 441 67
1949 39 504 56
1950 39 772 28
1951 39 457 40
1952 39 660 67
1953 39 187 18
1954 39 355 22
1955 39 613 69
1956 39 134 20
1957 39 313 67
1958 39 432 70
1959 39 720 43
1960 39 190 92
1961 39 833 90
1962 39 840 80
1963 39 461 1
1964 40 995 78
1965 40 732 36
1966 40 975 79
1967 40 861 56
1968 40 787 26
1969 40 213 49
1970 40 122 54
1971 40 529 83
1972 40 891 89
1973 40 776 2
1974 40 816 67
1975 40 358 78
1976 40 929 72
1977 40 465 99
1978 40 372 9
1979 40 466 38
1980 40 422 27
1981 40 780 65
1982 40 840 80
1983 40 507 1
1984 40 722 56
1985 40 716 65
1986 40 429 20
1987 40 881 45
1988 40 79 22
1989 40 985 55
1990 40 941 51
1991 40 714 95
1992 40 653 90
1993 40 374 24
1994 40 854 59
1995 40 169 5
1996 40 731 56
1997 40 485 99
1998 40 633 46
1999 40 784 25
2000 40 795 42
2001 40 549 99
2002 40 26 61
2003 40 636 59
2004 40 711 86
2005 40 862 68
2006 40 204 32
2007 40 439 62
2008 40 61 90
2009 40 501 88
2010 40 745 85
2011 40 657 25
2012 40 681 64
2013 40 944 72
2014 40 147 84
2015 40 958 11
2016 40 703 45
2017 40 893 88
2018 40 410 75
2019 40 733 22
2020 40 450 87
2021 40 297 4
2022 40 334 80
2023 40 67 62
2024 40 497 70
2025 40 60 52
2026 40 503 18
2027 40 152 98
2028 41 119 6
2029 41 931 96
2030 41 997 81
2031 41 655 30
2032 41 652 48
2033 41 714 8
2034 41 603 30
2035 41 146 84
2036 41 959 76
2037 41 880 81
2038 41 788 61
2039 41 228 90
2040 41 282 37
2041 41 865 9
2042 41 337 99
2043 41 171 90
2044 41 618 86
2045 41 448 59
2046 41 569 2
2047 41 457 8
2048 41 281 27
2049 41 324 12
2050 41 735 29
2051 41 932 88
2052 41 346 82
2053 41 695 99
2054 41 283 45
2055 41 135 99
2056 41 406 50
2057 41 674 33
2058 41 617 12
2059 41 857 55
2060 41 78 60
2061 41 990 36
2062 41 718 45
2063 41 10 3
2064 41 782 19
2065 41 786 23
2066 41 713 37
2067 41 882 60
2068 41 435 58
2069 41 771 28
2070 41 756 64
2071 41 966 99
2072 42 614 98
2073 42 243 33
2074 42 395 12
2075 42 868 67
2076 42 266 95
2077 42 532 35
2078 42 170 19
2079 42 278 5
2080 42 43 27
2081 42 270 44
2082 42 374 6
2083 42 456 32
2084 42 120 47
2085 42 303 79
2086 42 898 95
2087 42 354 66
2088 42 387 31
2089 42 497 52
2090 42 998 80
2091 42 169 33
2092 42 858 48
2093 42 787 59
2094 42 662 49
2095 42 466 89
2096 42 785 73
2097 42 688 56
2098 42 419 35
2099 42 319 48
2100 42 394 22
2101 42 612 75
2102 42 503 76
2103 42 669 21
2104 42 793 12
2105 42 644 62
2106 42 925 8
2107 42 589 75
2108 42 347 99
2109 42 75 61
2110 42 972 43
2111 42 225 33
2112 42 32 19
2113 42 64 39
2114 42 808 63
2115 43 182 18
2116 43 501 93
2117 43 837 81
2118 43 506 73
2119 43 379 73
2120 43 59 78
2121 43 677 16
2122 43 22 6
2123 43 665 60
2124 43 207 87
2125 43 783 89
2126 43 585 45
2127 43 415 78
2128 43 979 50
2129 43 724 100
2130 43 316 12
2131 43 308 23
2132 43 137 73
2133 43 542 72
2134 43 310 15
2135 43 17 43
2136 43 944 36
2137 43 313 88
2138 43 794 38
2139 43 256 87
2140 43 985 45
2141 43 301 48
2142 43 558 47
2143 43 598 42
2144 43 356 41
2145 43 67 90
2146 43 900 64
2147 43 233 22
2148 43 264 19
2149 43 925 46
2150 43 687 90
2151 43 171 87
2152 43 226 93
2153 43 248 81
2154 43 16 12
2155 43 953 96
2156 43 802 39
2157 43 442 3
2158 43 473 44
2159 43 299 4
2160 43 789 65
2161 43 2 61
2162 43 283 60
2163 43 125 29
2164 43 152 95
2165 43 887 60
2166 43 661 37
2167 43 206 63
2168 43 580 96
2169 43 84 53
2170 43 468 58
2171 43 736 29
2172 43 954 57
2173 43 285 65
2174 43 641 19
2175 44 312 58
2176 44 298 87
2177 44 118 51
2178 44 719 37
2179 44 397 97
2180 44 191 19
2181 44 793 9
2182 44 521 10
2183 44 114 91
2184 44 673 98
2185 44 221 99
2186 44 843 28
2187 44 998 19
2188 44 31 92
2189 44 428 100
2190 44 57 87
2191 44 935 19
2192 44 738 41
2193 44 365 58
2194 44 643 68
2195 44 720 97
2196 44 177 69
2197 44 444 34
2198 44 105 40
2199 44 273 17
2200 44 408 59
2201 44 598 3
2202 44 291 62
2203 44 730 24
2204 44 198 68
2205 44 952 45
2206 44 493 80
2207 44 262 73
2208 44 709 62
2209 44 590 60
2210 44 623 56
2211 44 633 39
2212 44 113 98
2213 44 347 16
2214 44 324 31
2215 44 560 6
2216 44 652 15
2217 44 80 35
2218 45 408 90
2219 45 515 22
2220 45 310 22
2221 45 984 45
2222 45 498 38
2223 45 731 23
2224 45 17 66
2225 45 398 33
2226 45 180 40
2227 45 578 62
2228 45 48 88
2229 45 764 54
2230 45 772 47
2231 45 265 5
2232 45 965 48
2233 45 729 77
2234 45 883 31
2235 45 3 8
2236 45 114 43
2237 45 189 36
2238 45 721 2
2239 45 289 15
2240 45 314 93
2241 45 77 66
2242 45 649 49
2243 45 897 52
2244 45 605 15
2245 45 927 58
2246 45 183 68
2247 45 506 60
2248 45 173 48
2249 45 422 94
2250 45 877 50
2251 45 823 23
2252 45 57 13
2253 45 811 56
2254 45 615 14
2255 45 535 41
2256 45 303 42
2257 45 223 41
2258 45 9 99
2259 45 130 22
2260 45 991 83
2261 45 261 82
2262 45 326 62
2263 46 771 17
2264 46 545 1
2265 46 348 58
2266 46 340 36
2267 46 179 99
2268 46 462 24
2269 46 812 43
2270 46 25 84
2271 46 214 2
2272 46 281 5
2273 46 884 32
2274 46 327 12
2275 46 883 58
2276 46 139 92
2277 46 838 75
2278 46 50 11
2279 46 685 42
2280 46 8 89
2281 46 368 34
2282 46 522 18
2283 46 652 54
2284 46 739 14
2285 46 396 7
2286 46 173 72
2287 46 909 9
2288 46 245 22
2289 46 251 39
2290 46 466 15
2291 46 282 81
2292 46 469 96
2293 46 297 11
2294 46 543 66
2295 46 737 69
2296 46 148 16
2297 46 672 71
2298 46 405 24
2299 46 444 97
2300 46 17 60
2301 46 836 96
2302 46 761 15
2303 46 847 85
2304 46 718 80
2305 46 762 10
2306 46 664 72
2307 46 935 13
2308 46 387 50
2309 47 95 19
2310 47 950 58
2311 47 44 34
2312 47 873 14
2313 47 286 84
2314 47 844 60
2315 47 412 84
2316 47 334 67
2317 47 580 68
2318 47 205 57
2319 47 450 6
2320 47 685 54
2321 47 347 50
2322 47 527 14
2323 47 750 77
2324 47 647 22
2325 47 733 51
2326 47 736 8
2327 47 143 96
2328 47 446 64
2329 47 188 29
2330 47 935 44
2331 47 345 51
2332 47 722 16
2333 47 803 48
2334 47 60 69
2335 47 441 5
2336 47 819 71
2337 47 649 11
2338 47 626 65
2339 47 587 31
2340 47 75 42
2341 47 260 47
2342 47 653 17
2343 47 537 81
2344 47 504 57
2345 47 94 43
2346 47 553 72
2347 47 406 46
2348 47 196 12
2349 47 184 51
2350 47 928 88
2351 47 773 77
2352 47 523 51
2353 47 980 4
2354 47 220 55
2355 47 77 55
2356 47 248 19
2357 47 743 38
2358 47 826 81
2359 47 921 2
2360 47 38 83
2361 47 5 77
2362 47 225 17
2363 47 837 93
2364 47 35 63
2365 47 710 46
2366 48 324 19
2367 48 56 48
2368 48 28 90
2369 48 143 19
2370 48 978 79
2371 48 100 2
2372 48 654 37
2373 48 649 75
2374 48 983 26
2375 48 168 65
2376 48 948 39
2377 48 555 95
2378 48 259 6
2379 48 446 24
2380 48 81 53
2381 48 690 47
2382 48 451 89
2383 48 960 27
2384 48 785 75
2385 48 300 55
2386 48 967 47
2387 48 803 16
2388 48 535 94
2389 48 982 14
2390 48 197 45
2391 48 327 73
2392 48 625 7
2393 48 131 66
2394 48 664 38
2395 48 633 18
2396 48 710 98
2397 48 580 34
2398 48 20 40
2399 48 124 48
2400 48 570 94
2401 48 552 38
2402 48 882 69
2403 48 585 37
2404 48 956 20
2405 48 418 61
2406 48 316 66
2407 48 799 98
2408 48 605 28
2409 48 908 90
2410 48 276 57
2411 48 390 9
2412 48 394 74
2413 48 12 34
2414 48 120 17
2415 48 50 70
2416 48 432 74
2417 48 669 84
2418 48 894 78
2419 48 741 32
2420 48 680 8
2421 48 852 76
2422 48 650 47
2423 48 51 20
2424 48 979 17
2425 48 125 67
2426 49 861 60
2427 49 306 76
2428 49 895 49
2429 49 828 40
2430 49 165 83
2431 49 643 26
2432 49 393 31
2433 49 598 96
2434 49 196 4
2435 49 600 65
2436 49 68 61
2437 49 666 59
2438 49 968 33
2439 49 258 61
2440 49 259 24
2441 49 183 92
2442 49 844 30
2443 49 9 38
2444 49 326 80
2445 49 662 71
2446 49 317 43
2447 49 902 25
2448 49 204 36
2449 49 14 75
2450 49 217 58
2451 49 320 47
2452 49 383 29
2453 49 939 25
2454 49 439 4
2455 49 578 17
2456 49 203 72
2457 49 504 73
2458 49 86 36
2459 49 922 91
2460 49 57 19
2461 49 551 20
2462 49 536 61
2463 49 703 49
2464 49 764 85
2465 49 201 100
2466 49 18 39
2467 49 699 65
2468 49 467 66
2469 49 295 73
2470 49 435 65
2471 49 88 84
2472 49 721 5
2473 50 534 6
2474 50 522 11
2475 50 698 82
2476 50 783 39
2477 50 310 93
2478 50 80 58
2479 50 12 17
2480 50 526 33
2481 50 740 30
2482 50 498 2
2483 50 520 8
2484 50 664 36
2485 50 16 78
2486 50 304 61
2487 50 869 83
2488 50 26 7
2489 50 311 83
2490 50 931 57
2491 50 540 88
2492 50 854 28
2493 50 427 51
2494 50 785 87
2495 50 999 44
2496 50 584 37
2497 50 472 23
2498 50 905 95
2499 50 981 44
2500 50 89 13
2501 50 364 88
2502 50 572 6
2503 50 807 20
2504 50 792 33
2505 50 708 65
2506 50 791 3
2507 50 731 46
2508 50 479 50
2509 50 826 79
2510 50 435 90
2511 50 124 36
2512 50 469 80
2513 50 786 76
2514 50 492 26
2515 50 58 50
2516 50 71 10
2517 50 147 45
2518 50 23 62
2519 50 641 46
2520 50 512 47
2521 50 60 44
2522 50 577 70
2523 50 33 92
2524 50 802 12
2525 51 331 38
2526 51 266 32
2527 51 542 24
2528 51 124 8
2529 51 499 51
2530 51 494 28
2531 51 412 13
2532 51 332 9
2533 51 164 4
2534 51 461 72
2535 51 809 21
2536 51 57 94
2537 51 277 9
2538 51 210 27
2539 51 472 84
2540 51 438 39
2541 51 851 83
2542 51 711 45
2543 51 756 18
2544 51 40 51
2545 51 125 58
2546 51 231 13
2547 51 500 82
2548 51 625 78
2549 51 622 94
2550 51 183 79
2551 51 144 55
2552 51 824 31
2553 51 141 15
2554 51 292 89
2555 51 384 18
2556 51 242 20
2557 51 156 73
2558 51 335 78
2559 51 261 5
2560 51 25 48
2561 51 27 33
2562 51 281 19
2563 51 738 29
2564 51 578 26
2565 51 470 65
2566 51 64 37
2567 51 551 90
2568 51 32 91
2569 51 464 13
2570 51 132 13
2571 51 473 55
2572 51 617 54
2573 51 130 4
2574 51 269 83
2575 51 821 83
2576 51 2 56
2577 51 346 74
2578 51 380 6
2579 52 582 92
2580 52 914 77
2581 52 943 74
2582 52 68 10
2583 52 573 21
2584 52 0 62
2585 52 240 83
2586 52 759 6
2587 52 999 82
2588 52 503 60
2589 52 734 31
2590 52 425 31
2591 52 521 71
2592 52 864 10
2593 52 304 46
2594 52 120 80
2595 52 217 34
2596 52 977 77
2597 52 180 69
2598 52 462 69
2599 52 145 29
2600 52 347 17
2601 52 97 50
2602 52 295 11
2603 52 234 8
2604 52 427 86
2605 52 753 33
2606 52 670 69
2607 52 144 58
2608 52 642 73
2609 52 405 61
2610 52 471 61
2611 52 26 22
2612 52 645 5
2613 52 948 100
2614 52 303 56
2615 52 418 39
2616 52 715 6
2617 52 928 19
2618 53 576 18
2619 53 12 24
2620 53 346 76
2621 53 118 36
2622 53 983 7
2623 53 36 63
2624 53 604 19
2625 53 752 96
2626 53 911 30
2627 53 924 30
2628 53 405 42
2629 53 691 72
2630 53 764 23
2631 53 367 12
2632 53 966 31
2633 53 518 37
2634 53 71 39
2635 53 907 96
2636 53 110 83
2637 53 76 99
2638 53 508 68
2639 53 671 46
2640 53 954 13
2641 53 937 40
2642 53 809 47
2643 53 666 31
2644 53 857 66
2645 53 560 87
2646 53 33 79
2647 53 324 1
2648 53 481 18
2649 53 354 51
2650 53 78 71
2651 53 163 16
2652 53 321 38
2653 53 317 67
2654 53 813 12
2655 53 846 68
2656 53 567 26
2657 53 52 72
2658 53 5 82
2659 53 916 94
2660 53 988 51
2661 53 131 32
2662 53 992 77
2663 53 124 56
2664 53 248 10
2665 53 214 5
2666 53 135 77
2667 53 361 74
2668 53 216 23
2669 53 722 79
2670 53 87 67
2671 53 991 64
2672 53 647 18
2673 54 52 42
2674 54 182 66
2675 54 772 7
2676 54 32 42
2677 54 759 24
2678 54 571 50
2679 54 470 23
2680 54 82 45
2681 54 108 24
2682 54 95 17
2683 54 499 38
2684 54 307 53
2685 54 649 39
2686 54 855 86
2687 54 249 33
2688 54 289 45
2689 54 514 23
2690 54 939 88
2691 54 662 29
2692 54 679 2
2693 54 560 30
2694 54 740 66
2695 54 466 31
2696 54 337 44
2697 54 937 51
2698 54 221 7
2699 54 443 46
2700 54 183 28
2701 54 842 72
2702 54 109 31
2703 54 648 88
2704 54 704 86
2705 54 362 73
2706 54 62 25
2707 54 569 52
2708 54 999 42
2709 54 726 78
2710 54 674 21
2711 54 243 59
2712 54 491 22
2713 54 745 52
2714 54 786 65
2715 55 546 3
2716 55 383 32
2717 55 324 39
2718 55 269 34
2719 55 44 50
2720 55 873 75
2721 55 418 78
2722 55 263 26
2723 55 497 90
2724 55 411 53
2725 55 870 70
2726 55 195 37
2727 55 12 43
2728 55 634 82
2729 55 876 81
2730 55 290 52
2731 55 520 29
2732 55 161 43
2733 55 776 89
2734 55 416 60
2735 55 123 36
2736 55 845 63
2737 55 320 53
2738 55 125 24
2739 55 184 75
2740 55 507 66
2741 55 613 5
2742 55 230 49
2743 55 679 94
2744 55 300 19
2745 55 32 47
2746 55 991 39
2747 55 134 63
2748 55 635 73
2749 55 593 49
2750 55 588 8
2751 55 398 67
2752 55 655 43
2753 55 803 7
2754 55 817 1
2755 55 417 38
2756 55 660 69
2757 55 664 77
2758 55 587 78
2759 55 975 83
2760 55 142 28
2761 55 17 50
2762 55 203 84
2763 55 188 13
2764 55 39 70
2765 55 688 86
2766 55 476 27
2767 55 346 33
2768 55 510 22
2769 55 677 46
2770 55 570 89
2771 56 237 31
2772 56 852 2
2773 56 463 40
2774 56 304 64
2775 56 774 22
2776 56 722 64
2777 56 905 85
2778 56 716 16
2779 56 743 13
2780 56 326 25
2781 56 894 12
2782 56 227 18
2783 56 635 37
2784 56 457 13
2785 56 39 53
2786 56 993 69
2787 56 388 44
2788 56 249 13
2789 56 752 74
2790 56 654 17
2791 56 540 71
2792 56 947 15
2793 56 587 86
2794 56 731 33
2795 56 170 93
2796 56 504 30
2797 56 698 60
2798 56 435 20
2799 56 169 56
2800 56 631 84
2801 56 906 31
2802 56 159 31
2803 56 377 70
2804 56 679 92
2805 56 530 96
2806 56 276 88
2807 56 460 64
2808 56 533 61
2809 56 464 26
2810 56 451 42
2811 56 295 49
2812 56 853 49
2813 56 885 42
2814 56 296 57
2815 56 3 72
2816 56 835 63
2817 56 670 4
2818 56 50 48
2819 56 912 57
2820 56 286 92
2821 56 899 92
2822 56 353 54
2823 57 691 9
2824 57 287 86
2825 57 401 62
2826 57 51 34
2827 57 208 51
2828 57 782 61
2829 57 908 76
2830 57 970 43
2831 57 760 66
2832 57 827 79
2833 57 72 18
2834 57 360 42
2835 57 833 5
2836 57 471 14
2837 57 305 61
2838 57 351 93
2839 57 499 52
2840 57 966 76
2841 57 846 44
2842 57 625 14
2843 57 347 40
2844 57 415 67
2845 57 757 14
2846 57 167 58
2847 57 105 35
2848 57 290 40
2849 57 925 48
2850 57 585 4
2851 57 537 94
2852 57 346 95
2853 57 683 86
2854 57 149 34
2855 57 118 21
2856 57 725 75
2857 57 964 28
2858 57 188 30
2859 57 378 73
2860 57 854 1
2861 57 920 24
2862 57 2 16
2863 57 228 33
2864 57 336 81
2865 57 374 78
2866 57 440 49
2867 57 488 61
2868 57 480 14
2869 57 58 82
2870 57 724 76
2871 57 497 43
2872 57 943 91
2873 57 763 6
2874 57 44 42
2875 57 781 99
2876 57 3 72
2877 57 894 92
2878 57 298 7
2879 57 186 18
2880 57 452 7
2881 57 761 91
2882 57 756 6
2883 57 762 12
2884 58 112 9
2885 58 989 74
2886 58 511 56
2887 58 415 61
2888 58 854 38
2889 58 493 42
2890 58 178 71
2891 58 318 23
2892 58 489 29
2893 58 707 18
2894 58 828 91
2895 58 987 35
2896 58 240 100
2897 58 679 35
2898 58 283 7
2899 58 238 88
2900 58 331 72
2901 58 600 42
2902 58 684 81
2903 58 541 41
2904 58 530 13
2905 58 659 65
2906 58 222 8
2907 58 974 10
2908 58 964 64
2909 58 815 9
2910 58 383 89
2911 58 169 3
2912 58 494 2
2913 58 924 46
2914 58 358 90
2915 58 250 51
2916 58 805 64
2917 58 244 76
2918 58 113 60
2919 58 866 6
2920 58 901 71
2921 58 440 34
2922 58 111 78
2923 58 290 70
2924 58 674 72
2925 58 798 84
2926 58 347 78
2927 58 285 31
2928 58 638 8
2929 58 110 4
2930 58 836 3
2931 58 640 31
2932 58 436 24
2933 58 99 99
2934 58 255 6
2935 59 341 17
2936 59 370 91
2937 59 299 96
2938 59 713 66
2939 59 935 78
2940 59 73 84
2941 59 487 55
2942 59 549 84
2943 59 752 56
2944 59 901 52
2945 59 393 12
2946 59 310 90
2947 59 189 30
2948 59 139 72
2949 59 918 44
2950 59 197 16
2951 59 562 8
2952 59 410 72
2953 59 523 93
2954 59 444 40
2955 59 859 84
2956 59 606 39
2957 59 477 31
2958 59 762 2
2959 59 635 51
2960 59 627 78
2961 59 649 21
2962 59 867 35
2963 59 778 95
2964 59 569 100
2965 59 131 13
2966 59 38 70
2967 59 126 46
2968 59 447 41
2969 59 349 38
2970 59 942 53
2971 59 961 56
2972 59 531 8
2973 59 100 37
2974 59 111 95
2975 59 45 79
2976 59 682 80
2977 59 424 93
2978 59 695 6
2979 59 265 78
2980 59 763 76
2981 59 490 4
2982 59 835 97
2983 59 152 54
2984 59 954 71
2985 59 648 25
2986 59 898 13
2987 59 122 55
2988 59 537 49
2989 59 972 100
2990 59 785 37
2991 59 461 66
2992 59 186 52
2993 59 908 44
2994 60 267 37
2995 60 695 11
2996 60 376 34
2997 60 648 57
2998 60 234 2
2999 60 858 87
3000 60 973 28
3001 60 717 22
3002 60 997 36
3003 60 155 34
3004 60 197 37
3005 60 708 28
3006 60 543 66
3007 60 422 69
3008 60 575 75
3009 60 736 94
3010 60 254 61
3011 60 127 76
3012 60 844 65
3013 60 654 15
3014 60 960 64
3015 60 682 58
3016 60 703 36
3017 60 747 15
3018 60 260 63
3019 60 93 27
3020 60 972 33
3021 60 835 26
3022 60 115 64
3023 60 317 31
3024 60 610 17
3025 60 72 15
3026 60 779 24
3027 60 329 95
3028 60 489 33
3029 60 418 69
3030 60 394 81
3031 60 642 93
3032 60 707 71
3033 60 409 69
3034 60 470 13
3035 60 290 29
3036 60 554 98
3037 60 553 92
3038 60 512 34
3039 60 493 58
3040 60 31 94
3041 60 563 75
3042 60 920 96
3043 60 850 68
3044 60 773 82
3045 60 198 11
3046 60 855 60
3047 60 530 50
3048 60 61 27
3049 60 210 46
3050 60 713 60
3051 61 495 69
3052 61 708 8
3053 61 680 51
3054 61 887 80
3055 61 168 28
3056 61 544 45
3057 61 366 75
3058 61 577 91
3059 61 400 38
3060 61 29 72
3061 61 422 5
3062 61 307 2
3063 61 475 47
3064 61 848 42
3065 61 667 81
3066 61 920 94
3067 61 348 86
3068 61 28 64
3069 61 628 34
3070 61 917 55
3071 61 84 87
3072 61 10 47
3073 61 798 81
3074 61 954 12
3075 61 907 78
3076 61 125 18
3077 61 65 13
3078 61 300 68
3079 61 749 96
3080 61 150 87
3081 61 390 31
3082 61 267 30
3083 61 255 50
3084 61 974 24
3085 61 516 39
3086 61 9 52
3087 61 204 95
3088 61 480 25
3089 61 862 98
3090 61 398 86
3091 61 903 63
3092 61 813 43
3093 61 418 27
3094 61 143 62
3095 61 852 39
3096 61 403 17
3097 61 991 24
3098 61 66 71
3099 61 961 15
3100 61 287 97
3101 61 600 10
3102 61 213 10
3103 61 665 12
3104 61 835 84
3105 61 407 77
3106 62 165 12
3107 62 97 28
3108 62 505 84
3109 62 103 26
3110 62 521 36
3111 62 309 56
3112 62 454 35
3113 62 533 66
3114 62 539 98
3115 62 688 98
3116 62 614 24
3117 62 184 75
3118 62 405 52
3119 62 251 4
3120 62 466 54
3121 62 892 35
3122 62 417 28
3123 62 411 1
3124 62 619 88
3125 62 815 48
3126 62 756 18
3127 62 629 16
3128 62 715 32
3129 62 34 43
3130 62 483 64
3131 62 118 92
3132 62 728 49
3133 62 499 9
3134 62 286 77
3135 62 498 51
3136 62 487 58
3137 62 194 77
3138 62 718 94
3139 62 884 73
3140 62 123 77
3141 62 830 30
3142 62 738 82
3143 62 843 81
3144 62 954 52
3145 62 42 13
3146 62 446 58
3147 62 971 12
3148 62 281 76
3149 62 43 49
3150 62 740 40
3151 62 44 79
3152 62 491 50
3153 62 157 69
3154 62 901 82
3155 62 46 4
3156 62 125 87
3157 62 355 74
3158 62 918 79
3159 62 795 13
3160 62 246 65
3161 63 407 77
3162 63 134 34
3163 63 299 32
3164 63 953 17
3165 63 308 76
3166 63 420 25
3167 63 460 77
3168 63 590 6
3169 63 797 51
3170 63 648 67
3171 63 874 65
3172 63 821 53
3173 63 57 75
3174 63 485 55
3175 63 542 29
3176 63 40 1
3177 63 511 3
3178 63 947 54
3179 63 329 24
3180 63 810 64
3181 63 681 72
3182 63 965 26
3183 63 835 34
3184 63 93 71
3185 63 743 64
3186 63 638 40
3187 63 942 80
3188 63 951 44
3189 63 524 1
3190 63 858 42
3191 63 662 54
3192 63 384 26
3193 63 956 71
3194 63 745 30
3195 63 114 76
3196 63 475 93
3197 63 637 89
3198 63 906 46
3199 63 634 3
3200 63 575 26
3201 63 306 100
3202 63 964 58
3203 63 539 32
3204 63 103 83
3205 63 599 43
3206 63 439 82
3207 63 367 56
3208 63 762 55
3209 63 977 92
3210 63 916 20
3211 63 491 16
3212 63 737 76
3213 63 164 89
3214 63 949 84
3215 63 606 63
3216 64 811 85
3217 64 531 16
3218 64 450 89
3219 64 146 22
3220 64 569 92
3221 64 221 21
3222 64 902 13
3223 64 323 85
3224 64 630 11
3225 64 243 30
3226 64 717 59
3227 64 275 62
3228 64 109 12
3229 64 476 19
3230 64 600 83
3231 64 239 69
3232 64 13 28
3233 64 632 33
3234 64 719 28
3235 64 209 45
3236 64 328 54
3237 64 215 86
3238 64 424 13
3239 64 666 64
3240 64 989 10
3241 64 94 17
3242 64 166 77
3243 64 494 46
3244 64 11 40
3245 64 66 71
3246 64 623 61
3247 64 867 6
3248 64 142 26
3249 64 556 79
3250 64 772 73
3251 64 664 54
3252 64 200 1
3253 64 300 66
3254 64 439 13
3255 64 152 78
3256 64 956 25
3257 64 826 98
3258 64 181 77
3259 64 238 45
3260 65 700 64
3261 65 977 41
3262 65 536 71
3263 65 122 29
3264 65 679 63
3265 65 381 40
3266 65 138 62
3267 65 153 94
3268 65 540 22
3269 65 11 52
3270 65 274 91
3271 65 989 1
3272 65 973 46
3273 65 91 73
3274 65 984 75
3275 65 166 68
3276 65 787 69
3277 65 995 1
3278 65 341 70
3279 65 999 38
3280 65 737 6
3281 65 794 100
3282 65 742 66
3283 65 902 50
3284 65 136 8
3285 65 188 97
3286 65 184 13
3287 65 728 65
3288 65 201 21
3289 65 470 21
3290 65 388 36
3291 65 417 18
3292 65 825 53
3293 65 126 59
3294 65 40 23
3295 65 939 25
3296 65 595 26
3297 65 685 81
3298 65 99 57
3299 65 871 90
3300 65 604 43
3301 65 552 11
3302 65 79 8
3303 65 359 99
3304 65 340 24
3305 65 914 73
3306 65 474 26
3307 65 483 97
3308 65 844 33
3309 65 516 95
3310 66 983 23
3311 66 545 3
3312 66 721 66
3313 66 616 45
3314 66 121 26
3315 66 150 67
3316 66 403 44
3317 66 247 62
3318 66 113 94
3319 66 871 7
3320 66 340 67
3321 66 234 27
3322 66 402 76
3323 66 712 71
3324 66 977 64
3325 66 286 96
3326 66 532 18
3327 66 281 81
3328 66 422 8
3329 66 624 28
3330 66 880 56
3331 66 701 80
3332 66 644 80
3333 66 899 22
3334 66 944 83
3335 66 843 95
3336 66 984 38
3337 66 704 58
3338 66 215 62
3339 66 277 76
3340 66 905 75
3341 66 846 51
3342 66 709 72
3343 66 334 7
3344 66 481 75
3345 66 803 7
3346 66 951 40
3347 66 805 73
3348 66 317 23
3349 66 134 64
3350 66 612 64
3351 66 922 1
3352 66 525 39
3353 66 338 81
3354 66 825 92
3355 66 387 94
3356 66 739 73
3357 66 855 12
3358 66 459 68
3359 67 700 97
3360 67 367 41
3361 67 546 21
3362 67 246 77
3363 67 818 54
3364 67 622 12
3365 67 850 58
3366 67 349 15
3367 67 462 16
3368 67 466 75
3369 67 251 65
3370 67 577 6
3371 67 970 29
3372 67 220 10
3373 67 656 95
3374 67 26 26
3375 67 248 27
3376 67 361 27
3377 67 53 1
3378 67 38 24
3379 67 9 97
3380 67 311 44
3381 67 181 37
3382 67 156 62
3383 67 880 64
3384 67 640 23
3385 67 66 1
3386 67 435 81
3387 67 296 77
3388 67 469 70
3389 67 123 74
3390 67 940 70
3391 67 329 55
3392 67 977 33
3393 67 914 69
3394 67 63 28
3395 67 813 18
3396 67 301 38
3397 67 512 30
3398 67 716 29
3399 67 376 9
3400 67 250 13
3401 67 811 56
3402 67 191 50
3403 67 157 5
3404 67 536 73
3405 67 667 76
3406 67 77 100
3407 67 978 92
3408 67 276 49
3409 67 196 42
3410 67 401 51
3411 67 734 37
3412 67 237 31
3413 67 865 1
3414 67 313 30
3415 68 620 83
3416 68 137 86
3417 68 92 77
3418 68 129 16
3419 68 113 25
3420 68 916 7
3421 68 985 11
3422 68 846 94
3423 68 152 71
3424 68 764 52
3425 68 83 97
3426 68 102 88
3427 68 569 16
3428 68 288 12
3429 68 236 52
3430 68 482 45
3431 68 682 55
3432 68 210 90
3433 68 718 98
3434 68 542 45
3435 68 538 83
3436 68 548 82
3437 68 450 87
3438 68 879 15
3439 68 594 90
3440 68 884 45
3441 68 731 58
3442 68 826 59
3443 68 11 56
3444 68 969 99
3445 68 158 61
3446 68 45 78
3447 68 801 36
3448 68 403 78
3449 68 976 1
3450 68 223 68
3451 68 127 25
3452 68 980 88
3453 68 153 99
3454 68 422 3
3455 68 18 44
3456 68 292 9
3457 68 340 23
3458 68 30 7
3459 68 375 64
3460 68 490 40
3461 68 460 46
3462 68 756 37
3463 68 686 25
3464 68 832 75
3465 69 707 24
3466 69 673 72
3467 69 672 63
3468 69 991 39
3469 69 179 46
3470 69 861 59
3471 69 554 77
3472 69 430 19
3473 69 412 36
3474 69 28 52
3475 69 594 92
3476 69 315 30
3477 69 25 89
3478 69 899 58
3479 69 0 6
3480 69 445 62
3481 69 214 66
3482 69 662 3
3483 69 541 57
3484 69 611 69
3485 69 112 78
3486 69 98 90
3487 69 824 5
3488 69 716 46
3489 69 410 5
3490 69 216 66
3491 69 362 32
3492 69 791 61
3493 69 733 12
3494 69 578 36
3495 69 300 64
3496 69 287 9
3497 69 848 31
3498 69 634 20
3499 69 320 34
3500 69 998 81
3501 69 667 88
3502 69 177 11
3503 69 525 64
3504 69 400 99
3505 69 681 47
3506 69 846 43
3507 69 53 24
3508 69 326 62
3509 69 89 56
3510 70 641 36
3511 70 605 84
3512 70 101 24
3513 70 930 45
3514 70 540 88
3515 70 143 64
3516 70 345 92
3517 70 472 42
3518 70 459 77
3519 70 672 74
3520 70 961 44
3521 70 304 22
3522 70 375 85
3523 70 268 21
3524 70 865 35
3525 70 393 14
3526 70 254 11
3527 70 98 64
3528 70 590 30
3529 70 599 20
3530 70 90 61
3531 70 737 60
3532 70 706 56
3533 70 553 72
3534 70 862 83
3535 70 565 83
3536 70 119 57
3537 70 894 80
3538 70 601 62
3539 70 785 19
3540 70 674 71
3541 70 741 26
3542 70 347 29
3543 70 368 55
3544 70 600 66
3545 70 381 14
3546 70 988 46
3547 70 29 21
3548 70 301 8
3549 70 255 35
3550 70 856 84
3551 70 842 69
3552 70 817 50
3553 70 470 33
3554 70 776 57
3555 70 997 91
3556 70 378 1
3557 70 366 67
3558 70 338 36
3559 70 769 3
3560 70 731 41
3561 70 928 28
3562 70 925 81
3563 70 631 18
3564 70 849 36
3565 70 157 29
3566 70 76 21
3567 70 735 31
3568 70 220 80
3569 70 360 61
3570 71 741 51
3571 71 172 75
3572 71 413 46
3573 71 195 86
3574 71 893 74
3575 71 334 2
3576 71 209 35
3577 71 240 1
3578 71 167 47
3579 71 928 8
3580 71 438 52
3581 71 86 94
3582 71 676 65
3583 71 291 27
3584 71 984 99
3585 71 483 46
3586 71 890 22
3587 71 409 36
3588 71 134 78
3589 71 424 40
3590 71 868 38
3591 71 613 69
3592 71 633 84
3593 71 580 6
3594 71 533 97
3595 71 42 76
3596 71 789 11
3597 71 968 53
3598 71 484 51
3599 71 685 4
3600 71 156 15
3601 71 258 35
3602 71 655 60
3603 71 873 68
3604 71 897 75
3605 71 226 65
3606 71 302 10
3607 71 269 66
3608 71 257 71
3609 71 357 53
3610 71 638 69
3611 71 182 17
3612 71 490 85
3613 71 116 98
3614 71 197 58
3615 71 964 49
3616 72 725 50
3617 72 514 89
3618 72 159 96
3619 72 176 50
3620 72 911 20
3621 72 650 3
3622 72 837 19
3623 72 676 68
3624 72 110 65
3625 72 581 64
3626 72 638 28
3627 72 411 98
3628 72 366 12
3629 72 256 75
3630 72 907 48
3631 72 279 71
3632 72 105 6
3633 72 254 44
3634 72 613 14
3635 72 628 43
3636 72 561 27
3637 72 473 9
3638 72 90 33
3639 72 973 74
3640 72 193 29
3641 72 420 48
3642 72 199 18
3643 72 902 79
3644 72 778 60
3645 72 754 57
3646 72 236 40
3647 72 981 90
3648 72 967 44
3649 72 96 34
3650 72 39 43
3651 72 41 93
3652 72 196 5
3653 72 595 1
3654 72 693 59
3655 72 767 33
3656 72 310 100
3657 72 154 68
3658 72 553 2
3659 72 157 3
3660 72 617 57
3661 72 305 97
3662 72 439 60
3663 72 682 53
3664 72 285 68
3665 72 858 16
3666 72 21 49
3667 72 350 8
3668 72 549 75
3669 72 712 49
3670 73 538 100
3671 73 951 19
3672 73 483 34
3673 73 929 10
3674 73 658 15
3675 73 618 15
3676 73 639 96
3677 73 771 37
3678 73 137 57
3679 73 297 39
3680 73 38 52
3681 73 351 58
3682 73 883 71
3683 73 411 7
3684 73 578 26
3685 73 458 39
3686 73 786 20
3687 73 15 30
3688 73 797 45
3689 73 289 57
3690 73 666 88
3691 73 414 70
3692 73 388 12
3693 73 698 17
3694 73 653 89
3695 73 804 85
3696 73 33 50
3697 73 663 93
3698 73 684 45
3699 73 448 8
3700 73 164 80
3701 73 687 61
3702 73 894 1
3703 73 814 32
3704 73 225 2
3705 73 477 72
3706 73 903 70
3707 73 793 30
3708 73 496 44
3709 73 610 90
3710 73 275 98
3711 73 515 98
3712 73 819 59
3713 73 519 10
3714 73 362 25
3715 73 661 16
3716 73 232 31
3717 73 173 79
3718 73 265 44
3719 73 980 44
3720 73 168 32
3721 73 813 95
3722 73 479 13
3723 73 560 56
3724 73 284 34
3725 73 262 25
3726 73 641 6
3727 73 443 33
3728 73 236 84
3729 73 923 67
3730 74 337 66
3731 74 330 70
3732 74 971 30
3733 74 365 93
3734 74 581 85
3735 74 389 65
3736 74 54 81
3737 74 702 99
3738 74 223 11
3739 74 84 47
3740 74 740 61
3741 74 12 47
3742 74 814 76
3743 74 33 72
3744 74 17 14
3745 74 10 100
3746 74 854 13
3747 74 846 2
3748 74 289 66
3749 74 630 24
3750 74 516 60
3751 74 304 39
3752 74 455 94
3753 74 323 36
3754 74 543 80
3755 74 150 99
3756 74 560 51
3757 74 711 70
3758 74 144 29
3759 74 733 20
3760 74 789 28
3761 74 90 61
3762 74 678 70
3763 74 384 55
3764 74 148 85
3765 74 696 31
3766 74 974 52
3767 74 99 68
3768 74 535 74
3769 74 72 92
3770 74 414 90
3771 74 120 36
3772 74 465 47
3773 74 663 2
3774 74 221 78
3775 74 697 74
3776 74 877 32
3777 74 705 34
3778 74 742 18
3779 74 50 58
3780 74 283 88
3781 74 59 1
3782 74 260 42
3783 74 42 6
3784 74 53 13
3785 74 217 90
3786 74 166 24
3787 74 537 69
3788 74 527 20
3789 74 998 19
3790 75 781 84
3791 75 908 7
3792 75 739 74
3793 75 68 40
3794 75 813 2
3795 75 431 9
3796 75 554 87
3797 75 489 86
3798 75 156 36
3799 75 704 70
3800 75 637 41
3801 75 647 87
3802 75 275 36
3803 75 469 52
3804 75 334 59
3805 75 296 17
3806 75 943 19
3807 75 576 33
3808 75 0 39
3809 75 33 95
3810 75 176 33
3811 75 649 11
3812 75 859 66
3813 75 835 90
3814 75 731 22
3815 75 736 43
3816 75 379 19
3817 75 52 63
3818 75 814 96
3819 75 590 43
3820 75 802 28
3821 75 350 72
3822 75 130 62
3823 75 657 16
3824 75 915 10
3825 75 340 65
3826 75 265 81
3827 75 565 15
3828 75 2 16
3829 75 498 88
3830 75 861 47
3831 75 39 39
3832 75 541 45
3833 75 545 63
3834 75 15 54
3835 75 1 69
3836 75 938 79
3837 75 773 92
3838 75 217 86
3839 75 31 3
3840 75 443 82
3841 75 633 52
3842 75 893 76
3843 76 575 27
3844 76 704 71
3845 76 343 12
3846 76 207 57
3847 76 841 92
3848 76 105 32
3849 76 36 41
3850 76 510 88
3851 76 604 48
3852 76 945 81
3853 76 490 77
3854 76 133 35
3855 76 321 66
3856 76 296 95
3857 76 425 57
3858 76 477 40
3859 76 990 61
3860 76 791 11
3861 76 449 19
3862 76 527 39
3863 76 849 65
3864 76 866 10
3865 76 63 91
3866 76 766 1
3867 76 829 83
3868 76 888 45
3869 76 932 4
3870 76 319 15
3871 76 937 35
3872 76 661 56
3873 76 157 62
3874 76 886 22
3875 76 194 76
3876 76 628 90
3877 76 16 8
3878 76 881 11
3879 76 309 30
3880 76 872 29
3881 76 108 82
3882 76 642 62
3883 76 980 66
3884 76 488 70
3885 76 268 94
3886 76 421 31
3887 76 558 82
3888 76 13 92
3889 76 299 75
3890 76 784 95
3891 76 927 47
3892 76 910 45
3893 76 787 58
3894 76 138 50
3895 76 572 57
3896 76 473 29
3897 76 52 83
3898 76 923 91
3899 76 28 43
3900 76 917 3
3901 76 631 10
3902 77 316 66
3903 77 170 86
3904 77 768 67
3905 77 64 86
3906 77 68 23
3907 77 936 12
3908 77 356 41
3909 77 190 21
3910 77 986 3
3911 77 807 21
3912 77 283 73
3913 77 630 82
3914 77 388 14
3915 77 450 78
3916 77 2 35
3917 77 835 83
3918 77 54 24
3919 77 414 21
3920 77 262 68
3921 77 834 96
3922 77 856 100
3923 77 771 96
3924 77 444 41
3925 77 470 18
3926 77 891 27
3927 77 447 80
3928 77 509 100
3929 77 181 93
3930 77 686 20
3931 77 460 54
3932 77 397 38
3933 77 550 45
3934 77 776 91
3935 77 135 57
3936 77 22 40
3937 77 415 26
3938 77 510 6
3939 77 920 11
3940 77 202 75
3941 77 156 58
3942 77 762 98
3943 77 675 24
3944 77 844 68
3945 77 205 87
3946 77 449 52
3947 77 623 60
3948 77 285 64
3949 77 667 65
3950 77 617 48
3951 77 878 73
3952 78 422 16
3953 78 366 65
3954 78 31 84
3955 78 784 42
3956 78 943 16
3957 78 732 36
3958 78 409 23
3959 78 314 59
3960 78 42 21
3961 78 208 23
3962 78 868 34
3963 78 937 47
3964 78 185 100
3965 78 789 15
3966 78 204 92
3967 78 164 87
3968 78 604 65
3969 78 564 3
3970 78 245 41
3971 78 957 87
3972 78 373 13
3973 78 167 77
3974 78 588 14
3975 78 146 80
3976 78 416 38
3977 78 353 69
3978 78 556 29
3979 78 326 4
3980 78 797 81
3981 78 528 11
3982 78 827 8
3983 78 541 8
3984 78 559 87
3985 78 683 82
3986 78 480 26
3987 78 131 21
3988 78 156 34
3989 78 91 2
3990 78 171 84
3991 78 835 21
3992 78 370 29
3993 78 432 35
3994 78 14 82
3995 78 152 72
3996 78 154 67
3997 78 376 25
3998 78 135 56
3999 78 330 96
4000 78 37 27
4001 78 364 87
4002 78 383 27
4003 78 369 18
4004 78 263 38
4005 78 716 49
4006 78 746 44
4007 78 39 89
4008 79 725 56
4009 79 724 24
4010 79 106 75
4011 79 50 35
4012 79 679 98
4013 79 262 68
4014 79 257 24
4015 79 643 33
4016 79 892 100
4017 79 697 74
4018 79 300 68
4019 79 940 84
4020 79 4 21
4021 79 73 43
4022 79 793 30
4023 79 666 78
4024 79 168 78
4025 79 493 48
4026 79 921 77
4027 79 534 27
4028 79 781 55
4029 79 187 79
4030 79 318 70
4031 79 972 35
4032 79 471 33
4033 79 959 12
4034 79 355 76
4035 79 990 56
4036 79 669 73
4037 79 233 73
4038 79 915 28
4039 79 727 19
4040 79 398 84
4041 79 0 62
4042 79 868 25
4043 79 573 28
4044 79 920 74
4045 79 309 1
4046 79 435 5
4047 79 228 32
4048 79 515 42
4049 79 381 56
4050 79 24 34
4051 79 323 98
4052 79 827 25
4053 79 108 66
4054 79 645 29
4055 79 466 59
4056 79 18 96
4057 79 152 26
4058 80 25 88
4059 80 771 83
4060 80 446 58
4061 80 687 37
4062 80 596 61
4063 80 848 59
4064 80 202 47
4065 80 953 47
4066 80 991 36
4067 80 384 84
4068 80 308 19
4069 80 229 8
4070 80 434 18
4071 80 215 18
4072 80 679 13
4073 80 61 9
4074 80 140 1
4075 80 86 75
4076 80 630 96
4077 80 708 29
4078 80 346 52
4079 80 388 95
4080 80 447 5
4081 80 134 36
4082 80 391 3
4083 80 964 20
4084 80 261 11
4085 80 710 31
4086 80 375 81
4087 80 179 93
4088 80 183 44
4089 80 562 44
4090 80 55 22
4091 80 594 88
4092 80 380 11
4093 80 379 5
4094 80 744 11
4095 80 555 92
4096 81 754 39
4097 81 968 92
4098 81 571 10
4099 81 827 92
4100 81 838 5
4101 81 261 56
4102 81 586 62
4103 81 858 90
4104 81 957 24
4105 81 343 45
4106 81 675 63
4107 81 718 10
4108 81 44 74
4109 81 309 21
4110 81 373 13
4111 81 348 34
4112 81 248 26
4113 81 289 61
4114 81 612 88
4115 81 110 37
4116 81 703 23
4117 81 992 60
4118 81 269 82
4119 81 720 71
4120 81 666 12
4121 81 702 1
4122 81 892 56
4123 81 392 47
4124 81 297 38
4125 81 870 39
4126 81 353 69
4127 81 283 29
4128 81 535 27
4129 81 597 18
4130 81 880 17
4131 81 676 13
4132 81 412 39
4133 81 68 69
4134 81 618 52
4135 81 543 78
4136 81 513 67
4137 81 75 18
4138 81 325 82
4139 81 141 9
4140 81 705 16
4141 81 943 77
4142 82 463 93
4143 82 212 62
4144 82 573 64
4145 82 141 55
4146 82 273 62
4147 82 489 35
4148 82 910 98
4149 82 898 86
4150 82 883 26
4151 82 596 21
4152 82 753 97
4153 82 470 67
4154 82 213 43
4155 82 567 80
4156 82 576 25
4157 82 43 78
4158 82 588 58
4159 82 650 92
4160 82 502 72
4161 82 562 34
4162 82 233 74
4163 82 289 32
4164 82 738 43
4165 82 365 84
4166 82 574 97
4167 82 264 78
4168 82 868 3
4169 82 538 97
4170 82 690 75
4171 82 607 41
4172 82 723 74
4173 82 256 87
4174 82 143 62
4175 82 978 59
4176 82 636 86
4177 82 698 56
4178 82 380 38
4179 82 820 22
4180 82 850 21
4181 82 192 71
4182 82 491 15
4183 82 153 50
4184 82 174 100
4185 82 648 38
4186 82 407 5
4187 82 128 12
4188 82 904 84
4189 82 439 76
4190 82 431 83
4191 82 178 28
4192 82 530 97
4193 82 110 81
4194 83 833 86
4195 83 660 46
4196 83 74 50
4197 83 844 80
4198 83 156 27
4199 83 929 32
4200 83 214 7
4201 83 883 62
4202 83 950 35
4203 83 817 56
4204 83 759 99
4205 83 265 84
4206 83 388 16
4207 83 982 36
4208 83 755 47
4209 83 368 19
4210 83 268 16
4211 83 334 68
4212 83 215 6
4213 83 857 51
4214 83 181 78
4215 83 154 51
4216 83 639 44
4217 83 514 95
4218 83 859 47
4219 83 479 96
4220 83 423 55
4221 83 54 87
4222 83 795 35
4223 83 153 52
4224 83 251 2
4225 83 491 79
4226 83 697 86
4227 83 609 85
4228 83 583 57
4229 83 703 65
4230 83 494 49
4231 83 552 40
4232 83 481 84
4233 83 28 63
4234 83 678 98
4235 83 513 37
4236 84 160 93
4237 84 213 12
4238 84 742 40
4239 84 860 15
4240 84 156 81
4241 84 318 10
4242 84 436 17
4243 84 341 69
4244 84 995 38
4245 84 284 50
4246 84 279 7
4247 84 390 44
4248 84 710 87
4249 84 924 55
4250 84 52 68
4251 84 957 24
4252 84 319 69
4253 84 399 95
4254 84 587 25
4255 84 817 59
4256 84 774 8
4257 84 383 79
4258 84 471 8
4259 84 859 28
4260 84 646 42
4261 84 926 92
4262 84 678 8
4263 84 239 61
4264 84 300 58
4265 84 26 16
4266 84 449 10
4267 84 513 67
4268 84 450 98
4269 84 572 63
4270 84 364 88
4271 84 385 43
4272 84 514 18
4273 84 959 43
4274 84 568 44
4275 84 218 57
4276 84 184 51
4277 84 135 29
4278 84 848 35
4279 84 147 53
4280 84 202 100
4281 84 145 11
4282 84 101 16
4283 84 598 72
4284 84 369 8
4285 85 495 13
4286 85 443 24
4287 85 697 94
4288 85 360 19
4289 85 863 15
4290 85 951 40
4291 85 175 72
4292 85 437 73
4293 85 134 4
4294 85 775 29
4295 85 341 66
4296 85 995 28
4297 85 990 40
4298 85 311 89
4299 85 519 42
4300 85 624 50
4301 85 666 4
4302 85 214 100
4303 85 859 2
4304 85 507 63
4305 85 245 13
4306 85 458 21
4307 85 71 21
4308 85 39 53
4309 85 46 56
4310 85 115 9
4311 85 804 20
4312 85 19 9
4313 85 410 36
4314 85 695 50
4315 85 509 42
4316 85 682 80
4317 85 120 25
4318 85 0 73
4319 85 543 98
4320 85 505 66
4321 85 162 63
4322 85 808 64
4323 85 607 86
4324 85 420 2
4325 85 189 17
4326 85 92 76
4327 85 510 67
4328 85 52 91
4329 85 924 31
4330 85 472 99
4331 85 65 56
4332 85 835 79
4333 85 271 4
4334 85 658 32
4335 85 268 89
4336 85 247 75
4337 85 622 20
4338 85 210 32
4339 85 601 75
4340 85 438 1
4341 85 38 9
4342 85 679 89
4343 85 321 37
4344 86 266 26
4345 86 814 13
4346 86 81 46
4347 86 486 89
4348 86 358 85
4349 86 726 20
4350 86 503 57
4351 86 311 18
4352 86 638 51
4353 86 937 64
4354 86 943 31
4355 86 644 67
4356 86 467 74
4357 86 476 41
4358 86 116 52
4359 86 666 82
4360 86 953 18
4361 86 224 1
4362 86 33 49
4363 86 355 57
4364 86 781 70
4365 86 997 9
4366 86 948 82
4367 86 85 21
4368 86 400 24
4369 86 767 53
4370 86 392 77
4371 86 262 65
4372 86 325 62
4373 86 432 12
4374 86 99 38
4375 86 316 89
4376 86 581 77
4377 86 49 10
4378 86 986 84
4379 86 846 52
4380 86 158 87
4381 86 171 51
4382 86 277 62
4383 86 672 51
4384 86 206 83
4385 86 339 22
4386 86 72 87
4387 86 956 58
4388 86 782 89
4389 86 263 47
4390 86 469 79
4391 86 933 16
4392 86 366 38
4393 86 821 57
4394 86 751 60
4395 86 623 44
4396 86 668 97
4397 86 916 90
4398 86 716 93
4399 86 60 1
4400 87 557 21
4401 87 496 46
4402 87 579 44
4403 87 829 77
4404 87 273 74
4405 87 885 46
4406 87 303 26
4407 87 339 74
4408 87 70 8
4409 87 674 57
4410 87 542 17
4411 87 289 13
4412 87 301 13
4413 87 141 37
4414 87 945 89
4415 87 213 36
4416 87 256 80
4417 87 738 4
4418 87 693 48
4419 87 31 93
4420 87 632 13
4421 87 134 53
4422 87 924 70
4423 87 813 47
4424 87 615 64
4425 87 767 87
4426 87 797 70
4427 87 112 44
4428 87 297 84
4429 87 687 76
4430 87 261 48
4431 87 967 14
4432 87 210 78
4433 87 786 25
4434 87 204 93
4435 87 64 59
4436 87 833 56
4437 87 946 66
4438 87 655 35
4439 87 728 30
4440 87 371 66
4441 87 871 4
4442 87 603 32
4443 88 185 6
4444 88 651 61
4445 88 776 31
4446 88 989 6
4447 88 770 30
4448 88 55 68
4449 88 971 84
4450 88 879 31
4451 88 234 42
4452 88 863 60
4453 88 813 93
4454 88 886 10
4455 88 934 7
4456 88 436 83
4457 88 772 2
4458 88 854 82
4459 88 347 34
4460 88 611 13
4461 88 521 15
4462 88 806 25
4463 88 551 19
4464 88 299 59
4465 88 488 84
4466 88 840 89
4467 88 493 61
4468 88 689 98
4469 88 777 96
4470 88 381 66
4471 88 120 3
4472 88 273 83
4473 88 257 54
4474 88 128 46
4475 88 318 9
4476 88 331 57
4477 88 942 31
4478 88 550 84
4479 88 520 24
4480 88 159 54
4481 88 635 66
4482 88 762 7
4483 88 538 80
4484 88 625 24
4485 88 140 38
4486 88 899 44
4487 88 304 33
4488 88 70 25
4489 88 462 73
4490 89 326 72
4491 89 704 10
4492 89 578 99
4493 89 235 85
4494 89 815 17
4495 89 395 32
4496 89 470 26
4497 89 981 84
4498 89 33 3
4499 89 530 60
4500 89 668 95
4501 89 821 77
4502 89 945 88
4503 89 68 33
4504 89 964 84
4505 89 762 60
4506 89 795 21
4507 89 508 18
4508 89 391 5
4509 89 814 42
4510 89 637 12
4511 89 788 94
4512 89 488 74
4513 89 951 92
4514 89 438 27
4515 89 534 9
4516 89 863 16
4517 89 62 30
4518 89 976 92
4519 89 909 91
4520 89 963 73
4521 89 868 41
4522 89 165 15
4523 89 499 2
4524 89 597 63
4525 89 858 85
4526 89 210 79
4527 89 860 63
4528 89 778 48
4529 89 706 68
4530 89 771 83
4531 89 744 42
4532 89 520 34
4533 89 333 83
4534 89 683 28
4535 90 299 21
4536 90 190 49
4537 90 533 78
4538 90 757 97
4539 90 990 59
4540 90 231 98
4541 90 184 19
4542 90 999 89
4543 90 883 17
4544 90 618 88
4545 90 139 18
4546 90 9 39
4547 90 504 55
4548 90 335 65
4549 90 838 96
4550 90 60 84
4551 90 264 52
4552 90 294 42
4553 90 538 51
4554 90 15 47
4555 90 629 47
4556 90 981 36
4557 90 346 80
4558 90 151 82
4559 90 295 45
4560 90 826 99
4561 90 116 63
4562 90 759 56
4563 90 948 64
4564 90 163 98
4565 90 915 79
4566 90 699 50
4567 90 962 50
4568 90 104 63
4569 90 114 66
4570 90 358 90
4571 90 978 33
4572 90 266 37
4573 90 658 8
4574 90 429 25
4575 90 577 100
4576 90 122 47
4577 90 803 24
4578 90 497 34
4579 90 159 31
4580 90 418 89
4581 90 591 100
4582 90 640 14
4583 90 345 9
4584 91 371 36
4585 91 304 55
4586 91 944 73
4587 91 661 28
4588 91 477 97
4589 91 494 59
4590 91 598 56
4591 91 449 74
4592 91 372 58
4593 91 179 76
4594 91 394 7
4595 91 881 81
4596 91 643 48
4597 91 418 16
4598 91 130 15
4599 91 14 8
4600 91 495 83
4601 91 625 27
4602 91 427 68
4603 91 348 10
4604 91 974 75
4605 91 982 84
4606 91 444 45
4607 91 883 87
4608 91 144 38
4609 91 987 66
4610 91 435 21
4611 91 683 29
4612 91 697 18
4613 91 355 71
4614 91 8 69
4615 91 582 47
4616 91 151 49
4617 91 320 42
4618 91 554 31
4619 91 230 13
4620 91 577 80
4621 91 745 30
4622 91 273 61
4623 91 847 5
4624 91 167 5
4625 91 538 6
4626 91 321 35
4627 91 772 29
4628 91 16 80
4629 91 794 49
4630 92 72 96
4631 92 311 50
4632 92 534 71
4633 92 11 15
4634 92 314 89
4635 92 90 82
4636 92 10 22
4637 92 67 96
4638 92 883 2
4639 92 964 36
4640 92 361 18
4641 92 861 16
4642 92 302 25
4643 92 614 50
4644 92 980 91
4645 92 658 71
4646 92 44 22
4647 92 807 90
4648 92 30 15
4649 92 977 72
4650 92 970 36
4651 92 684 7
4652 92 390 48
4653 92 332 1
4654 92 653 54
4655 92 89 48
4656 92 148 93
4657 92 150 42
4658 92 452 66
4659 92 520 79
4660 92 68 3
4661 92 373 65
4662 92 41 30
4663 92 413 32
4664 92 206 74
4665 92 348 35
4666 92 346 41
4667 92 647 71
4668 92 343 28
4669 92 823 89
4670 92 438 53
4671 92 291 63
4672 92 714 97
4673 92 255 21
4674 92 471 40
4675 92 188 86
4676 92 869 3
4677 92 513 3
4678 92 481 94
4679 92 199 2
4680 93 472 4
4681 93 428 98
4682 93 270 56
4683 93 383 36
4684 93 761 1
4685 93 731 56
4686 93 575 67
4687 93 789 29
4688 93 969 95
4689 93 698 64
4690 93 891 32
4691 93 300 33
4692 93 83 53
4693 93 991 62
4694 93 747 5
4695 93 906 46
4696 93 123 97
4697 93 688 74
4698 93 335 55
4699 93 797 97
4700 93 214 90
4701 93 281 91
4702 93 681 85
4703 93 63 75
4704 93 443 66
4705 93 976 4
4706 93 883 4
4707 93 398 71
4708 93 308 18
4709 93 43 90
4710 93 76 66
4711 93 592 75
4712 93 5 78
4713 93 551 7
4714 93 199 26
4715 93 721 10
4716 93 983 49
4717 93 535 42
4718 93 905 53
4719 93 817 92
4720 93 820 95
4721 93 353 84
4722 93 838 44
4723 93 257 16
4724 93 665 75
4725 93 754 30
4726 93 569 32
4727 93 135 61
4728 93 974 97
4729 93 119 52
4730 94 445 98
4731 94 755 41
4732 94 224 11
4733 94 238 19
4734 94 208 89
4735 94 769 82
4736 94 676 33
4737 94 16 49
4738 94 401 9
4739 94 304 21
4740 94 123 74
4741 94 77 87
4742 94 372 20
4743 94 19 12
4744 94 318 58
4745 94 791 46
4746 94 56 25
4747 94 894 16
4748 94 278 17
4749 94 346 89
4750 94 116 95
4751 94 664 5
4752 94 815 69
4753 94 989 3
4754 94 756 43
4755 94 106 49
4756 94 431 93
4757 94 21 34
4758 94 786 73
4759 94 759 73
4760 94 893 6
4761 94 673 69
4762 94 862 15
4763 94 351 68
4764 94 528 36
4765 94 344 5
4766 94 897 5
4767 94 652 16
4768 94 121 15
4769 94 203 96
4770 94 331 86
4771 94 925 68
4772 94 937 39
4773 95 616 49
4774 95 814 85
4775 95 523 15
4776 95 712 14
4777 95 916 36
4778 95 993 51
4779 95 755 85
4780 95 634 17
4781 95 803 14
4782 95 575 5
4783 95 176 94
4784 95 954 25
4785 95 317 86
4786 95 5 44
4787 95 663 66
4788 95 232 26
4789 95 470 94
4790 95 431 75
4791 95 566 49
4792 95 998 2
4793 95 881 36
4794 95 197 70
4795 95 718 41
4796 95 554 64
4797 95 609 72
4798 95 432 88
4799 95 971 73
4800 95 699 51
4801 95 947 28
4802 95 244 95
4803 95 323 31
4804 95 576 3
4805 95 824 90
4806 95 845 53
4807 95 721 41
4808 95 940 13
4809 95 677 80
4810 95 661 12
4811 95 975 75
4812 95 628 30
4813 95 500 74
4814 95 908 8
4815 95 368 32
4816 95 791 91
4817 95 288 20
4818 95 64 32
4819 95 550 9
4820 95 129 7
4821 95 314 2
4822 95 393 5
4823 95 608 75
4824 96 24 25
4825 96 89 63
4826 96 360 26
4827 96 338 21
4828 96 894 32
4829 96 970 37
4830 96 55 83
4831 96 827 1
4832 96 738 93
4833 96 810 48
4834 96 771 1
4835 96 508 77
4836 96 48 16
4837 96 363 55
4838 96 702 88
4839 96 645 30
4840 96 973 9
4841 96 403 91
4842 96 581 22
4843 96 5 49
4844 96 435 55
4845 96 676 12
4846 96 731 92
4847 96 699 96
4848 96 893 38
4849 96 151 72
4850 96 175 11
4851 96 502 54
4852 96 342 37
4853 96 214 75
4854 96 605 41
4855 96 913 80
4856 96 409 36
4857 96 221 40
4858 96 40 63
4859 96 300 41
4860 96 576 59
4861 96 202 45
4862 96 799 64
4863 96 922 92
4864 96 496 49
4865 96 984 8
4866 96 72 3
4867 96 844 64
4868 96 359 47
4869 96 278 2
4870 96 559 26
4871 96 452 84
4872 96 975 32
4873 96 818 85
4874 96 69 63
4875 96 715 87
4876 96 488 19
4877 96 606 24
4878 97 151 49
4879 97 635 43
4880 97 640 44
4881 97 826 9
4882 97 616 31
4883 97 489 56
4884 97 382 97
4885 97 279 98
4886 97 820 73
4887 97 548 63
4888 97 557 36
4889 97 11 65
4890 97 644 94
4891 97 247 66
4892 97 457 71
4893 97 330 15
4894 97 814 37
4895 97 541 48
4896 97 771 82
4897 97 207 54
4898 97 855 76
4899 97 205 16
4900 97 79 40
4901 97 766 17
4902 97 343 77
4903 97 603 48
4904 97 480 89
4905 97 835 15
4906 97 605 62
4907 97 509 24
4908 97 748 61
4909 97 118 63
4910 97 331 80
4911 97 81 76
4912 97 115 3
4913 97 618 68
4914 97 362 80
4915 97 46 73
4916 97 130 57
4917 97 910 88
4918 97 170 94
4919 97 770 92
4920 97 211 8
4921 97 837 52
4922 97 471 97
4923 97 931 48
4924 97 672 87
4925 97 315 86
4926 97 680 88
4927 97 880 11
4928 97 811 61
4929 97 427 1
4930 97 621 49
4931 97 707 57
4932 98 709 75
4933 98 168 56
4934 98 280 38
4935 98 988 32
4936 98 909 55
4937 98 741 37
4938 98 206 99
4939 98 521 99
4940 98 276 100
4941 98 207 38
4942 98 456 55
4943 98 540 44
4944 98 593 27
4945 98 499 79
4946 98 302 20
4947 98 732 86
4948 98 667 11
4949 98 480 91
4950 98 971 86
4951 98 868 73
4952 98 476 9
4953 98 916 38
4954 98 818 93
4955 98 375 17
4956 98 992 88
4957 98 238 70
4958 98 305 4
4959 98 642 29
4960 98 186 10
4961 98 270 9
4962 98 573 93
4963 99 906 8
4964 99 568 37
4965 99 966 78
4966 99 951 62
4967 99 591 29
4968 99 805 15
4969 99 328 2
4970 99 176 50
4971 99 143 6
4972 99 141 8
4973 99 144 74
4974 99 494 17
4975 99 439 63
4976 99 195 89
4977 99 717 9
4978 99 831 74
4979 99 332 17
4980 99 38 79
4981 99 676 48
4982 99 688 16
4983 99 204 12
4984 99 71 81
4985 99 892 79
4986 99 331 98
4987 99 110 17
4988 99 437 97
4989 99 379 19
4990 99 311 22
4991 99 186 19
4992 99 912 35
4993 99 563 96
4994 99 743 10
4995 99 581 59
4996 99 491 10
4997 99 118 45
4998 99 616 94
4999 99 792 86
5000 99 134 95
5001 99 744 75
5002 99 981 73
5003 99 667 14
5004 99 201 70
5005 99 109 54
5006 99 433 59
5007 99 689 56
5008 99 740 41
5009 99 252 25
5010 99 873 88
5011 99 987 96
5012 99 16 82
5013 99 183 66
5014 99 810 28
5015 99 518 15
5016 100 690 32
5017 100 373 83
5018 100 545 100
5019 100 968 18
5020 100 161 99
5021 100 860 18
5022 100 42 29
5023 100 208 77
5024 100 162 44
5025 100 936 27
5026 100 358 29
5027 100 637 12
5028 100 707 41
5029 100 689 50
5030 100 803 94
5031 100 720 90
5032 100 13 20
5033 100 355 39
5034 100 590 6
5035 100 927 71
5036 100 329 12
5037 100 153 48
5038 100 404 38
5039 100 739 4
5040 100 728 81
5041 100 381 74
5042 100 827 84
5043 100 247 25
5044 100 1 38
5045 100 951 5
5046 100 61 3
5047 100 757 75
5048 100 797 82
5049 100 655 58
5050 100 326 41
5051 100 765 31
5052 100 989 72
5053 100 96 92
5054 100 36 31
5055 100 186 91
5056 100 902 82
5057 100 615 38
5058 100 817 38
5059 100 405 91
5060 100 70 65
5061 100 318 14
5062 100 922 43
5063 100 139 21
5064 100 861 78
5065 100 441 45
5066 100 180 49
5067 100 286 44
5068 100 734 61
5069 100 521 12
5070 101 529 16
5071 101 395 49
5072 101 592 24
5073 101 646 48
5074 101 898 45
5075 101 492 48
5076 101 368 60
5077 101 387 87
5078 101 627 76
5079 101 388 87
5080 101 412 72
5081 101 561 91
5082 101 821 95
5083 101 232 35
5084 101 647 99
5085 101 982 47
5086 101 497 59
5087 101 465 86
5088 101 908 51
5089 101 470 4
5090 101 670 51
5091 101 939 72
5092 101 546 100
5093 101 587 65
5094 101 797 30
5095 101 926 44
5096 101 805 70
5097 101 29 75
5098 101 485 99
5099 101 70 92
5100 101 443 80
5101 101 838 58
5102 101 159 56
5103 101 966 84
5104 101 152 70
5105 101 467 35
5106 101 579 43
5107 101 858 19
5108 101 272 51
5109 101 888 53
5110 101 756 6
5111 101 589 76
5112 101 866 61
5113 101 94 28
5114 101 281 31
5115 101 83 96
5116 102 238 45
5117 102 87 12
5118 102 804 76
5119 102 990 2
5120 102 524 48
5121 102 246 67
5122 102 251 26
5123 102 369 17
5124 102 857 2
5125 102 682 31
5126 102 8 24
5127 102 849 97
5128 102 978 55
5129 102 886 78
5130 102 365 76
5131 102 791 2
5132 102 904 58
5133 102 122 81
5134 102 481 52
5135 102 780 91
5136 102 827 66
5137 102 64 89
5138 102 661 49
5139 102 692 28
5140 102 100 28
5141 102 774 61
5142 102 894 62
5143 102 324 91
5144 102 499 59
5145 102 104 38
5146 102 322 61
5147 102 445 92
5148 102 905 62
5149 102 714 38
5150 102 576 35
5151 102 892 83
5152 102 207 13
5153 102 927 92
5154 102 29 42
5155 102 235 55
5156 102 269 32
5157 102 794 78
5158 102 966 1
5159 102 374 48
5160 102 327 54
5161 102 975 19
5162 102 347 37
5163 102 450 67
5164 102 691 26
5165 102 443 32
5166 102 171 16
5167 102 66 98
5168 103 314 78
5169 103 98 8
5170 103 626 19
5171 103 767 14
5172 103 185 14
5173 103 289 57
5174 103 147 71
5175 103 238 4
5176 103 272 80
5177 103 804 56
5178 103 470 100
5179 103 777 90
5180 103 15 96
5181 103 386 97
5182 103 545 55
5183 103 424 3
5184 103 898 62
5185 103 569 31
5186 103 130 27
5187 103 593 87
5188 103 352 6
5189 103 920 99
5190 103 752 13
5191 103 299 54
5192 103 603 43
5193 103 362 6
5194 103 434 34
5195 103 837 98
5196 103 722 61
5197 103 75 38
5198 103 869 100
5199 103 320 54
5200 103 886 15
5201 103 852 28
5202 103 313 82
5203 103 842 74
5204 103 787 76
5205 103 997 86
5206 103 285 19
5207 103 437 33
5208 103 653 44
5209 103 988 19
5210 103 929 40
5211 103 39 8
5212 103 46 25
5213 103 859 25
5214 103 291 86
5215 104 957 75
5216 104 227 48
5217 104 80 4
5218 104 350 66
5219 104 376 68
5220 104 842 63
5221 104 409 97
5222 104 647 34
5223 104 286 7
5224 104 538 5
5225 104 457 59
5226 104 407 73
5227 104 188 37
5228 104 492 40
5229 104 668 72
5230 104 59 92
5231 104 798 54
5232 104 786 11
5233 104 504 12
5234 104 399 44
5235 104 207 46
5236 104 364 39
5237 104 223 97
5238 104 870 49
5239 104 876 69
5240 104 262 40
5241 104 839 41
5242 104 134 20
5243 104 52 66
5244 104 744 46
5245 104 657 33
5246 104 248 39
5247 104 210 50
5248 104 281 24
5249 104 973 20
5250 104 23 71
5251 104 448 14
5252 104 146 6
5253 104 178 96
5254 104 250 7
5255 104 469 39
5256 104 435 26
5257 104 475 57
5258 104 561 88
5259 104 190 61
5260 104 918 64
5261 104 619 59
5262 104 634 45
5263 104 885 91
5264 104 229 59
5265 104 691 55
5266 104 144 65
5267 104 228 33
5268 105 608 53
5269 105 539 16
5270 105 561 17
5271 105 242 72
5272 105 827 4
5273 105 891 100
5274 105 60 26
5275 105 932 19
5276 105 900 25
5277 105 848 19
5278 105 147 34
5279 105 658 88
5280 105 767 2
5281 105 287 59
5282 105 252 99
5283 105 712 74
5284 105 527 53
5285 105 793 61
5286 105 905 15
5287 105 971 48
5288 105 151 76
5289 105 736 11
5290 105 812 16
5291 105 415 51
5292 105 667 4
5293 105 711 58
5294 105 872 20
5295 105 237 39
5296 105 843 29
5297 105 623 16
5298 105 753 85
5299 105 993 44
5300 105 464 95
5301 105 705 89
5302 105 442 65
5303 105 695 12
5304 105 529 41
5305 105 18 18
5306 105 894 4
5307 105 975 11
5308 105 672 27
5309 106 11 22
5310 106 372 88
5311 106 800 11
5312 106 194 26
5313 106 693 96
5314 106 952 23
5315 106 36 40
5316 106 157 77
5317 106 380 32
5318 106 566 45
5319 106 809 66
5320 106 516 22
5321 106 467 71
5322 106 181 98
5323 106 326 8
5324 106 386 55
5325 106 339 94
5326 106 325 33
5327 106 121 38
5328 106 924 6
5329 106 433 70
5330 106 13 70
5331 106 437 3
5332 106 681 92
5333 106 509 90
5334 106 445 73
5335 106 676 4
5336 106 404 35
5337 106 642 74
5338 106 142 83
5339 106 275 37
5340 106 480 65
5341 106 880 76
5342 106 856 76
5343 106 987 38
5344 106 190 14
5345 106 718 73
5346 106 850 32
5347 106 521 54
5348 106 741 85
5349 106 388 60
5350 106 578 30
5351 106 305 63
5352 106 616 27
5353 106 745 14
5354 106 590 43
5355 106 533 4
5356 107 625 19
5357 107 860 35
5358 107 598 26
5359 107 931 9
5360 107 884 95
5361 107 201 12
5362 107 433 3
5363 107 28 45
5364 107 951 16
5365 107 141 83
5366 107 728 88
5367 107 617 82
5368 107 814 70
5369 107 693 84
5370 107 690 61
5371 107 443 31
5372 107 179 69
5373 107 253 75
5374 107 514 96
5375 107 790 21
5376 107 883 93
5377 107 204 93
5378 107 929 40
5379 107 760 67
5380 107 998 30
5381 107 853 89
5382 107 982 53
5383 107 475 13
5384 107 819 14
5385 107 90 58
5386 107 731 77
5387 107 701 63
5388 107 210 40
5389 107 761 42
5390 107 955 59
5391 107 599 80
5392 107 225 78
5393 107 146 78
5394 107 222 81
5395 107 27 41
5396 107 370 100
5397 107 586 30
5398 107 257 34
5399 107 111 100
5400 107 194 35
5401 107 93 23
5402 107 32 5
5403 107 746 91
5404 107 307 57
5405 107 346 86
5406 107 324 92
5407 107 306 52
5408 108 177 50
5409 108 79 85
5410 108 452 71
5411 108 707 64
5412 108 881 56
5413 108 605 88
5414 108 232 15
5415 108 854 70
5416 108 721 100
5417 108 180 64
5418 108 546 3
5419 108 51 36
5420 108 821 93
5421 108 379 54
5422 108 685 8
5423 108 935 37
5424 108 358 98
5425 108 103 29
5426 108 701 62
5427 108 675 95
5428 108 102 71
5429 108 243 46
5430 108 410 49
5431 108 543 14
5432 108 401 87
5433 108 167 17
5434 108 768 70
5435 108 306 3
5436 108 326 80
5437 108 120 48
5438 108 837 95
5439 108 440 77
5440 108 477 29
5441 108 112 62
5442 108 442 35
5443 108 397 58
5444 108 241 89
5445 108 866 68
5446 108 247 7
5447 108 751 73
5448 108 580 19
5449 108 875 75
5450 108 902 56
5451 108 360 7
5452 108 361 100
5453 108 899 64
5454 108 376 43
5455 108 123 42
5456 108 614 58
5457 108 371 35
5458 108 808 11
5459 108 299 72
5460 108 703 67
5461 108 316 13
5462 108 457 74
5463 109 971 71
5464 109 682 33
5465 109 717 49
5466 109 716 63
5467 109 992 12
5468 109 181 32
5469 109 892 67
5470 109 33 8
5471 109 868 29
5472 109 483 44
5473 109 114 43
5474 109 754 1
5475 109 113 86
5476 109 844 27
5477 109 393 77
5478 109 690 43
5479 109 553 88
5480 109 391 31
5481 109 619 48
5482 109 431 71
5483 109 417 55
5484 109 369 69
5485 109 829 99
5486 109 566 57
5487 109 250 93
5488 109 822 92
5489 109 712 94
5490 109 164 43
5491 109 297 70
5492 109 291 52
5493 109 357 22
5494 109 268 68
5495 109 134 42
5496 109 573 56
5497 109 103 1
5498 109 969 56
5499 109 986 6
5500 109 107 38
5501 109 875 34
5502 109 372 69
5503 109 686 3
5504 109 643 28
5505 109 299 6
5506 109 293 38
5507 109 26 100
5508 109 509 74
5509 109 587 81
5510 109 930 17
5511 110 624 44
5512 110 442 10
5513 110 533 46
5514 110 930 63
5515 110 996 8
5516 110 714 16
5517 110 844 95
5518 110 744 13
5519 110 579 93
5520 110 21 16
5521 110 139 95
5522 110 766 37
5523 110 409 50
5524 110 829 31
5525 110 443 42
5526 110 936 33
5527 110 291 61
5528 110 817 37
5529 110 986 49
5530 110 237 34
5531 110 405 97
5532 110 122 77
5533 110 818 30
5534 110 164 88
5535 110 35 86
5536 110 340 7
5537 110 860 66
5538 110 369 38
5539 110 611 97
5540 110 911 53
5541 110 526 55
5542 110 439 19
5543 110 169 90
5544 110 512 40
5545 110 494 28
5546 110 863 54
5547 110 806 80
5548 110 886 52
5549 110 689 82
5550 110 628 95
5551 110 368 79
5552 110 741 64
5553 111 215 39
5554 111 100 6
5555 111 201 72
5556 111 676 75
5557 111 429 6
5558 111 831 20
5559 111 441 4
5560 111 282 42
5561 111 955 39
5562 111 390 74
5563 111 402 31
5564 111 253 56
5565 111 47 35
5566 111 749 58
5567 111 626 9
5568 111 986 30
5569 111 660 59
5570 111 277 30
5571 111 343 26
5572 111 716 58
5573 111 535 22
5574 111 52 35
5575 111 776 88
5576 111 590 84
5577 111 140 65
5578 111 203 98
5579 111 879 86
5580 111 948 66
5581 111 651 95
5582 111 234 81
5583 111 126 31
5584 111 17 78
5585 111 619 39
5586 111 766 38
5587 111 211 68
5588 111 794 88
5589 111 2 16
5590 111 760 54
5591 111 770 15
5592 111 744 61
5593 111 189 15
5594 111 414 99
5595 111 376 12
5596 111 271 85
5597 111 141 19
5598 111 142 1
5599 111 494 77
5600 111 812 93
5601 111 167 77
5602 111 170 44
5603 111 683 53
5604 111 935 7
5605 111 822 26
5606 111 214 83
5607 111 630 70
5608 111 615 8
5609 111 42 23
5610 111 569 18
5611 111 814 100
5612 111 633 31
5613 111 915 9
5614 111 98 14
5615 111 127 20
5616 111 456 58
5617 111 810 48
5618 112 623 32
5619 112 952 8
5620 112 407 48
5621 112 451 14
5622 112 214 9
5623 112 630 13
5624 112 373 70
5625 112 547 15
5626 112 694 95
5627 112 57 23
5628 112 470 23
5629 112 898 76
5630 112 612 72
5631 112 369 8
5632 112 866 11
5633 112 478 97
5634 112 238 21
5635 112 910 62
5636 112 836 39
5637 112 654 99
5638 112 315 47
5639 112 289 96
5640 112 580 34
5641 112 660 8
5642 112 479 11
5643 112 116 49
5644 112 679 36
5645 112 457 69
5646 112 106 67
5647 112 833 48
5648 112 468 83
5649 112 117 31
5650 112 670 6
5651 112 628 45
5652 112 577 86
5653 112 175 32
5654 112 686 91
5655 112 167 25
5656 112 347 20
5657 112 22 4
5658 112 827 67
5659 112 522 11
5660 112 380 48
5661 112 338 81
5662 112 408 67
5663 112 325 47
5664 112 882 64
5665 112 353 87
5666 112 240 53
5667 113 69 10
5668 113 454 16
5669 113 153 24
5670 113 243 81
5671 113 416 37
5672 113 709 14
5673 113 97 68
5674 113 427 4
5675 113 77 92
5676 113 883 59
5677 113 537 94
5678 113 689 22
5679 113 396 1
5680 113 643 62
5681 113 34 44
5682 113 283 65
5683 113 874 20
5684 113 6 74
5685 113 380 51
5686 113 200 50
5687 113 773 86
5688 113 803 98
5689 113 218 64
5690 113 857 58
5691 113 17 65
5692 113 573 87
5693 113 36 63
5694 113 538 56
5695 113 413 19
5696 113 197 82
5697 113 571 38
5698 113 555 70
5699 113 350 82
5700 113 276 42
5701 113 83 47
5702 113 928 39
5703 113 748 57
5704 113 998 25
5705 113 232 30
5706 113 630 46
5707 113 552 7
5708 113 997 44
5709 113 726 92
5710 113 624 22
5711 113 325 14
5712 113 976 2
5713 113 820 72
5714 113 956 90
5715 114 25 75
5716 114 849 97
5717 114 613 63
5718 114 721 12
5719 114 355 49
5720 114 540 100
5721 114 749 57
5722 114 267 54
5723 114 425 59
5724 114 947 37
5725 114 673 14
5726 114 879 64
5727 114 497 16
5728 114 844 88
5729 114 586 68
5730 114 193 55
5731 114 53 28
5732 114 628 44
5733 114 998 24
5734 114 800 59
5735 114 84 7
5736 114 663 13
5737 114 406 49
5738 114 812 82
5739 114 910 15
5740 114 926 51
5741 114 385 24
5742 114 392 15
5743 114 932 13
5744 114 266 17
5745 114 144 9
5746 114 124 81
5747 114 944 31
5748 114 375 38
5749 114 450 6
5750 114 908 24
5751 114 101 62
5752 114 943 96
5753 114 360 52
5754 114 989 4
5755 114 604 31
5756 114 691 55
5757 114 556 74
5758 114 717 2
5759 114 735 53
5760 114 936 88
5761 114 615 5
5762 114 37 8
5763 114 274 72
5764 114 198 54
5765 114 571 9
5766 114 326 85
5767 114 376 87
5768 114 702 95
5769 114 942 73
5770 114 985 94
5771 114 104 12
5772 114 982 85
5773 115 507 77
5774 115 98 50
5775 115 791 70
5776 115 424 1
5777 115 3 20
5778 115 658 39
5779 115 533 94
5780 115 231 99
5781 115 808 80
5782 115 162 69
5783 115 543 26
5784 115 637 95
5785 115 880 66
5786 115 84 29
5787 115 128 63
5788 115 539 95
5789 115 591 37
5790 115 574 53
5791 115 928 54
5792 115 660 11
5793 115 248 72
5794 115 603 82
5795 115 462 19
5796 115 972 14
5797 115 951 6
5798 115 834 84
5799 115 282 21
5800 115 210 54
5801 115 463 42
5802 115 336 79
5803 115 663 56
5804 115 437 42
5805 115 405 97
5806 115 846 56
5807 115 235 20
5808 115 806 71
5809 115 688 51
5810 115 283 74
5811 115 378 5
5812 115 770 42
5813 115 234 23
5814 115 429 63
5815 115 272 30
5816 115 166 100
5817 115 635 6
5818 115 253 17
5819 115 817 95
5820 115 112 68
5821 115 860 63
5822 115 399 54
5823 115 852 87
5824 115 682 59
5825 115 656 97
5826 115 742 28
5827 115 665 1
5828 115 249 6
5829 115 257 8
5830 115 430 40
5831 115 223 73
5832 115 340 87
5833 115 445 80
5834 115 130 49
5835 115 203 13
5836 115 746 96
5837 116 658 69
5838 116 442 14
5839 116 231 20
5840 116 992 30
5841 116 275 58
5842 116 900 89
5843 116 212 71
5844 116 31 83
5845 116 567 97
5846 116 324 24
5847 116 171 38
5848 116 787 36
5849 116 854 67
5850 116 822 7
5851 116 592 89
5852 116 705 77
5853 116 357 100
5854 116 530 67
5855 116 429 83
5856 116 911 96
5857 116 913 59
5858 116 101 39
5859 116 563 19
5860 116 525 58
5861 116 409 14
5862 116 280 32
5863 116 181 68
5864 116 228 6
5865 116 946 1
5866 116 464 52
5867 116 545 24
5868 116 580 36
5869 116 974 47
5870 116 243 9
5871 116 389 76
5872 116 277 45
5873 116 862 18
5874 116 247 58
5875 116 821 64
5876 116 741 68
5877 116 596 71
5878 116 659 3
5879 116 654 85
5880 116 268 94
5881 116 827 88
5882 116 963 6
5883 116 3 89
5884 116 345 89
5885 116 131 61
5886 116 694 76
5887 116 117 68
5888 116 362 37
5889 116 704 41
5890 116 726 59
5891 116 13 64
5892 116 327 8
5893 116 130 10
5894 116 78 23
5895 116 927 6
5896 116 993 97
5897 116 851 65
5898 116 959 18
5899 116 38 8
5900 116 907 71
5901 116 16 68
5902 116 176 46
5903 116 629 100
5904 116 693 87
5905 116 52 82
5906 117 580 18
5907 117 964 6
5908 117 802 30
5909 117 458 28
5910 117 165 6
5911 117 525 38
5912 117 633 12
5913 117 652 33
5914 117 1 14
5915 117 953 34
5916 117 92 48
5917 117 379 8
5918 117 881 18
5919 117 516 34
5920 117 440 59
5921 117 488 37
5922 117 877 1
5923 117 560 95
5924 117 315 40
5925 117 88 51
5926 117 257 64
5927 117 116 63
5928 117 334 40
5929 117 716 66
5930 117 539 26
5931 117 307 79
5932 117 476 27
5933 117 992 95
5934 117 808 88
5935 117 110 63
5936 117 863 51
5937 117 329 52
5938 117 17 13
5939 117 774 27
5940 117 68 52
5941 117 235 43
5942 117 910 33
5943 117 919 93
5944 117 140 66
5945 117 490 23
5946 117 94 72
5947 117 834 6
5948 117 141 69
5949 117 501 80
5950 117 225 57
5951 117 302 61
5952 117 9 32
5953 117 296 93
5954 117 283 47
5955 117 638 14
5956 118 887 57
5957 118 108 43
5958 118 226 20
5959 118 428 53
5960 118 619 19
5961 118 808 26
5962 118 107 100
5963 118 608 54
5964 118 695 27
5965 118 30 85
5966 118 653 11
5967 118 367 9
5968 118 92 71
5969 118 145 38
5970 118 870 1
5971 118 933 95
5972 118 427 64
5973 118 162 38
5974 118 267 77
5975 118 318 24
5976 118 580 49
5977 118 927 40
5978 118 868 73
5979 118 178 90
5980 118 442 79
5981 118 76 12
5982 118 707 86
5983 118 792 40
5984 118 851 94
5985 118 803 96
5986 118 671 24
5987 118 166 87
5988 118 790 75
5989 118 241 63
5990 118 299 24
5991 118 709 65
5992 118 945 92
5993 118 360 3
5994 118 685 5
5995 118 857 27
5996 118 659 83
5997 118 683 17
5998 118 106 61
5999 118 831 26
6000 118 718 77
6001 118 314 91
6002 118 891 41
6003 118 591 79
6004 118 650 87
6005 118 913 24
6006 118 240 37
6007 118 962 8
6008 118 765 30
6009 118 182 49
6010 118 564 3
6011 118 952 76
6012 118 541 36
6013 118 665 61
6014 118 658 19
6015 119 941 58
6016 119 298 93
6017 119 703 38
6018 119 52 97
6019 119 37 45
6020 119 650 46
6021 119 581 86
6022 119 448 87
6023 119 472 71
6024 119 802 50
6025 119 560 95
6026 119 388 25
6027 119 909 19
6028 119 679 96
6029 119 285 10
6030 119 331 65
6031 119 347 93
6032 119 125 57
6033 119 385 78
6034 119 571 47
6035 119 367 8
6036 119 628 16
6037 119 393 25
6038 119 639 81
6039 119 101 30
6040 119 938 60
6041 119 713 26
6042 119 827 20
6043 119 668 81
6044 119 111 58
6045 119 794 15
6046 119 153 66
6047 119 944 3
6048 119 758 7
6049 119 818 11
6050 119 240 28
6051 119 4 20
6052 119 664 81
6053 119 591 38
6054 119 951 54
6055 119 907 39
6056 119 88 86
6057 119 83 44
6058 119 394 11
6059 119 60 5
6060 119 7 40
6061 119 207 30
6062 119 242 64
6063 119 59 61
6064 119 359 5
6065 119 572 95
6066 119 110 11
6067 119 857 99
6068 119 462 15
6069 119 724 56
6070 120 972 68
6071 120 904 97
6072 120 75 30
6073 120 711 32
6074 120 723 39
6075 120 639 80
6076 120 525 80
6077 120 400 66
6078 120 683 66
6079 120 324 3
6080 120 537 45
6081 120 146 98
6082 120 913 31
6083 120 242 25
6084 120 30 49
6085 120 828 8
6086 120 641 10
6087 120 849 76
6088 120 223 21
6089 120 846 93
6090 120 605 39
6091 120 224 88
6092 120 917 31
6093 120 437 69
6094 120 17 49
6095 120 653 77
6096 120 877 23
6097 120 350 90
6098 120 689 99
6099 120 340 71
6100 120 357 10
6101 120 155 5
6102 120 384 26
6103 120 541 27
6104 120 488 27
6105 120 364 20
6106 120 163 22
6107 120 413 80
6108 120 62 20
6109 120 241 20
6110 120 235 62
6111 120 754 48
6112 120 347 1
6113 120 260 54
6114 120 521 59
6115 120 313 58
6116 120 451 64
6117 120 847 22
6118 120 931 38
6119 120 974 54
6120 120 12 65
6121 120 796 10
6122 120 447 67
6123 120 293 69
6124 121 534 73
6125 121 21 43
6126 121 458 10
6127 121 950 10
6128 121 692 74
6129 121 480 72
6130 121 10 62
6131 121 178 92
6132 121 925 42
6133 121 703 19
6134 121 492 52
6135 121 520 50
6136 121 448 36
6137 121 910 80
6138 121 968 91
6139 121 141 40
6140 121 472 57
6141 121 398 93
6142 121 952 5
6143 121 833 29
6144 121 970 14
6145 121 772 31
6146 121 912 8
6147 121 650 14
6148 121 695 39
6149 121 59 58
6150 121 410 99
6151 121 149 5
6152 121 476 75
6153 121 844 31
6154 121 631 6
6155 121 571 29
6156 121 866 65
6157 121 382 98
6158 121 798 28
6159 121 399 76
6160 121 846 30
6161 121 251 50
6162 121 147 5
6163 121 489 93
6164 121 135 55
6165 121 875 43
6166 121 978 35
6167 121 13 8
6168 122 283 54
6169 122 535 59
6170 122 159 79
6171 122 908 40
6172 122 840 80
6173 122 644 85
6174 122 368 14
6175 122 431 59
6176 122 68 22
6177 122 791 79
6178 122 162 90
6179 122 617 68
6180 122 471 88
6181 122 656 88
6182 122 271 67
6183 122 869 65
6184 122 270 48
6185 122 480 4
6186 122 79 71
6187 122 844 42
6188 122 64 68
6189 122 944 64
6190 122 165 83
6191 122 693 95
6192 122 778 39
6193 122 846 95
6194 122 658 33
6195 122 792 53
6196 122 416 51
6197 122 370 60
6198 122 312 86
6199 122 191 77
6200 122 385 99
6201 122 192 69
6202 122 354 36
6203 122 716 52
6204 122 698 93
6205 122 865 62
6206 122 256 49
6207 122 324 14
6208 122 66 44
6209 122 31 42
6210 122 885 39
6211 122 161 82
6212 122 642 13
6213 122 779 57
6214 122 683 19
6215 122 178 62
6216 122 465 57
6217 122 797 63
6218 122 531 10
6219 122 233 32
6220 123 681 27
6221 123 93 56
6222 123 47 84
6223 123 183 86
6224 123 942 1
6225 123 569 72
6226 123 794 63
6227 123 334 29
6228 123 849 77
6229 123 607 18
6230 123 768 77
6231 123 895 14
6232 123 564 1
6233 123 151 100
6234 123 916 67
6235 123 193 20
6236 123 692 60
6237 123 829 90
6238 123 696 95
6239 123 928 75
6240 123 435 47
6241 123 343 1
6242 123 82 60
6243 123 411 68
6244 123 60 2
6245 123 480 35
6246 123 596 87
6247 123 392 41
6248 123 91 57
6249 123 968 61
6250 123 828 11
6251 123 758 20
6252 123 441 81
6253 123 73 22
6254 123 923 25
6255 123 495 11
6256 123 572 11
6257 123 309 94
6258 123 877 96
6259 123 352 23
6260 123 276 46
6261 123 166 94
6262 123 937 5
6263 123 233 8
6264 123 500 74
6265 123 571 19
6266 123 417 53
6267 124 863 27
6268 124 75 58
6269 124 194 42
6270 124 335 14
6271 124 819 3
6272 124 902 43
6273 124 141 57
6274 124 797 81
6275 124 300 61
6276 124 653 48
6277 124 358 18
6278 124 77 67
6279 124 422 61
6280 124 725 19
6281 124 73 93
6282 124 993 60
6283 124 148 11
6284 124 17 82
6285 124 400 96
6286 124 93 43
6287 124 536 36
6288 124 154 3
6289 124 656 19
6290 124 216 52
6291 124 329 88
6292 124 979 45
6293 124 852 9
6294 124 588 33
6295 124 780 48
6296 124 246 3
6297 124 624 86
6298 124 70 28
6299 124 333 78
6300 124 746 23
6301 124 187 26
6302 124 564 21
6303 124 692 49
6304 124 57 75
6305 124 280 68
6306 124 143 92
6307 124 924 80
6308 124 630 65
6309 124 878 94
6310 124 74 85
6311 124 293 32
6312 124 82 21
6313 124 298 11
6314 124 434 66
6315 125 296 20
6316 125 536 79
6317 125 620 38
6318 125 805 67
6319 125 958 21
6320 125 721 86
6321 125 109 51
6322 125 795 75
6323 125 738 46
6324 125 971 70
6325 125 394 86
6326 125 655 12
6327 125 57 39
6328 125 872 25
6329 125 560 31
6330 125 316 46
6331 125 869 58
6332 125 263 13
6333 125 680 95
6334 125 449 54
6335 125 187 90
6336 125 279 24
6337 125 596 7
6338 125 962 51
6339 125 987 41
6340 125 776 72
6341 125 430 25
6342 125 198 66
6343 125 322 97
6344 125 181 68
6345 125 892 54
6346 125 512 22
6347 125 633 60
6348 125 990 56
6349 125 639 71
6350 125 134 72
6351 125 185 39
6352 125 666 62
6353 125 143 29
6354 125 303 81
6355 125 297 71
6356 125 707 43
6357 125 64 26
6358 125 113 67
6359 125 740 82
6360 125 16 24
6361 125 837 7
6362 125 299 70
6363 125 508 100
6364 125 291 18
6365 125 104 74
6366 125 421 67
6367 125 283 93
6368 126 552 11
6369 126 364 16
6370 126 626 80
6371 126 649 20
6372 126 991 23
6373 126 574 42
6374 126 634 93
6375 126 347 91
6376 126 523 18
6377 126 997 43
6378 126 157 22
6379 126 494 31
6380 126 555 13
6381 126 413 26
6382 126 745 90
6383 126 158 48
6384 126 496 96
6385 126 751 77
6386 126 458 19
6387 126 588 69
6388 126 120 76
6389 126 935 24
6390 126 498 88
6391 126 359 22
6392 126 919 55
6393 126 543 100
6394 126 399 46
6395 126 599 74
6396 126 383 76
6397 126 957 36
6398 126 913 97
6399 126 424 77
6400 126 708 79
6401 126 257 56
6402 126 619 59
6403 126 407 30
6404 126 231 86
6405 126 146 53
6406 126 834 36
6407 127 623 9
6408 127 643 91
6409 127 862 96
6410 127 451 13
6411 127 194 6
6412 127 816 69
6413 127 542 44
6414 127 962 62
6415 127 604 17
6416 127 942 45
6417 127 969 49
6418 127 85 73
6419 127 930 83
6420 127 572 23
6421 127 35 34
6422 127 990 80
6423 127 487 30
6424 127 951 67
6425 127 681 84
6426 127 74 80
6427 127 80 1
6428 127 802 89
6429 127 357 40
6430 127 913 31
6431 127 813 87
6432 127 549 9
6433 127 186 49
6434 127 994 42
6435 127 316 51
6436 127 734 74
6437 127 881 6
6438 127 91 86
6439 127 264 60
6440 127 552 17
6441 127 202 48
6442 127 178 74
6443 127 529 75
6444 127 769 81
6445 127 427 11
6446 127 358 32
6447 127 2 10
6448 127 737 6
6449 127 169 8
6450 127 914 71
6451 128 994 49
6452 128 964 40
6453 128 354 20
6454 128 515 25
6455 128 72 41
6456 128 27 33
6457 128 814 69
6458 128 928 44
6459 128 385 19
6460 128 357 23
6461 128 559 69
6462 128 892 30
6463 128 386 8
6464 128 17 1
6465 128 757 68
6466 128 661 11
6467 128 198 42
6468 128 511 64
6469 128 777 56
6470 128 597 97
6471 128 174 67
6472 128 540 76
6473 128 879 82
6474 128 122 82
6475 128 507 75
6476 128 70 40
6477 128 741 69
6478 128 982 10
6479 128 872 48
6480 128 127 98
6481 128 869 84
6482 128 177 90
6483 128 109 55
6484 128 731 40
6485 128 819 56
6486 128 20 30
6487 128 533 96
6488 128 932 63
6489 128 339 15
6490 128 638 39
6491 128 910 14
6492 128 916 73
6493 128 392 59
6494 129 444 13
6495 129 588 99
6496 129 274 42
6497 129 12 93
6498 129 105 86
6499 129 723 99
6500 129 286 13
6501 129 252 78
6502 129 913 46
6503 129 143 63
6504 129 610 90
6505 129 400 71
6506 129 623 69
6507 129 621 13
6508 129 636 40
6509 129 261 43
6510 129 924 56
6511 129 816 58
6512 129 850 48
6513 129 201 26
6514 129 875 55
6515 129 799 100
6516 129 647 51
6517 129 104 72
6518 129 470 25
6519 129 446 77
6520 129 130 62
6521 129 893 54
6522 129 901 80
6523 129 131 62
6524 129 389 55
6525 129 674 22
6526 129 512 88
6527 129 688 99
6528 129 185 92
6529 129 309 15
6530 129 297 76
6531 129 148 83
6532 129 488 15
6533 129 96 29
6534 129 572 59
6535 129 89 19
6536 130 455 50
6537 130 686 54
6538 130 361 76
6539 130 223 15
6540 130 581 44
6541 130 321 34
6542 130 968 19
6543 130 955 56
6544 130 109 34
6545 130 904 94
6546 130 836 45
6547 130 133 100
6548 130 585 68
6549 130 949 15
6550 130 547 12
6551 130 688 98
6552 130 972 6
6553 130 752 67
6554 130 412 31
6555 130 112 58
6556 130 577 99
6557 130 348 57
6558 130 609 8
6559 130 727 91
6560 130 293 79
6561 130 440 39
6562 130 569 79
6563 130 595 9
6564 130 877 89
6565 130 816 83
6566 130 861 45
6567 130 964 36
6568 130 694 24
6569 130 424 13
6570 130 386 56
6571 130 297 73
6572 130 997 29
6573 130 351 8
6574 130 899 94
6575 130 999 43
6576 130 626 19
6577 130 125 49
6578 130 795 33
6579 130 719 48
6580 130 963 95
6581 130 687 67
6582 130 658 1
6583 131 470 5
6584 131 688 22
6585 131 136 87
6586 131 123 20
6587 131 536 32
6588 131 843 18
6589 131 645 56
6590 131 692 99
6591 131 642 57
6592 131 115 55
6593 131 928 82
6594 131 323 62
6595 131 104 75
6596 131 67 85
6597 131 965 84
6598 131 628 53
6599 131 884 30
6600 131 651 31
6601 131 647 42
6602 131 910 40
6603 131 956 43
6604 131 344 1
6605 131 164 54
6606 131 887 51
6607 131 803 80
6608 131 119 26
6609 131 198 69
6610 131 243 16
6611 131 137 58
6612 131 166 42
6613 131 514 44
6614 131 555 82
6615 131 218 89
6616 131 426 26
6617 131 489 77
6618 131 190 87
6619 131 871 8
6620 131 971 67
6621 131 999 30
6622 131 862 20
6623 131 73 35
6624 131 854 60
6625 131 88 95
6626 131 963 40
6627 131 944 96
6628 131 797 24
6629 131 141 24
6630 132 627 30
6631 132 893 27
6632 132 981 3
6633 132 806 6
6634 132 548 20
6635 132 82 100
6636 132 777 12
6637 132 347 11
6638 132 636 29
6639 132 597 24
6640 132 972 31
6641 132 26 98
6642 132 219 24
6643 132 417 54
6644 132 352 31
6645 132 883 40
6646 132 973 74
6647 132 288 93
6648 132 645 42
6649 132 77 92
6650 132 40 85
6651 132 909 87
6652 132 95 33
6653 132 179 70
6654 132 836 79
6655 132 590 40
6656 132 62 43
6657 132 284 38
6658 132 212 91
6659 132 397 19
6660 132 913 12
6661 132 544 22
6662 132 484 96
6663 132 705 83
6664 132 735 74
6665 132 385 9
6666 132 299 9
6667 132 553 9
6668 132 574 11
6669 132 500 57
6670 132 532 86
6671 132 685 54
6672 132 91 93
6673 132 955 70
6674 132 877 44
6675 132 318 9
6676 132 795 26
6677 132 431 29
6678 132 336 37
6679 132 572 73
6680 132 708 31
6681 132 626 93
6682 133 887 48
6683 133 893 1
6684 133 682 79
6685 133 565 34
6686 133 1 41
6687 133 721 38
6688 133 364 67
6689 133 224 96
6690 133 757 94
6691 133 811 88
6692 133 976 33
6693 133 331 65
6694 133 706 19
6695 133 312 85
6696 133 147 73
6697 133 506 6
6698 133 544 18
6699 133 723 54
6700 133 622 74
6701 133 202 28
6702 133 377 24
6703 133 686 70
6704 133 624 66
6705 133 605 68
6706 133 6 87
6707 133 804 79
6708 133 577 38
6709 133 371 10
6710 133 235 62
6711 133 759 41
6712 133 15 35
6713 133 402 33
6714 133 833 2
6715 133 847 62
6716 133 617 28
6717 133 401 8
6718 133 219 23
6719 133 504 19
6720 133 587 31
6721 133 550 44
6722 134 55 26
6723 134 578 37
6724 134 10 73
6725 134 686 90
6726 134 882 90
6727 134 249 58
6728 134 71 66
6729 134 942 84
6730 134 351 81
6731 134 52 72
6732 134 25 76
6733 134 77 76
6734 134 263 41
6735 134 539 24
6736 134 81 38
6737 134 409 34
6738 134 333 93
6739 134 239 45
6740 134 30 84
6741 134 205 100
6742 134 301 64
6743 134 516 92
6744 134 971 3
6745 134 667 98
6746 134 912 48
6747 134 788 66
6748 134 623 41
6749 134 669 30
6750 134 808 7
6751 134 530 16
6752 134 760 46
6753 134 401 64
6754 134 182 88
6755 134 664 74
6756 134 478 52
6757 134 819 83
6758 134 386 35
6759 134 587 60
6760 134 156 69
6761 134 776 77
6762 134 136 70
6763 134 888 70
6764 134 151 63
6765 134 473 59
6766 134 712 47
6767 134 870 1
6768 134 283 100
6769 134 521 20
6770 134 747 66
6771 134 512 47
6772 134 985 82
6773 134 67 51
6774 134 799 22
6775 134 921 83
6776 134 932 76
6777 135 612 6
6778 135 344 65
6779 135 706 100
6780 135 984 93
6781 135 518 5
6782 135 573 82
6783 135 833 97
6784 135 316 80
6785 135 48 26
6786 135 147 20
6787 135 103 60
6788 135 959 98
6789 135 244 73
6790 135 923 5
6791 135 227 38
6792 135 257 80
6793 135 78 56
6794 135 936 41
6795 135 285 13
6796 135 110 1
6797 135 70 63
6798 135 839 71
6799 135 611 71
6800 135 526 61
6801 135 58 52
6802 135 307 4
6803 135 548 19
6804 135 236 47
6805 135 775 66
6806 135 79 21
6807 135 274 86
6808 135 177 93
6809 135 638 29
6810 135 827 62
6811 135 676 87
6812 135 590 50
6813 135 146 57
6814 135 806 93
6815 135 906 7
6816 135 615 96
6817 135 119 68
6818 135 91 77
6819 135 122 22
6820 135 76 82
6821 136 96 47
6822 136 921 59
6823 136 680 7
6824 136 165 17
6825 136 147 24
6826 136 548 49
6827 136 958 45
6828 136 983 42
6829 136 241 7
6830 136 992 67
6831 136 803 12
6832 136 477 12
6833 136 455 11
6834 136 289 64
6835 136 67 57
6836 136 660 9
6837 136 869 66
6838 136 464 3
6839 136 861 12
6840 136 492 10
6841 136 248 46
6842 136 591 6
6843 136 849 69
6844 136 257 97
6845 136 675 21
6846 136 916 9
6847 136 479 83
6848 136 187 60
6849 136 73 84
6850 136 981 34
6851 136 846 54
6852 136 635 71
6853 136 140 62
6854 136 554 93
6855 136 668 74
6856 136 788 31
6857 136 389 87
6858 136 790 4
6859 137 244 24
6860 137 666 58
6861 137 114 28
6862 137 625 71
6863 137 324 95
6864 137 0 95
6865 137 321 89
6866 137 520 33
6867 137 567 53
6868 137 614 66
6869 137 119 83
6870 137 300 41
6871 137 44 30
6872 137 660 3
6873 137 428 97
6874 137 626 3
6875 137 83 21
6876 137 800 80
6877 137 640 90
6878 137 677 24
6879 137 392 79
6880 137 752 10
6881 137 215 22
6882 137 310 6
6883 137 906 43
6884 137 42 36
6885 137 436 38
6886 137 716 90
6887 137 259 49
6888 137 758 63
6889 137 935 66
6890 137 709 38
6891 137 130 5
6892 137 217 46
6893 137 216 82
6894 137 189 78
6895 137 980 85
6896 137 712 51
6897 137 697 96
6898 137 700 10
6899 137 277 92
6900 137 21 46
6901 137 360 63
6902 137 139 32
6903 137 876 45
6904 137 489 31
6905 137 59 81
6906 137 469 54
6907 137 609 73
6908 137 813 95
6909 137 5 73
6910 137 966 32
6911 137 937 74
6912 137 574 40
6913 137 64 43
6914 137 784 26
6915 137 564 16
6916 137 185 50
6917 137 880 13
6918 138 307 20
6919 138 587 41
6920 138 675 13
6921 138 806 37
6922 138 683 73
6923 138 401 92
6924 138 239 9
6925 138 251 10
6926 138 416 6
6927 138 814 14
6928 138 884 37
6929 138 184 18
6930 138 486 94
6931 138 544 70
6932 138 519 5
6933 138 799 81
6934 138 165 94
6935 138 262 23
6936 138 334 10
6937 138 215 40
6938 138 559 44
6939 138 417 19
6940 138 378 56
6941 138 892 88
6942 138 586 21
6943 138 826 57
6944 138 740 88
6945 138 735 42
6946 138 206 18
6947 138 118 59
6948 138 619 91
6949 138 445 4
6950 138 245 59
6951 138 859 12
6952 138 620 7
6953 138 80 57
6954 138 901 2
6955 138 407 4
6956 138 533 54
6957 138 141 72
6958 138 550 94
6959 138 190 77
6960 138 522 14
6961 138 564 14
6962 138 784 48
6963 138 467 43
6964 138 818 15
6965 138 49 46
6966 138 958 21
6967 138 679 39
6968 138 340 68
6969 138 655 81
6970 138 116 55
6971 138 583 88
6972 138 498 12
6973 138 509 22
6974 138 481 13
6975 138 382 68
6976 138 787 8
6977 138 607 50
6978 138 821 23
6979 138 150 39
6980 138 836 52
6981 138 409 12
6982 139 304 16
6983 139 144 41
6984 139 100 73
6985 139 55 55
6986 139 232 82
6987 139 103 18
6988 139 213 36
6989 139 95 93
6990 139 671 70
6991 139 82 23
6992 139 568 13
6993 139 537 66
6994 139 426 97
6995 139 388 81
6996 139 523 74
6997 139 728 43
6998 139 318 38
6999 139 830 1
7000 139 675 81
7001 139 992 44
7002 139 224 31
7003 139 687 45
7004 139 665 25
7005 139 12 20
7006 139 239 34
7007 139 104 56
7008 139 298 85
7009 139 707 38
7010 139 429 63
7011 139 729 59
7012 139 443 45
7013 139 547 79
7014 139 514 13
7015 139 613 5
7016 139 558 57
7017 139 466 41
7018 139 111 6
7019 139 112 50
7020 139 918 28
7021 139 802 19
7022 139 573 31
7023 139 270 8
7024 139 900 73
7025 139 698 59
7026 139 1 13
7027 139 981 19
7028 139 637 69
7029 139 328 57
7030 140 54 2
7031 140 581 71
7032 140 413 24
7033 140 126 54
7034 140 517 34
7035 140 706 1
7036 140 332 42
7037 140 590 27
7038 140 228 67
7039 140 764 72
7040 140 196 85
7041 140 994 40
7042 140 953 88
7043 140 938 42
7044 140 662 68
7045 140 736 44
7046 140 540 46
7047 140 811 46
7048 140 806 57
7049 140 717 32
7050 140 111 56
7051 140 565 77
7052 140 799 19
7053 140 790 8
7054 140 214 70
7055 140 334 55
7056 140 518 94
7057 140 239 12
7058 140 824 64
7059 140 361 2
7060 140 430 41
7061 140 506 55
7062 140 399 92
7063 140 496 19
7064 140 464 60
7065 140 397 62
7066 140 690 23
7067 140 347 40
7068 140 568 87
7069 140 762 26
7070 140 604 86
7071 140 658 52
7072 140 519 69
7073 140 181 56
7074 140 814 55
7075 140 285 69
7076 140 209 47
7077 140 164 24
7078 140 234 39
7079 140 602 17
7080 140 955 67
7081 140 958 44
7082 141 678 63
7083 141 286 52
7084 141 103 60
7085 141 709 88
7086 141 638 71
7087 141 531 3
7088 141 460 98
7089 141 23 97
7090 141 73 6
7091 141 852 61
7092 141 108 61
7093 141 478 67
7094 141 19 8
7095 141 592 86
7096 141 283 80
7097 141 249 45
7098 141 758 1
7099 141 853 21
7100 141 363 96
7101 141 844 73
7102 141 221 68
7103 141 226 20
7104 141 170 46
7105 141 347 52
7106 141 747 88
7107 141 529 35
7108 141 780 100
7109 141 893 17
7110 141 707 8
7111 141 629 85
7112 141 166 52
7113 141 274 8
7114 141 205 29
7115 141 326 99
7116 141 580 63
7117 141 759 3
7118 141 237 4
7119 141 735 9
7120 141 303 99
7121 141 369 49
7122 141 136 70
7123 141 158 29
7124 141 29 21
7125 141 464 44
7126 141 805 74
7127 141 378 49
7128 141 586 53
7129 141 914 14
7130 141 395 21
7131 141 915 51
7132 141 560 35
7133 141 952 4
7134 141 655 14
7135 141 190 3
7136 142 602 78
7137 142 731 25
7138 142 748 100
7139 142 935 71
7140 142 103 93
7141 142 605 60
7142 142 301 48
7143 142 233 42
7144 142 706 7
7145 142 967 65
7146 142 578 32
7147 142 937 13
7148 142 157 34
7149 142 468 26
7150 142 387 52
7151 142 432 81
7152 142 289 21
7153 142 49 69
7154 142 595 7
7155 142 391 37
7156 142 211 34
7157 142 87 58
7158 142 760 87
7159 142 330 48
7160 142 580 48
7161 142 526 10
7162 142 128 54
7163 142 614 11
7164 142 348 30
7165 142 971 27
7166 142 307 24
7167 142 865 79
7168 142 826 11
7169 142 79 47
7170 142 954 54
7171 142 941 7
7172 142 353 63
7173 142 944 59
7174 142 991 77
7175 142 188 33
7176 142 758 9
7177 142 114 57
7178 142 69 48
7179 142 367 76
7180 142 303 25
7181 142 286 19
7182 142 43 86
7183 142 235 67
7184 142 374 65
7185 142 368 100
7186 142 763 47
7187 142 834 23
7188 142 108 42
7189 142 72 45
7190 142 717 10
7191 142 640 58
7192 142 922 49
7193 142 625 40
7194 142 343 15
7195 142 982 66
7196 142 617 24
7197 142 78 99
7198 142 790 2
7199 142 934 66
7200 142 858 5
7201 142 487 50
7202 142 818 32
7203 142 326 20
7204 142 531 61
7205 142 420 26
7206 142 946 70
7207 142 796 67
7208 143 618 50
7209 143 653 73
7210 143 329 9
7211 143 906 47
7212 143 612 39
7213 143 134 99
7214 143 409 27
7215 143 705 19
7216 143 762 95
7217 143 201 47
7218 143 380 4
7219 143 306 100
7220 143 39 12
7221 143 9 63
7222 143 539 3
7223 143 276 67
7224 143 693 82
7225 143 891 100
7226 143 219 37
7227 143 621 10
7228 143 719 32
7229 143 170 30
7230 143 352 47
7231 143 486 30
7232 143 525 91
7233 143 290 59
7234 143 30 57
7235 143 273 65
7236 143 38 25
7237 143 160 76
7238 143 198 22
7239 143 845 61
7240 143 689 100
7241 143 468 46
7242 143 580 50
7243 143 758 78
7244 143 173 88
7245 143 174 69
7246 143 528 82
7247 143 144 71
7248 143 876 33
7249 143 952 71
7250 143 177 60
7251 143 672 69
7252 143 822 83
7253 143 337 52
7254 143 93 6
7255 143 533 22
7256 143 239 28
7257 143 389 99
7258 143 779 88
7259 144 36 66
7260 144 637 9
7261 144 585 28
7262 144 964 4
7263 144 349 61
7264 144 352 16
7265 144 879 40
7266 144 1 39
7267 144 726 47
7268 144 180 67
7269 144 141 80
7270 144 716 84
7271 144 795 96
7272 144 623 99
7273 144 725 23
7274 144 346 91
7275 144 519 61
7276 144 30 46
7277 144 507 39
7278 144 788 88
7279 144 201 99
7280 144 262 77
7281 144 470 61
7282 144 467 96
7283 144 728 9
7284 144 483 28
7285 144 633 60
7286 144 104 62
7287 144 957 45
7288 144 86 21
7289 144 269 56
7290 144 678 64
7291 144 437 44
7292 144 723 95
7293 144 256 10
7294 144 918 55
7295 144 151 40
7296 144 944 93
7297 144 5 17
7298 144 903 43
7299 144 475 21
7300 144 695 5
7301 144 44 72
7302 144 761 9
7303 145 695 64
7304 145 404 42
7305 145 652 17
7306 145 149 99
7307 145 917 46
7308 145 202 93
7309 145 361 88
7310 145 374 78
7311 145 915 33
7312 145 296 99
7313 145 120 1
7314 145 293 73
7315 145 271 4
7316 145 803 3
7317 145 133 22
7318 145 69 86
7319 145 428 58
7320 145 263 63
7321 145 891 39
7322 145 286 90
7323 145 454 70
7324 145 435 51
7325 145 335 44
7326 145 178 30
7327 145 173 14
7328 145 20 41
7329 145 18 96
7330 145 41 73
7331 145 78 48
7332 145 910 83
7333 145 81 8
7334 145 420 56
7335 145 660 78
7336 145 787 74
7337 145 522 16
7338 145 625 11
7339 145 346 93
7340 145 677 86
7341 145 574 50
7342 145 475 10
7343 145 348 14
7344 145 391 23
7345 145 619 63
7346 145 786 83
7347 145 857 16
7348 145 800 11
7349 145 713 95
7350 145 645 29
7351 145 142 75
7352 145 748 39
7353 145 721 64
7354 145 309 49
7355 145 650 85
7356 145 722 52
7357 145 564 43
7358 145 457 83
7359 145 3 15
7360 145 616 80
7361 146 334 26
7362 146 928 96
7363 146 533 71
7364 146 764 77
7365 146 297 25
7366 146 853 45
7367 146 303 88
7368 146 242 67
7369 146 649 83
7370 146 965 2
7371 146 807 56
7372 146 249 89
7373 146 922 3
7374 146 982 38
7375 146 147 16
7376 146 395 12
7377 146 215 87
7378 146 748 5
7379 146 529 43
7380 146 101 37
7381 146 231 25
7382 146 18 78
7383 146 374 63
7384 146 596 95
7385 146 16 97
7386 146 535 56
7387 146 404 20
7388 146 769 88
7389 146 672 31
7390 146 410 45
7391 146 285 75
7392 146 338 82
7393 146 490 12
7394 146 754 8
7395 146 380 71
7396 146 325 47
7397 146 264 94
7398 146 867 81
7399 146 804 60
7400 146 458 80
7401 146 116 41
7402 146 793 75
7403 146 615 31
7404 146 383 83
7405 146 980 36
7406 146 735 2
7407 146 403 49
7408 146 770 47
7409 147 990 37
7410 147 505 53
7411 147 205 36
7412 147 215 3
7413 147 121 2
7414 147 66 45
7415 147 340 68
7416 147 75 50
7417 147 34 78
7418 147 297 80
7419 147 395 92
7420 147 80 21
7421 147 743 11
7422 147 494 57
7423 147 152 95
7424 147 309 99
7425 147 569 19
7426 147 880 14
7427 147 948 29
7428 147 47 29
7429 147 965 63
7430 147 683 38
7431 147 831 68
7432 147 338 94
7433 147 163 49
7434 147 773 43
7435 147 847 90
7436 147 371 49
7437 147 977 87
7438 147 823 23
7439 147 382 17
7440 147 22 22
7441 147 229 20
7442 147 341 68
7443 147 527 31
7444 147 588 87
7445 147 711 22
7446 147 487 55
7447 147 526 33
7448 147 208 52
7449 147 18 96
7450 147 320 43
7451 147 698 13
7452 147 919 78
7453 147 579 58
7454 147 2 74
7455 147 798 52
7456 147 176 21
7457 147 801 28
7458 147 846 50
7459 147 169 82
7460 148 78 58
7461 148 482 29
7462 148 688 54
7463 148 906 27
7464 148 627 51
7465 148 571 13
7466 148 806 26
7467 148 663 66
7468 148 122 90
7469 148 603 74
7470 148 908 97
7471 148 278 87
7472 148 70 7
7473 148 214 59
7474 148 643 57
7475 148 743 73
7476 148 185 75
7477 148 407 62
7478 148 253 11
7479 148 907 21
7480 148 353 5
7481 148 742 9
7482 148 483 65
7483 148 62 68
7484 148 550 3
7485 148 804 89
7486 148 159 14
7487 148 401 48
7488 148 784 90
7489 148 436 75
7490 148 859 34
7491 148 521 62
7492 148 215 30
7493 148 292 15
7494 148 706 15
7495 148 45 38
7496 148 167 72
7497 148 222 45
7498 148 265 31
7499 148 988 94
7500 148 415 45
7501 148 243 97
7502 148 108 24
7503 148 424 72
7504 148 829 84
7505 148 984 3
7506 148 408 68
7507 148 107 96
7508 148 753 99
7509 148 558 61
7510 148 434 70
7511 148 503 5
7512 148 711 24
7513 149 506 52
7514 149 998 8
7515 149 51 46
7516 149 284 92
7517 149 91 22
7518 149 18 14
7519 149 753 86
7520 149 388 62
7521 149 825 21
7522 149 147 39
7523 149 131 14
7524 149 408 5
7525 149 205 85
7526 149 445 22
7527 149 984 11
7528 149 61 13
7529 149 162 35
7530 149 142 56
7531 149 770 82
7532 149 12 9
7533 149 100 80
7534 149 301 35
7535 149 140 79
7536 149 371 9
7537 149 314 31
7538 149 967 13
7539 149 540 74
7540 149 312 85
7541 149 529 74
7542 149 209 70
7543 149 60 8
7544 149 93 4
7545 149 970 61
7546 149 297 80
7547 149 224 61
7548 149 619 19
7549 149 609 75
7550 149 666 48
7551 149 624 14
7552 149 986 74
7553 149 30 61
7554 149 431 58
7555 149 98 80
7556 149 342 72
7557 149 255 9
7558 149 512 50
7559 149 994 95
7560 149 936 84
7561 149 207 49
7562 149 436 30
7563 149 823 78
7564 149 404 57
7565 149 28 19
7566 149 405 72
7567 149 541 80
7568 150 576 77
7569 150 404 68
7570 150 914 44
7571 150 19 87
7572 150 517 77
7573 150 124 79
7574 150 704 63
7575 150 219 50
7576 150 677 18
7577 150 832 8
7578 150 719 64
7579 150 819 63
7580 150 332 40
7581 150 987 7
7582 150 37 72
7583 150 247 44
7584 150 453 90
7585 150 726 39
7586 150 568 100
7587 150 602 80
7588 150 624 2
7589 150 485 51
7590 150 764 57
7591 150 528 64
7592 150 355 12
7593 150 621 53
7594 150 483 31
7595 150 970 26
7596 150 593 5
7597 150 174 84
7598 150 608 83
7599 150 983 61
7600 150 391 3
7601 150 171 73
7602 150 80 92
7603 150 897 70
7604 150 631 44
7605 151 571 93
7606 151 259 28
7607 151 93 79
7608 151 867 32
7609 151 284 81
7610 151 636 8
7611 151 79 80
7612 151 730 72
7613 151 409 8
7614 151 813 73
7615 151 341 33
7616 151 185 57
7617 151 799 66
7618 151 538 58
7619 151 831 13
7620 151 961 94
7621 151 468 89
7622 151 971 85
7623 151 685 93
7624 151 211 45
7625 151 946 19
7626 151 309 7
7627 151 837 79
7628 151 481 93
7629 151 118 87
7630 151 913 64
7631 151 524 88
7632 151 295 11
7633 151 792 25
7634 151 661 92
7635 151 478 22
7636 151 842 3
7637 151 600 54
7638 151 737 91
7639 151 380 69
7640 151 532 14
7641 151 474 33
7642 151 15 19
7643 151 764 96
7644 151 498 51
7645 151 397 80
7646 151 141 1
7647 151 176 97
7648 151 682 95
7649 152 898 67
7650 152 466 1
7651 152 303 42
7652 152 409 56
7653 152 777 63
7654 152 762 53
7655 152 17 16
7656 152 476 50
7657 152 247 73
7658 152 512 72
7659 152 57 88
7660 152 291 92
7661 152 393 7
7662 152 752 90
7663 152 665 21
7664 152 76 87
7665 152 300 42
7666 152 110 77
7667 152 669 91
7668 152 388 53
7669 152 735 89
7670 152 660 42
7671 152 437 33
7672 152 661 87
7673 152 438 40
7674 152 107 92
7675 152 644 42
7676 152 792 31
7677 152 328 87
7678 152 581 10
7679 152 797 48
7680 152 741 83
7681 152 915 79
7682 152 601 38
7683 152 740 20
7684 152 658 11
7685 152 902 18
7686 152 721 62
7687 152 63 9
7688 152 848 23
7689 152 353 79
7690 152 728 35
7691 152 4 11
7692 152 774 73
7693 152 23 25
7694 152 717 13
7695 153 308 79
7696 153 655 85
7697 153 931 38
7698 153 804 36
7699 153 753 50
7700 153 457 44
7701 153 362 56
7702 153 186 60
7703 153 898 39
7704 153 889 9
7705 153 998 43
7706 153 953 15
7707 153 912 79
7708 153 378 99
7709 153 121 70
7710 153 328 47
7711 153 681 65
7712 153 95 66
7713 153 586 8
7714 153 533 93
7715 153 170 65
7716 153 879 32
7717 153 852 34
7718 153 957 15
7719 153 808 76
7720 153 900 21
7721 153 909 41
7722 153 200 80
7723 153 443 45
7724 153 291 24
7725 153 817 33
7726 153 227 75
7727 153 594 70
7728 153 87 77
7729 153 582 75
7730 153 425 16
7731 153 663 70
7732 153 428 37
7733 153 424 48
7734 153 79 43
7735 153 524 14
7736 153 771 61
7737 153 861 78
7738 153 815 75
7739 153 403 76
7740 153 272 77
7741 153 209 89
7742 153 763 17
7743 153 381 36
7744 153 629 66
7745 153 652 5
7746 154 635 25
7747 154 101 47
7748 154 870 18
7749 154 270 56
7750 154 612 69
7751 154 748 61
7752 154 85 53
7753 154 212 38
7754 154 943 11
7755 154 890 53
7756 154 354 19
7757 154 478 66
7758 154 738 35
7759 154 193 5
7760 154 549 91
7761 154 262 61
7762 154 278 53
7763 154 334 93
7764 154 269 53
7765 154 684 35
7766 154 481 47
7767 154 233 63
7768 154 643 54
7769 154 286 12
7770 154 649 47
7771 154 895 55
7772 154 908 66
7773 154 494 79
7774 154 681 15
7775 154 103 64
7776 154 794 2
7777 154 805 91
7778 154 146 17
7779 154 882 79
7780 154 329 59
7781 154 732 67
7782 154 761 17
7783 154 695 9
7784 154 766 25
7785 154 777 18
7786 154 996 62
7787 154 644 32
7788 154 93 36
7789 154 961 73
7790 154 511 11
7791 154 725 84
7792 155 322 29
7793 155 872 65
7794 155 746 38
7795 155 855 43
7796 155 224 96
7797 155 360 18
7798 155 767 69
7799 155 627 90
7800 155 20 77
7801 155 229 10
7802 155 244 66
7803 155 121 59
7804 155 434 13
7805 155 421 41
7806 155 951 46
7807 155 508 94
7808 155 500 15
7809 155 786 4
7810 155 497 100
7811 155 663 77
7812 155 268 86
7813 155 973 4
7814 155 202 29
7815 155 350 46
7816 155 453 20
7817 155 721 51
7818 155 902 98
7819 155 923 63
7820 155 847 51
7821 155 970 59
7822 155 246 41
7823 155 166 50
7824 155 303 13
7825 155 348 47
7826 155 752 60
7827 155 990 8
7828 155 133 58
7829 155 758 94
7830 155 437 34
7831 155 509 13
7832 155 241 33
7833 155 922 88
7834 155 591 50
7835 155 989 71
7836 155 841 42
7837 155 96 49
7838 155 474 74
7839 155 140 99
7840 155 811 37
7841 156 959 94
7842 156 776 56
7843 156 216 86
7844 156 501 34
7845 156 450 68
7846 156 940 95
7847 156 862 29
7848 156 947 13
7849 156 647 74
7850 156 582 48
7851 156 574 54
7852 156 232 46
7853 156 348 57
7854 156 537 21
7855 156 189 69
7856 156 520 87
7857 156 552 41
7858 156 859 65
7859 156 895 43
7860 156 818 29
7861 156 459 8
7862 156 174 66
7863 156 872 67
7864 156 187 47
7865 156 300 84
7866 156 660 52
7867 156 621 27
7868 156 58 87
7869 156 750 9
7870 156 748 22
7871 156 864 60
7872 156 411 35
7873 156 686 46
7874 156 120 93
7875 156 99 49
7876 156 91 97
7877 156 435 2
7878 156 44 73
7879 156 89 50
7880 156 86 4
7881 156 62 81
7882 157 231 12
7883 157 979 51
7884 157 105 78
7885 157 88 23
7886 157 514 48
7887 157 314 87
7888 157 276 14
7889 157 484 63
7890 157 496 53
7891 157 139 39
7892 157 579 79
7893 157 901 58
7894 157 599 97
7895 157 634 69
7896 157 952 63
7897 157 417 58
7898 157 284 69
7899 157 27 62
7900 157 581 74
7901 157 133 44
7902 157 14 42
7903 157 602 4
7904 157 549 66
7905 157 719 74
7906 157 290 44
7907 157 971 4
7908 157 970 11
7909 157 660 71
7910 157 805 90
7911 157 741 41
7912 157 422 46
7913 157 538 37
7914 157 288 95
7915 157 254 83
7916 157 269 26
7917 157 696 17
7918 157 666 96
7919 157 238 35
7920 157 275 12
7921 157 63 33
7922 157 928 59
7923 157 693 13
7924 157 551 22
7925 157 413 10
7926 158 536 25
7927 158 352 79
7928 158 677 95
7929 158 594 36
7930 158 83 50
7931 158 847 40
7932 158 682 46
7933 158 353 9
7934 158 275 55
7935 158 592 84
7936 158 451 32
7937 158 385 28
7938 158 737 51
7939 158 396 61
7940 158 468 86
7941 158 467 67
7942 158 131 10
7943 158 572 66
7944 158 210 37
7945 158 332 29
7946 158 313 28
7947 158 45 89
7948 158 776 95
7949 158 770 55
7950 158 11 25
7951 158 774 94
7952 158 258 89
7953 158 888 31
7954 158 38 60
7955 158 918 43
7956 158 9 68
7957 158 377 9
7958 158 416 46
7959 158 852 84
7960 159 84 83
7961 159 484 76
7962 159 776 35
7963 159 520 65
7964 159 312 22
7965 159 149 79
7966 159 768 56
7967 159 774 57
7968 159 512 5
7969 159 9 23
7970 159 893 25
7971 159 804 61
7972 159 940 52
7973 159 385 18
7974 159 317 79
7975 159 316 50
7976 159 264 1
7977 159 329 28
7978 159 344 84
7979 159 716 85
7980 159 928 73
7981 159 848 3
7982 159 843 2
7983 159 708 50
7984 159 596 61
7985 159 902 99
7986 159 5 90
7987 159 908 83
7988 159 42 66
7989 159 801 10
7990 159 125 27
7991 159 259 56
7992 159 891 37
7993 159 172 25
7994 159 498 76
7995 159 516 57
7996 159 808 27
7997 159 452 47
7998 159 980 30
7999 159 382 23
8000 159 481 6
8001 159 666 77
8002 159 870 22
8003 159 691 17
8004 159 762 22
8005 160 648 5
8006 160 582 47
8007 160 751 46
8008 160 631 19
8009 160 508 51
8010 160 835 89
8011 160 272 49
8012 160 553 47
8013 160 938 39
8014 160 882 82
8015 160 256 98
8016 160 133 9
8017 160 914 92
8018 160 225 87
8019 160 847 23
8020 160 378 95
8021 160 573 47
8022 160 736 2
8023 160 243 87
8024 160 371 18
8025 160 554 85
8026 160 668 82
8027 160 489 97
8028 160 616 53
8029 160 297 18
8030 160 120 17
8031 160 911 81
8032 160 602 70
8033 160 742 70
8034 160 242 82
8035 160 960 62
8036 160 924 89
8037 160 153 44
8038 160 67 92
8039 160 418 51
8040 160 537 78
8041 160 198 32
8042 160 434 97
8043 160 507 74
8044 160 913 5
8045 160 684 31
8046 160 569 60
8047 161 81 81
8048 161 152 66
8049 161 935 5
8050 161 25 32
8051 161 716 90
8052 161 442 38
8053 161 232 85
8054 161 892 99
8055 161 940 80
8056 161 911 41
8057 161 710 9
8058 161 32 51
8059 161 763 39
8060 161 474 50
8061 161 41 30
8062 161 146 25
8063 161 423 26
8064 161 882 78
8065 161 375 25
8066 161 957 97
8067 161 422 71
8068 161 549 44
8069 161 432 68
8070 161 395 39
8071 161 367 18
8072 161 410 83
8073 161 94 11
8074 161 723 31
8075 161 899 70
8076 161 492 64
8077 161 117 44
8078 161 85 53
8079 161 256 30
8080 161 861 98
8081 161 252 20
8082 161 836 30
8083 161 403 66
8084 161 446 29
8085 161 868 8
8086 161 722 18
8087 161 645 66
8088 161 420 52
8089 162 843 46
8090 162 473 45
8091 162 687 15
8092 162 780 8
8093 162 696 44
8094 162 133 23
8095 162 19 97
8096 162 847 41
8097 162 849 59
8098 162 52 45
8099 162 595 13
8100 162 351 88
8101 162 7 73
8102 162 186 100
8103 162 275 12
8104 162 178 38
8105 162 447 95
8106 162 848 40
8107 162 830 19
8108 162 79 71
8109 162 618 19
8110 162 991 1
8111 162 615 29
8112 162 214 34
8113 162 489 23
8114 162 772 36
8115 162 286 57
8116 162 741 87
8117 162 833 44
8118 162 817 74
8119 162 418 95
8120 162 422 46
8121 162 184 5
8122 162 314 82
8123 162 642 71
8124 162 636 49
8125 162 324 65
8126 162 199 28
8127 162 805 35
8128 162 298 17
8129 163 596 47
8130 163 61 82
8131 163 877 96
8132 163 64 38
8133 163 640 77
8134 163 987 80
8135 163 916 43
8136 163 143 81
8137 163 144 96
8138 163 453 80
8139 163 140 13
8140 163 166 43
8141 163 738 52
8142 163 724 62
8143 163 483 68
8144 163 813 95
8145 163 547 79
8146 163 506 38
8147 163 238 66
8148 163 49 13
8149 163 681 10
8150 163 93 11
8151 163 183 74
8152 163 740 70
8153 163 583 36
8154 163 621 38
8155 163 499 70
8156 163 304 67
8157 163 899 78
8158 163 232 80
8159 163 608 24
8160 163 165 85
8161 163 679 32
8162 163 488 47
8163 163 922 70
8164 163 296 83
8165 163 287 22
8166 163 226 72
8167 163 160 52
8168 163 219 57
8169 163 190 13
8170 163 854 87
8171 163 457 97
8172 163 526 97
8173 163 598 91
8174 163 808 5
8175 163 372 84
8176 163 551 98
8177 164 964 41
8178 164 278 37
8179 164 845 27
8180 164 957 43
8181 164 4 53
8182 164 67 45
8183 164 875 64
8184 164 299 75
8185 164 586 51
8186 164 749 96
8187 164 90 85
8188 164 428 78
8189 164 2 21
8190 164 774 68
8191 164 176 18
8192 164 711 17
8193 164 851 96
8194 164 968 78
8195 164 854 78
8196 164 43 1
8197 164 948 64
8198 164 427 80
8199 164 170 89
8200 164 640 19
8201 164 583 80
8202 164 552 73
8203 164 736 80
8204 164 305 76
8205 164 801 3
8206 164 850 8
8207 164 708 3
8208 164 232 23
8209 164 511 55
8210 164 677 64
8211 164 955 59
8212 164 860 100
8213 164 716 52
8214 164 318 48
8215 164 1 41
8216 164 924 77
8217 164 676 28
8218 164 245 11
8219 164 542 9
8220 164 366 66
8221 164 356 71
8222 164 35 16
8223 164 741 39
8224 164 346 11
8225 164 517 36
8226 165 763 78
8227 165 558 81
8228 165 968 31
8229 165 84 85
8230 165 950 39
8231 165 238 17
8232 165 543 46
8233 165 365 58
8234 165 66 96
8235 165 276 16
8236 165 676 27
8237 165 823 96
8238 165 290 58
8239 165 836 74
8240 165 636 16
8241 165 886 35
8242 165 477 7
8243 165 324 32
8244 165 980 31
8245 165 135 85
8246 165 619 56
8247 165 215 27
8248 165 900 1
8249 165 565 65
8250 165 441 91
8251 165 332 21
8252 165 625 66
8253 165 452 51
8254 165 312 52
8255 165 690 43
8256 165 381 64
8257 165 653 2
8258 165 702 45
8259 165 612 29
8260 165 545 4
8261 165 865 96
8262 165 624 90
8263 165 423 31
8264 165 486 52
8265 165 949 63
8266 165 194 40
8267 165 416 46
8268 165 250 6
8269 165 393 6
8270 165 638 77
8271 165 749 8
8272 165 835 44
8273 165 159 15
8274 165 198 46
8275 165 211 36
8276 165 252 35
8277 165 924 36
8278 165 728 25
8279 165 717 29
8280 165 936 95
8281 165 913 66
8282 165 967 99
8283 165 978 32
8284 166 94 19
8285 166 801 24
8286 166 437 58
8287 166 321 70
8288 166 838 51
8289 166 177 56
8290 166 99 88
8291 166 860 84
8292 166 769 63
8293 166 191 55
8294 166 138 8
8295 166 666 62
8296 166 89 31
8297 166 564 9
8298 166 585 4
8299 166 343 68
8300 166 648 20
8301 166 378 72
8302 166 146 99
8303 166 307 58
8304 166 268 21
8305 166 432 92
8306 166 506 1
8307 166 430 29
8308 166 618 29
8309 166 810 99
8310 166 105 26
8311 166 560 52
8312 166 131 89
8313 166 273 70
8314 166 36 33
8315 166 187 60
8316 166 467 72
8317 166 327 9
8318 166 705 72
8319 166 111 4
8320 166 892 44
8321 166 889 47
8322 166 508 80
8323 166 868 81
8324 166 535 35
8325 166 598 88
8326 166 912 29
8327 166 348 58
8328 166 691 18
8329 166 533 68
8330 166 999 82
8331 166 955 95
8332 166 180 90
8333 166 747 26
8334 167 508 16
8335 167 370 34
8336 167 954 78
8337 167 420 85
8338 167 144 83
8339 167 406 80
8340 167 377 45
8341 167 405 92
8342 167 48 4
8343 167 156 28
8344 167 852 81
8345 167 569 52
8346 167 166 41
8347 167 403 29
8348 167 497 4
8349 167 644 15
8350 167 559 91
8351 167 680 74
8352 167 445 87
8353 167 996 73
8354 167 359 44
8355 167 891 20
8356 167 897 16
8357 167 339 19
8358 167 551 3
8359 167 762 92
8360 167 131 65
8361 167 376 38
8362 167 152 20
8363 167 788 15
8364 167 143 5
8365 167 210 37
8366 167 743 85
8367 167 250 9
8368 167 919 53
8369 167 303 70
8370 167 207 23
8371 167 292 29
8372 167 489 9
8373 167 470 76
8374 167 601 91
8375 167 461 80
8376 167 124 23
8377 167 780 99
8378 167 619 3
8379 167 140 55
8380 167 838 1
8381 167 895 93
8382 167 534 19
8383 167 218 64
8384 168 741 94
8385 168 62 57
8386 168 775 96
8387 168 177 80
8388 168 963 70
8389 168 551 86
8390 168 242 22
8391 168 808 84
8392 168 19 22
8393 168 651 58
8394 168 287 18
8395 168 469 3
8396 168 846 51
8397 168 3 6
8398 168 696 92
8399 168 516 56
8400 168 361 24
8401 168 609 2
8402 168 677 56
8403 168 554 87
8404 168 57 68
8405 168 37 73
8406 168 492 75
8407 168 809 32
8408 168 181 2
8409 168 306 69
8410 168 299 99
8411 168 385 4
8412 168 871 16
8413 168 660 34
8414 168 805 42
8415 168 410 72
8416 168 270 67
8417 168 11 41
8418 168 408 77
8419 168 228 91
8420 168 15 94
8421 168 707 32
8422 168 830 16
8423 168 169 43
8424 168 129 72
8425 168 467 31
8426 168 549 84
8427 168 85 72
8428 168 217 40
8429 168 593 81
8430 168 98 2
8431 168 183 9
8432 168 81 54
8433 168 630 24
8434 168 724 74
8435 168 73 12
8436 168 572 32
8437 168 663 64
8438 168 344 61
8439 168 95 32
8440 168 478 42
8441 168 237 65
8442 168 166 19
8443 168 365 93
8444 168 513 8
8445 169 39 64
8446 169 776 83
8447 169 599 5
8448 169 636 81
8449 169 483 36
8450 169 298 22
8451 169 34 43
8452 169 449 1
8453 169 523 20
8454 169 485 30
8455 169 235 70
8456 169 452 5
8457 169 381 67
8458 169 36 91
8459 169 5 54
8460 169 262 76
8461 169 389 46
8462 169 27 16
8463 169 446 93
8464 169 102 48
8465 169 990 35
8466 169 165 54
8467 169 891 40
8468 169 857 85
8469 169 940 55
8470 169 206 43
8471 169 768 21
8472 169 999 50
8473 169 894 90
8474 169 479 4
8475 169 279 4
8476 169 388 28
8477 169 174 9
8478 169 191 97
8479 169 210 54
8480 169 108 81
8481 169 525 17
8482 169 888 74
8483 169 397 65
8484 169 232 99
8485 169 671 94
8486 169 404 9
8487 169 229 87
8488 169 748 22
8489 169 639 42
8490 169 612 89
8491 169 800 35
8492 169 261 61
8493 169 648 23
8494 169 964 21
8495 169 585 73
8496 169 277 57
8497 169 156 30
8498 169 859 94
8499 169 530 30
8500 170 84 68
8501 170 873 32
8502 170 26 81
8503 170 956 49
8504 170 898 72
8505 170 394 25
8506 170 696 16
8507 170 498 27
8508 170 501 8
8509 170 85 43
8510 170 398 8
8511 170 470 11
8512 170 128 77
8513 170 242 11
8514 170 795 85
8515 170 770 79
8516 170 157 65
8517 170 762 88
8518 170 874 55
8519 170 29 51
8520 170 499 85
8521 170 929 78
8522 170 991 55
8523 170 195 74
8524 170 656 25
8525 170 528 93
8526 170 990 44
8527 170 737 98
8528 170 136 54
8529 170 958 32
8530 170 508 17
8531 170 202 89
8532 170 51 11
8533 170 485 28
8534 170 962 24
8535 170 397 2
8536 170 580 5
8537 170 687 66
8538 170 505 72
8539 170 803 22
8540 170 262 19
8541 170 12 76
8542 170 20 86
8543 170 847 73
8544 170 754 67
8545 170 512 38
8546 170 459 1
8547 170 337 32
8548 170 18 83
8549 171 665 96
8550 171 97 13
8551 171 21 23
8552 171 836 88
8553 171 906 92
8554 171 440 12
8555 171 931 74
8556 171 343 94
8557 171 868 60
8558 171 183 71
8559 171 231 20
8560 171 925 89
8561 171 207 46
8562 171 387 62
8563 171 229 65
8564 171 891 61
8565 171 149 4
8566 171 288 79
8567 171 353 95
8568 171 646 42
8569 171 113 88
8570 171 862 92
8571 171 408 79
8572 171 747 65
8573 171 378 80
8574 171 601 4
8575 171 826 61
8576 171 173 64
8577 171 511 78
8578 171 630 45
8579 171 517 98
8580 171 502 5
8581 171 0 95
8582 171 927 32
8583 171 732 84
8584 171 73 97
8585 171 126 81
8586 171 504 60
8587 171 901 12
8588 171 734 65
8589 171 900 97
8590 171 752 20
8591 171 208 78
8592 171 107 71
8593 171 570 32
8594 171 369 77
8595 171 887 100
8596 171 678 50
8597 171 810 44
8598 171 832 31
8599 171 884 24
8600 171 150 38
8601 171 939 90
8602 172 51 26
8603 172 638 74
8604 172 594 78
8605 172 632 22
8606 172 841 68
8607 172 711 68
8608 172 710 89
8609 172 984 70
8610 172 674 98
8611 172 462 4
8612 172 744 74
8613 172 94 88
8614 172 257 11
8615 172 828 6
8616 172 893 12
8617 172 266 6
8618 172 281 45
8619 172 741 51
8620 172 101 66
8621 172 329 40
8622 172 230 24
8623 172 89 53
8624 172 534 68
8625 172 574 92
8626 172 619 6
8627 172 530 84
8628 172 70 93
8629 172 883 2
8630 172 311 82
8631 172 12 96
8632 172 175 87
8633 172 240 72
8634 172 988 59
8635 172 955 67
8636 172 837 22
8637 172 223 81
8638 172 595 43
8639 172 64 69
8640 172 255 36
8641 172 851 66
8642 172 117 26
8643 172 754 12
8644 172 440 50
8645 172 5 89
8646 172 516 21
8647 172 323 85
8648 173 532 31
8649 173 169 10
8650 173 819 52
8651 173 692 96
8652 173 88 12
8653 173 226 24
8654 173 350 83
8655 173 996 17
8656 173 826 51
8657 173 835 60
8658 173 527 64
8659 173 348 87
8660 173 311 64
8661 173 731 7
8662 173 310 87
8663 173 404 1
8664 173 756 86
8665 173 438 9
8666 173 447 12
8667 173 842 65
8668 173 312 97
8669 173 358 79
8670 173 876 63
8671 173 896 93
8672 173 662 10
8673 173 341 59
8674 173 172 39
8675 173 978 97
8676 173 361 87
8677 173 220 45
8678 173 107 59
8679 173 321 98
8680 173 1 34
8681 173 398 71
8682 173 582 11
8683 173 575 63
8684 173 457 83
8685 173 821 73
8686 173 410 32
8687 173 861 51
8688 173 725 10
8689 173 162 95
8690 173 753 9
8691 174 667 53
8692 174 662 81
8693 174 830 24
8694 174 233 91
8695 174 520 100
8696 174 137 32
8697 174 29 99
8698 174 940 92
8699 174 982 61
8700 174 898 66
8701 174 985 88
8702 174 161 71
8703 174 673 7
8704 174 864 92
8705 174 150 9
8706 174 876 65
8707 174 328 50
8708 174 816 49
8709 174 202 48
8710 174 84 65
8711 174 839 65
8712 174 140 60
8713 174 419 24
8714 174 883 81
8715 174 742 66
8716 174 951 51
8717 174 466 35
8718 174 39 56
8719 174 235 62
8720 174 446 99
8721 174 117 23
8722 174 595 14
8723 174 64 53
8724 174 822 13
8725 174 819 11
8726 174 459 83
8727 174 409 54
8728 174 671 88
8729 174 360 3
8730 174 751 20
8731 174 600 43
8732 174 382 68
8733 174 320 43
8734 174 795 84
8735 174 52 51
8736 174 211 44
8737 174 674 75
8738 174 96 95
8739 174 47 43
8740 174 389 36
8741 174 918 24
8742 174 943 77
8743 175 886 1
8744 175 851 49
8745 175 237 69
8746 175 718 63
8747 175 205 89
8748 175 614 99
8749 175 180 97
8750 175 736 45
8751 175 245 26
8752 175 98 100
8753 175 921 71
8754 175 600 2
8755 175 108 48
8756 175 971 60
8757 175 735 7
8758 175 703 7
8759 175 776 29
8760 175 844 66
8761 175 484 32
8762 175 464 30
8763 175 341 75
8764 175 278 2
8765 175 550 6
8766 175 386 75
8767 175 631 5
8768 175 20 15
8769 175 701 70
8770 175 446 44
8771 175 13 43
8772 175 103 84
8773 175 770 57
8774 175 611 4
8775 175 308 2
8776 175 994 90
8777 175 81 77
8778 175 664 76
8779 175 669 89
8780 175 150 12
8781 175 172 52
8782 176 700 31
8783 176 775 77
8784 176 820 14
8785 176 270 56
8786 176 235 69
8787 176 884 93
8788 176 434 96
8789 176 287 48
8790 176 436 88
8791 176 481 17
8792 176 160 58
8793 176 40 27
8794 176 925 19
8795 176 541 78
8796 176 835 92
8797 176 209 67
8798 176 180 62
8799 176 592 77
8800 176 702 98
8801 176 637 63
8802 176 208 85
8803 176 715 73
8804 176 831 47
8805 176 625 2
8806 176 865 85
8807 176 499 15
8808 176 295 39
8809 176 152 76
8810 176 96 19
8811 176 291 97
8812 176 230 89
8813 176 650 78
8814 176 579 11
8815 176 424 44
8816 176 730 33
8817 176 710 49
8818 176 849 43
8819 176 760 28
8820 176 319 86
8821 176 527 62
8822 176 547 100
8823 176 664 66
8824 176 991 67
8825 176 990 10
8826 176 674 85
8827 176 660 24
8828 176 253 2
8829 176 897 74
8830 176 53 66
8831 176 783 82
8832 176 401 87
8833 176 231 37
8834 176 283 64
8835 176 444 5
8836 176 131 97
8837 176 141 38
8838 176 482 34
8839 176 629 48
8840 176 185 90
8841 176 65 20
8842 176 404 11
8843 177 33 39
8844 177 844 25
8845 177 295 82
8846 177 428 18
8847 177 133 83
8848 177 58 79
8849 177 505 68
8850 177 707 58
8851 177 579 47
8852 177 641 6
8853 177 710 74
8854 177 524 33
8855 177 281 2
8856 177 368 100
8857 177 392 35
8858 177 29 14
8859 177 766 92
8860 177 369 3
8861 177 246 32
8862 177 468 10
8863 177 908 58
8864 177 961 24
8865 177 386 38
8866 177 211 62
8867 177 907 46
8868 177 663 91
8869 177 171 47
8870 177 651 65
8871 177 652 36
8872 177 478 64
8873 177 640 20
8874 177 23 83
8875 177 989 31
8876 177 424 7
8877 177 953 44
8878 177 985 13
8879 177 76 70
8880 177 219 36
8881 177 868 29
8882 177 191 23
8883 177 203 44
8884 177 113 18
8885 177 279 15
8886 177 483 91
8887 177 298 56
8888 177 599 43
8889 178 382 5
8890 178 35 29
8891 178 390 97
8892 178 572 94
8893 178 112 47
8894 178 435 83
8895 178 268 44
8896 178 598 71
8897 178 273 48
8898 178 352 70
8899 178 419 51
8900 178 378 35
8901 178 335 1
8902 178 905 79
8903 178 997 78
8904 178 676 80
8905 178 946 15
8906 178 725 32
8907 178 902 27
8908 178 989 87
8909 178 108 23
8910 178 330 9
8911 178 194 65
8912 178 247 57
8913 178 659 98
8914 178 362 55
8915 178 945 92
8916 178 121 15
8917 178 403 37
8918 178 44 69
8919 178 93 92
8920 178 156 23
8921 178 535 92
8922 178 290 18
8923 178 279 78
8924 178 130 35
8925 178 784 48
8926 178 148 96
8927 178 596 60
8928 178 239 72
8929 178 71 89
8930 178 101 78
8931 178 780 86
8932 178 768 37
8933 178 880 42
8934 178 253 61
8935 178 919 59
8936 178 850 66
8937 178 692 68
8938 178 155 82
8939 178 953 96
8940 178 551 66
8941 178 159 35
8942 179 917 29
8943 179 779 55
8944 179 834 5
8945 179 943 92
8946 179 356 30
8947 179 188 32
8948 179 919 66
8949 179 228 35
8950 179 858 95
8951 179 981 39
8952 179 925 37
8953 179 869 16
8954 179 915 44
8955 179 861 64
8956 179 832 61
8957 179 859 66
8958 179 850 60
8959 179 72 29
8960 179 611 65
8961 179 425 44
8962 179 677 9
8963 179 621 12
8964 179 655 2
8965 179 898 2
8966 179 20 91
8967 179 939 3
8968 179 592 26
8969 179 43 1
8970 179 571 20
8971 179 350 78
8972 179 194 33
8973 179 662 71
8974 179 762 64
8975 179 639 65
8976 179 513 24
8977 179 528 48
8978 179 170 48
8979 179 763 45
8980 179 166 74
8981 179 967 28
8982 179 924 70
8983 179 283 59
8984 179 162 5
8985 179 171 77
8986 179 552 31
8987 179 548 15
8988 179 274 10
8989 179 39 16
8990 179 837 2
8991 179 167 23
8992 179 250 81
8993 179 261 35
8994 179 962 56
8995 180 552 82
8996 180 376 82
8997 180 975 89
8998 180 141 81
8999 180 33 92
9000 180 871 20
9001 180 243 33
9002 180 855 47
9003 180 424 37
9004 180 299 82
9005 180 18 14
9006 180 329 53
9007 180 131 76
9008 180 759 29
9009 180 224 37
9010 180 697 56
9011 180 588 63
9012 180 196 51
9013 180 404 95
9014 180 932 3
9015 180 167 72
9016 180 924 17
9017 180 271 16
9018 180 664 100
9019 180 536 67
9020 180 556 65
9021 180 754 24
9022 180 859 25
9023 180 851 31
9024 180 491 40
9025 180 480 51
9026 180 385 83
9027 180 605 95
9028 180 544 34
9029 180 561 100
9030 180 469 79
9031 180 328 82
9032 180 336 47
9033 180 852 41
9034 180 898 75
9035 180 791 53
9036 180 190 67
9037 180 782 64
9038 180 708 98
9039 180 551 18
9040 180 282 3
9041 180 379 87
9042 180 963 48
9043 180 286 62
9044 180 736 98
9045 180 589 83
9046 181 160 94
9047 181 683 1
9048 181 853 36
9049 181 540 56
9050 181 648 72
9051 181 592 30
9052 181 375 53
9053 181 127 92
9054 181 919 49
9055 181 509 73
9056 181 613 48
9057 181 120 91
9058 181 988 52
9059 181 381 9
9060 181 340 26
9061 181 331 34
9062 181 746 69
9063 181 396 69
9064 181 516 56
9065 181 864 61
9066 181 758 97
9067 181 998 80
9068 181 36 37
9069 181 681 11
9070 181 346 14
9071 181 277 24
9072 181 395 25
9073 181 187 51
9074 181 563 6
9075 181 999 18
9076 181 2 77
9077 181 112 34
9078 181 827 80
9079 181 947 78
9080 181 816 31
9081 181 157 13
9082 181 550 96
9083 181 902 70
9084 181 649 82
9085 181 285 37
9086 181 869 87
9087 181 841 38
9088 181 298 100
9089 181 847 48
9090 181 399 77
9091 181 161 70
9092 181 877 42
9093 181 861 50
9094 181 397 99
9095 181 805 61
9096 182 169 67
9097 182 264 35
9098 182 673 6
9099 182 164 46
9100 182 762 12
9101 182 518 37
9102 182 575 19
9103 182 328 94
9104 182 560 56
9105 182 632 100
9106 182 552 43
9107 182 232 43
9108 182 733 7
9109 182 912 56
9110 182 372 14
9111 182 398 52
9112 182 638 53
9113 182 939 85
9114 182 252 77
9115 182 287 3
9116 182 607 9
9117 182 541 52
9118 182 373 69
9119 182 785 72
9120 182 925 99
9121 182 223 100
9122 182 154 70
9123 182 175 3
9124 182 77 86
9125 182 753 46
9126 182 963 63
9127 182 83 97
9128 182 542 100
9129 182 966 57
9130 182 476 70
9131 182 545 97
9132 182 23 93
9133 182 538 78
9134 182 551 90
9135 182 758 7
9136 182 763 41
9137 182 197 11
9138 182 797 10
9139 182 224 64
9140 183 394 55
9141 183 718 92
9142 183 372 45
9143 183 380 59
9144 183 259 42
9145 183 800 36
9146 183 677 83
9147 183 232 2
9148 183 767 52
9149 183 268 9
9150 183 986 38
9151 183 580 6
9152 183 204 3
9153 183 642 2
9154 183 169 40
9155 183 95 47
9156 183 256 67
9157 183 262 80
9158 183 516 35
9159 183 506 45
9160 183 526 25
9161 183 727 26
9162 183 406 91
9163 183 584 80
9164 183 545 19
9165 183 92 37
9166 183 86 78
9167 183 26 31
9168 183 467 18
9169 183 239 72
9170 183 913 98
9171 183 612 18
9172 183 344 94
9173 183 936 43
9174 183 218 98
9175 183 229 74
9176 183 631 99
9177 183 960 12
9178 183 533 83
9179 183 73 87
9180 183 487 62
9181 183 991 61
9182 184 977 24
9183 184 292 33
9184 184 471 1
9185 184 877 14
9186 184 216 41
9187 184 593 84
9188 184 169 97
9189 184 911 4
9190 184 982 7
9191 184 828 63
9192 184 728 49
9193 184 541 74
9194 184 81 75
9195 184 87 1
9196 184 995 36
9197 184 289 64
9198 184 337 58
9199 184 580 52
9200 184 621 87
9201 184 517 98
9202 184 13 11
9203 184 747 97
9204 184 613 14
9205 184 99 98
9206 184 1 24
9207 184 62 30
9208 184 955 90
9209 184 86 97
9210 184 448 46
9211 184 519 49
9212 184 591 75
9213 184 900 36
9214 184 499 81
9215 184 643 73
9216 184 137 97
9217 184 608 95
9218 184 16 77
9219 184 449 23
9220 184 532 65
9221 184 904 55
9222 184 694 29
9223 184 356 5
9224 184 956 19
9225 184 343 6
9226 184 751 18
9227 184 509 8
9228 184 326 13
9229 184 423 97
9230 184 453 83
9231 185 509 3
9232 185 890 62
9233 185 172 64
9234 185 354 91
9235 185 298 70
9236 185 24 24
9237 185 315 44
9238 185 482 69
9239 185 242 86
9240 185 632 5
9241 185 829 3
9242 185 645 24
9243 185 942 50
9244 185 377 75
9245 185 489 24
9246 185 344 21
9247 185 813 48
9248 185 73 37
9249 185 725 9
9250 185 871 41
9251 185 369 15
9252 185 108 51
9253 185 584 13
9254 185 125 70
9255 185 970 11
9256 185 333 8
9257 185 968 1
9258 185 979 60
9259 185 69 40
9260 185 849 1
9261 185 892 31
9262 185 789 22
9263 185 648 78
9264 185 164 29
9265 185 988 58
9266 185 78 74
9267 185 184 12
9268 185 245 87
9269 185 158 11
9270 185 953 80
9271 185 239 47
9272 185 931 72
9273 185 665 52
9274 185 521 33
9275 185 418 28
9276 185 952 28
9277 185 39 67
9278 185 79 53
9279 185 652 82
9280 185 550 6
9281 185 736 43
9282 185 202 46
9283 185 107 27
9284 185 771 66
9285 185 826 26
9286 185 943 68
9287 185 714 14
9288 186 569 1
9289 186 980 82
9290 186 151 71
9291 186 69 68
9292 186 313 15
9293 186 320 5
9294 186 318 8
9295 186 830 23
9296 186 956 80
9297 186 749 33
9298 186 948 95
9299 186 510 38
9300 186 674 4
9301 186 484 21
9302 186 974 95
9303 186 323 92
9304 186 310 96
9305 186 447 89
9306 186 979 38
9307 186 809 87
9308 186 922 39
9309 186 684 84
9310 186 276 73
9311 186 393 21
9312 186 699 58
9313 186 987 98
9314 186 129 76
9315 186 660 32
9316 186 806 77
9317 186 945 99
9318 186 324 65
9319 186 904 47
9320 186 388 14
9321 186 188 68
9322 186 573 9
9323 186 754 62
9324 186 101 6
9325 186 581 10
9326 186 594 1
9327 186 207 68
9328 186 176 48
9329 186 385 29
9330 186 638 47
9331 186 919 72
9332 186 716 11
9333 186 30 5
9334 186 853 86
9335 186 75 71
9336 186 348 2
9337 186 77 47
9338 187 332 94
9339 187 314 18
9340 187 487 3
9341 187 671 11
9342 187 439 16
9343 187 201 87
9344 187 961 23
9345 187 805 72
9346 187 94 88
9347 187 468 20
9348 187 689 58
9349 187 269 3
9350 187 746 18
9351 187 159 27
9352 187 952 17
9353 187 562 17
9354 187 402 62
9355 187 773 31
9356 187 111 17
9357 187 108 17
9358 187 666 34
9359 187 470 34
9360 187 962 24
9361 187 796 62
9362 187 894 69
9363 187 69 77
9364 187 88 42
9365 187 47 73
9366 187 412 3
9367 187 189 11
9368 187 192 99
9369 187 737 60
9370 187 923 46
9371 187 822 69
9372 187 954 54
9373 187 411 85
9374 187 219 22
9375 187 502 76
9376 187 484 33
9377 187 392 29
9378 187 890 15
9379 187 842 90
9380 187 406 9
9381 187 319 100
9382 187 877 67
9383 187 34 50
9384 187 628 96
9385 187 760 36
9386 187 768 21
9387 188 664 34
9388 188 713 41
9389 188 607 91
9390 188 448 9
9391 188 307 74
9392 188 606 11
9393 188 529 92
9394 188 197 46
9395 188 641 100
9396 188 817 49
9397 188 603 50
9398 188 219 64
9399 188 245 53
9400 188 38 78
9401 188 797 86
9402 188 868 68
9403 188 93 27
9404 188 140 20
9405 188 724 82
9406 188 629 15
9407 188 719 99
9408 188 786 64
9409 188 217 37
9410 188 286 80
9411 188 655 68
9412 188 888 70
9413 188 393 11
9414 188 878 6
9415 188 683 38
9416 188 144 11
9417 188 231 56
9418 188 290 50
9419 188 499 34
9420 188 586 57
9421 188 625 56
9422 188 634 61
9423 188 472 9
9424 188 101 87
9425 188 216 2
9426 188 437 3
9427 188 91 47
9428 188 354 96
9429 188 718 9
9430 188 178 14
9431 188 359 97
9432 188 534 76
9433 188 5 69
9434 188 842 4
9435 189 923 55
9436 189 625 82
9437 189 107 65
9438 189 199 70
9439 189 47 60
9440 189 924 58
9441 189 483 87
9442 189 919 86
9443 189 272 27
9444 189 30 9
9445 189 592 42
9446 189 698 6
9447 189 186 87
9448 189 365 34
9449 189 522 32
9450 189 437 13
9451 189 773 56
9452 189 735 100
9453 189 993 18
9454 189 238 11
9455 189 379 89
9456 189 677 26
9457 189 347 36
9458 189 511 86
9459 189 779 65
9460 189 39 17
9461 189 675 9
9462 189 449 15
9463 189 246 51
9464 189 388 68
9465 189 692 11
9466 189 127 32
9467 189 145 45
9468 189 228 61
9469 189 282 24
9470 189 150 59
9471 189 79 16
9472 189 68 14
9473 189 753 8
9474 189 682 10
9475 189 111 98
9476 189 514 75
9477 189 63 1
9478 189 480 36
9479 189 87 52
9480 189 503 16
9481 189 890 24
9482 189 109 51
9483 189 222 99
9484 189 541 5
9485 189 249 19
9486 189 818 35
9487 189 846 69
9488 189 166 77
9489 189 504 75
9490 189 845 64
9491 189 644 37
9492 190 778 80
9493 190 630 99
9494 190 979 22
9495 190 314 8
9496 190 985 97
9497 190 35 52
9498 190 294 85
9499 190 717 10
9500 190 908 21
9501 190 255 72
9502 190 360 13
9503 190 184 1
9504 190 917 25
9505 190 942 20
9506 190 660 53
9507 190 847 13
9508 190 0 82
9509 190 111 8
9510 190 528 59
9511 190 362 88
9512 190 432 71
9513 190 602 96
9514 190 579 3
9515 190 805 64
9516 190 196 10
9517 190 517 28
9518 190 587 45
9519 190 980 24
9520 190 399 24
9521 190 189 53
9522 190 769 99
9523 190 60 79
9524 190 656 30
9525 190 526 72
9526 190 608 10
9527 190 735 15
9528 190 88 86
9529 190 328 84
9530 190 506 86
9531 190 861 54
9532 190 809 60
9533 190 653 21
9534 191 577 98
9535 191 706 83
9536 191 371 46
9537 191 694 77
9538 191 351 86
9539 191 563 80
9540 191 462 72
9541 191 657 60
9542 191 200 4
9543 191 587 29
9544 191 774 27
9545 191 697 91
9546 191 88 60
9547 191 608 24
9548 191 144 61
9549 191 383 75
9550 191 652 12
9551 191 458 7
9552 191 983 58
9553 191 117 91
9554 191 18 83
9555 191 177 89
9556 191 441 42
9557 191 923 50
9558 191 375 80
9559 191 185 64
9560 191 155 78
9561 191 260 43
9562 191 567 35
9563 191 727 1
9564 191 996 16
9565 191 402 13
9566 191 541 42
9567 191 81 76
9568 191 936 18
9569 191 279 27
9570 191 103 30
9571 191 839 48
9572 191 660 12
9573 191 637 83
9574 191 206 69
9575 191 781 44
9576 191 788 83
9577 191 630 23
9578 191 386 59
9579 192 983 2
9580 192 644 1
9581 192 507 82
9582 192 896 42
9583 192 217 42
9584 192 204 47
9585 192 53 86
9586 192 720 5
9587 192 628 9
9588 192 945 77
9589 192 633 97
9590 192 540 82
9591 192 923 62
9592 192 749 5
9593 192 130 53
9594 192 372 70
9595 192 847 7
9596 192 218 37
9597 192 123 18
9598 192 596 89
9599 192 912 89
9600 192 708 10
9601 192 984 5
9602 192 462 60
9603 192 531 73
9604 192 758 40
9605 192 40 14
9606 192 233 76
9607 192 120 1
9608 192 291 70
9609 192 498 24
9610 192 90 47
9611 192 951 72
9612 192 353 23
9613 192 566 88
9614 192 306 19
9615 192 853 62
9616 192 969 30
9617 192 527 26
9618 192 365 83
9619 192 156 30
9620 192 166 11
9621 192 36 75
9622 192 386 62
9623 192 686 56
9624 192 174 92
9625 192 641 45
9626 192 19 98
9627 192 309 50
9628 192 391 13
9629 192 194 17
9630 192 363 46
9631 192 995 36
9632 192 362 10
9633 192 821 47
9634 192 539 78
9635 192 537 15
9636 193 675 80
9637 193 234 98
9638 193 467 82
9639 193 95 13
9640 193 24 48
9641 193 19 37
9642 193 913 68
9643 193 264 23
9644 193 188 48
9645 193 78 84
9646 193 840 87
9647 193 451 63
9648 193 638 45
9649 193 963 70
9650 193 277 52
9651 193 717 37
9652 193 550 41
9653 193 992 9
9654 193 817 18
9655 193 372 7
9656 193 819 29
9657 193 535 40
9658 193 342 15
9659 193 35 90
9660 193 103 40
9661 193 166 49
9662 193 409 90
9663 193 326 29
9664 193 56 13
9665 193 554 92
9666 193 861 84
9667 193 293 31
9668 193 119 29
9669 193 12 18
9670 193 230 92
9671 193 541 19
9672 193 413 62
9673 193 395 20
9674 193 265 35
9675 193 594 38
9676 193 593 39
9677 193 271 91
9678 193 143 10
9679 193 815 96
9680 193 700 38
9681 193 123 61
9682 193 698 31
9683 193 315 11
9684 193 58 95
9685 193 546 42
9686 194 933 94
9687 194 443 7
9688 194 210 12
9689 194 706 77
9690 194 378 2
9691 194 471 15
9692 194 592 86
9693 194 183 58
9694 194 135 99
9695 194 258 35
9696 194 702 11
9697 194 150 59
9698 194 659 77
9699 194 283 22
9700 194 585 31
9701 194 171 84
9702 194 904 72
9703 194 865 29
9704 194 946 25
9705 194 847 59
9706 194 422 22
9707 194 828 47
9708 194 800 34
9709 194 86 83
9710 194 525 53
9711 194 477 52
9712 194 913 41
9713 194 752 81
9714 194 852 9
9715 194 534 90
9716 194 119 82
9717 194 469 94
9718 194 983 95
9719 194 868 71
9720 194 497 48
9721 194 147 66
9722 194 158 54
9723 194 174 14
9724 194 796 13
9725 194 100 96
9726 194 242 46
9727 194 741 58
9728 194 79 12
9729 194 367 69
9730 194 464 3
9731 194 921 34
9732 194 624 75
9733 194 770 56
9734 195 882 77
9735 195 278 80
9736 195 713 89
9737 195 45 12
9738 195 998 62
9739 195 938 34
9740 195 191 1
9741 195 40 44
9742 195 225 24
9743 195 267 86
9744 195 499 96
9745 195 11 53
9746 195 370 94
9747 195 221 75
9748 195 818 76
9749 195 37 25
9750 195 408 22
9751 195 754 43
9752 195 450 67
9753 195 968 82
9754 195 176 81
9755 195 618 3
9756 195 583 24
9757 195 351 80
9758 195 399 58
9759 195 958 28
9760 195 511 20
9761 195 35 9
9762 195 304 63
9763 195 181 23
9764 195 12 51
9765 195 700 43
9766 195 486 59
9767 195 175 15
9768 195 268 76
9769 195 42 3
9770 195 171 56
9771 195 295 44
9772 195 628 35
9773 195 493 69
9774 195 448 56
9775 195 348 79
9776 195 431 49
9777 195 298 19
9778 195 74 10
9779 195 129 88
9780 195 514 10
9781 195 589 10
9782 195 153 16
9783 195 282 35
9784 195 17 44
9785 195 117 19
9786 195 809 17
9787 195 249 45
9788 195 169 29
9789 195 503 89
9790 195 944 64
9791 195 612 17
9792 195 664 63
9793 195 995 82
9794 195 364 60
9795 195 570 73
9796 195 359 97
9797 195 6 92
9798 195 649 99
9799 195 755 90
9800 195 683 13
9801 195 817 17
9802 195 711 96
9803 195 80 29
9804 195 466 48
9805 195 964 12
9806 195 793 16
9807 195 716 56
9808 195 357 18
9809 195 8 74
9810 195 524 29
9811 196 423 4
9812 196 397 78
9813 196 584 67
9814 196 542 72
9815 196 788 30
9816 196 242 41
9817 196 396 83
9818 196 301 3
9819 196 699 45
9820 196 309 94
9821 196 363 81
9822 196 740 91
9823 196 810 92
9824 196 638 87
9825 196 916 5
9826 196 447 36
9827 196 599 73
9828 196 949 99
9829 196 524 32
9830 196 324 73
9831 196 690 17
9832 196 522 72
9833 196 111 4
9834 196 713 5
9835 196 449 77
9836 196 773 66
9837 196 845 10
9838 196 708 3
9839 196 749 55
9840 196 473 67
9841 196 36 76
9842 196 770 51
9843 196 421 35
9844 196 869 50
9845 196 211 19
9846 196 927 55
9847 196 333 29
9848 196 962 81
9849 196 9 27
9850 196 297 47
9851 196 588 21
9852 196 907 91
9853 196 919 67
9854 197 171 23
9855 197 953 47
9856 197 170 79
9857 197 887 57
9858 197 198 17
9859 197 182 7
9860 197 496 53
9861 197 609 24
9862 197 589 10
9863 197 735 77
9864 197 186 56
9865 197 830 63
9866 197 280 87
9867 197 155 47
9868 197 237 1
9869 197 481 85
9870 197 671 44
9871 197 963 65
9872 197 431 33
9873 197 294 46
9874 197 429 94
9875 197 395 8
9876 197 804 68
9877 197 515 32
9878 197 331 24
9879 197 113 25
9880 197 679 79
9881 197 829 24
9882 197 59 40
9883 197 668 73
9884 197 261 48
9885 197 779 29
9886 197 321 77
9887 197 384 76
9888 197 88 25
9889 197 621 35
9890 197 893 43
9891 197 161 64
9892 197 385 12
9893 197 314 8
9894 197 683 86
9895 197 661 30
9896 197 746 79
9897 197 586 64
9898 197 556 12
9899 198 190 26
9900 198 134 71
9901 198 173 15
9902 198 773 49
9903 198 410 92
9904 198 507 40
9905 198 391 49
9906 198 998 39
9907 198 901 42
9908 198 16 95
9909 198 884 7
9910 198 979 1
9911 198 594 71
9912 198 357 6
9913 198 422 5
9914 198 91 93
9915 198 375 97
9916 198 381 32
9917 198 763 76
9918 198 109 57
9919 198 975 56
9920 198 505 68
9921 198 761 90
9922 198 775 94
9923 198 504 99
9924 198 670 31
9925 198 354 11
9926 198 94 2
9927 198 980 30
9928 198 186 52
9929 198 603 53
9930 198 684 28
9931 198 565 18
9932 198 64 65
9933 198 502 60
9934 198 402 72
9935 198 822 79
9936 198 841 92
9937 198 56 83
9938 198 490 26
9939 198 782 40
9940 198 659 49
9941 198 479 53
9942 198 436 25
9943 198 551 92
9944 198 984 33
9945 198 89 27
9946 198 578 75
9947 198 711 74
9948 198 136 20
9949 198 371 93
9950 198 876 67
9951 198 424 81
9952 198 32 32
9953 198 403 52
9954 198 910 97
9955 198 527 97
9956 198 231 69
9957 199 218 27
9958 199 799 30
9959 199 572 11
9960 199 273 84
9961 199 372 67
9962 199 175 67
9963 199 603 89
9964 199 754 32
9965 199 163 12
9966 199 222 67
9967 199 61 72
9968 199 909 13
9969 199 520 23
9970 199 769 83
9971 199 914 51
9972 199 640 94
9973 199 466 98
9974 199 819 86
9975 199 862 30
9976 199 575 68
9977 199 903 16
9978 199 144 59
9979 199 388 75
9980 199 935 39
9981 199 47 82
9982 199 888 66
9983 199 518 62
9984 199 36 77
9985 199 289 73
9986 199 189 47
9987 199 395 8
9988 199 503 18
9989 199 517 68
9990 199 464 71
9991 199 310 6
9992 199 105 21
9993 199 990 92
9994 199 675 63
9995 199 674 87
9996 199 627 90
9997 199 185 49
9998 200 790 16
9999 200 715 84
10000 200 500 65
10001 200 950 97
10002 200 647 93
10003 200 315 97
10004 200 628 9
10005 200 460 89
10006 200 296 48
10007 200 509 66
10008 200 21 25
10009 200 878 25
10010 200 141 63
10011 200 826 98
10012 200 676 18
10013 200 463 33
10014 200 190 95
10015 200 686 51
10016 200 766 98
10017 200 154 11
10018 200 259 68
10019 200 30 44
10020 200 69 88
10021 200 125 89
10022 200 216 4
10023 200 566 4
10024 200 230 56
10025 200 719 10
10026 200 596 14
10027 200 661 12
10028 200 649 35
10029 200 213 19
10030 200 283 58
10031 200 848 9
10032 200 510 10
10033 200 423 67
10034 200 544 23
10035 200 990 63
10036 200 943 51
10037 200 6 11
10038 200 929 33
10039 200 806 14
10040 200 737 63
10041 200 183 55
10042 200 197 46
10043 200 372 92
10044 200 189 2
10045 200 762 44
10046 200 270 82
10047 200 424 17
10048 200 263 86
10049 200 149 61
10050 200 679 40
10051 200 382 34
10052 200 930 81
10053 200 207 19
10054 200 687 56
10055 200 624 44
10056 200 584 6
10057 200 669 64
10058 200 560 47
10059 200 264 90
10060 200 244 83
10061 200 629 82
10062 200 969 47
10063 200 709 77
10064 200 75 71
10065 200 399 94
10066 200 434 25
10067 200 685 72
10068 200 499 41
10069 200 534 65
10070 200 502 31
10071 201 556 7
10072 201 813 8
10073 201 749 97
10074 201 307 20
10075 201 559 14
10076 201 949 8
10077 201 379 18
10078 201 623 79
10079 201 833 50
10080 201 990 64
10081 201 92 27
10082 201 973 83
10083 201 279 40
10084 201 575 3
10085 201 905 16
10086 201 32 35
10087 201 956 91
10088 201 876 73
10089 201 822 30
10090 201 933 41
10091 201 17 22
10092 201 985 89
10093 201 361 93
10094 201 488 82
10095 201 802 41
10096 201 222 35
10097 201 408 66
10098 201 838 60
10099 201 265 13
10100 201 567 41
10101 201 392 91
10102 201 75 57
10103 201 535 74
10104 201 998 6
10105 201 726 97
10106 201 613 37
10107 201 464 43
10108 201 171 5
10109 201 193 89
10110 201 168 64
10111 201 121 30
10112 201 27 47
10113 201 809 25
10114 201 913 11
10115 201 460 59
10116 201 935 22
10117 201 350 16
10118 201 309 25
10119 201 79 6
10120 201 693 71
10121 201 524 18
10122 201 169 34
10123 202 636 86
10124 202 249 59
10125 202 98 100
10126 202 222 13
10127 202 502 30
10128 202 597 97
10129 202 842 75
10130 202 570 23
10131 202 704 97
10132 202 891 74
10133 202 946 19
10134 202 756 96
10135 202 782 39
10136 202 367 85
10137 202 596 73
10138 202 229 94
10139 202 43 6
10140 202 528 47
10141 202 467 2
10142 202 808 47
10143 202 15 82
10144 202 439 65
10145 202 357 49
10146 202 142 64
10147 202 771 79
10148 202 727 3
10149 202 418 39
10150 202 518 85
10151 202 85 16
10152 202 41 81
10153 202 247 88
10154 202 741 67
10155 202 830 88
10156 202 606 38
10157 202 378 71
10158 202 224 42
10159 202 788 87
10160 202 501 77
10161 202 423 27
10162 202 220 44
10163 202 302 9
10164 202 475 53
10165 202 681 69
10166 202 956 81
10167 203 825 89
10168 203 109 95
10169 203 182 55
10170 203 91 61
10171 203 658 77
10172 203 523 21
10173 203 831 77
10174 203 935 84
10175 203 888 51
10176 203 738 8
10177 203 406 81
10178 203 656 84
10179 203 62 60
10180 203 170 57
10181 203 720 54
10182 203 707 81
10183 203 716 8
10184 203 2 36
10185 203 69 24
10186 203 661 13
10187 203 988 82
10188 203 190 57
10189 203 352 80
10190 203 175 13
10191 203 901 44
10192 203 442 68
10193 203 348 69
10194 203 854 31
10195 203 664 30
10196 203 456 82
10197 203 67 35
10198 203 396 12
10199 203 59 14
10200 203 618 51
10201 203 186 5
10202 203 473 29
10203 203 35 34
10204 203 955 65
10205 203 438 42
10206 204 714 51
10207 204 926 74
10208 204 885 7
10209 204 555 61
10210 204 942 29
10211 204 31 19
10212 204 371 100
10213 204 385 92
10214 204 297 68
10215 204 309 9
10216 204 541 67
10217 204 516 25
10218 204 356 16
10219 204 607 64
10220 204 988 67
10221 204 577 67
10222 204 574 43
10223 204 565 41
10224 204 998 68
10225 204 986 59
10226 204 913 81
10227 204 521 87
10228 204 311 28
10229 204 592 31
10230 204 656 98
10231 204 859 95
10232 204 52 73
10233 204 838 55
10234 204 791 72
10235 204 64 30
10236 204 423 60
10237 204 144 12
10238 204 813 88
10239 204 696 17
10240 204 871 75
10241 204 571 57
10242 204 296 73
10243 204 544 14
10244 204 788 39
10245 204 566 70
10246 204 683 61
10247 204 560 1
10248 204 580 17
10249 204 460 4
10250 204 707 76
10251 205 133 9
10252 205 399 84
10253 205 409 68
10254 205 712 20
10255 205 211 57
10256 205 672 58
10257 205 194 4
10258 205 63 87
10259 205 546 32
10260 205 117 90
10261 205 769 8
10262 205 149 5
10263 205 856 48
10264 205 559 63
10265 205 629 10
10266 205 990 98
10267 205 385 18
10268 205 81 46
10269 205 927 68
10270 205 982 63
10271 205 597 65
10272 205 288 13
10273 205 449 81
10274 205 643 10
10275 205 801 94
10276 205 495 51
10277 205 23 16
10278 205 724 63
10279 205 619 54
10280 205 516 38
10281 205 889 24
10282 205 245 65
10283 205 304 15
10284 205 4 43
10285 205 768 6
10286 205 496 48
10287 205 876 81
10288 205 459 63
10289 205 893 100
10290 205 22 21
10291 205 886 58
10292 205 788 9
10293 205 160 83
10294 205 824 93
10295 205 992 10
10296 205 930 1
10297 205 862 45
10298 205 500 73
10299 205 42 54
10300 205 646 71
10301 205 225 22
10302 205 174 87
10303 206 918 34
10304 206 34 97
10305 206 211 71
10306 206 420 38
10307 206 975 40
10308 206 658 49
10309 206 115 32
10310 206 465 24
10311 206 814 48
10312 206 337 66
10313 206 771 72
10314 206 403 6
10315 206 804 63
10316 206 433 82
10317 206 861 91
10318 206 302 57
10319 206 917 88
10320 206 652 88
10321 206 945 61
10322 206 668 6
10323 206 254 52
10324 206 178 8
10325 206 705 98
10326 206 397 49
10327 206 483 46
10328 206 605 37
10329 206 951 49
10330 206 97 72
10331 206 982 52
10332 206 792 86
10333 206 500 79
10334 206 922 31
10335 206 502 3
10336 206 192 28
10337 206 102 64
10338 206 901 34
10339 206 173 99
10340 206 740 70
10341 206 226 72
10342 206 127 49
10343 206 204 38
10344 206 233 44
10345 206 451 75
10346 206 266 23
10347 206 104 81
10348 206 856 16
10349 207 517 84
10350 207 854 47
10351 207 422 79
10352 207 315 26
10353 207 83 61
10354 207 566 48
10355 207 934 7
10356 207 868 42
10357 207 185 7
10358 207 102 15
10359 207 695 59
10360 207 715 59
10361 207 505 95
10362 207 120 15
10363 207 555 75
10364 207 163 77
10365 207 834 69
10366 207 969 66
10367 207 235 45
10368 207 365 97
10369 207 556 36
10370 207 843 53
10371 207 645 85
10372 207 738 69
10373 207 420 82
10374 207 247 94
10375 207 769 95
10376 207 903 44
10377 207 421 72
10378 207 308 59
10379 207 823 69
10380 207 985 74
10381 207 988 99
10382 207 243 79
10383 207 20 46
10384 207 155 75
10385 207 559 4
10386 207 244 80
10387 207 943 12
10388 207 140 44
10389 207 718 93
10390 207 458 5
10391 207 971 60
10392 207 126 67
10393 207 530 55
10394 207 255 94
10395 207 469 46
10396 207 161 62
10397 207 992 43
10398 207 618 76
10399 207 17 88
10400 207 706 80
10401 207 110 33
10402 207 736 15
10403 207 268 26
10404 207 890 52
10405 207 8 56
10406 207 895 12
10407 207 151 82
10408 207 149 67
10409 207 273 8
10410 207 794 33
10411 208 843 93
10412 208 150 55
10413 208 157 50
10414 208 178 49
10415 208 263 5
10416 208 245 61
10417 208 706 53
10418 208 953 36
10419 208 459 89
10420 208 119 61
10421 208 333 22
10422 208 475 21
10423 208 62 51
10424 208 1 32
10425 208 816 16
10426 208 678 66
10427 208 297 5
10428 208 129 81
10429 208 420 7
10430 208 66 6
10431 208 10 40
10432 208 506 84
10433 208 458 27
10434 208 608 39
10435 208 216 9
10436 208 645 89
10437 208 992 24
10438 208 240 19
10439 208 764 31
10440 208 273 61
10441 208 878 15
10442 208 291 15
10443 208 883 4
10444 208 615 91
10445 208 737 16
10446 208 641 62
10447 208 349 58
10448 208 497 81
10449 208 182 44
10450 208 542 73
10451 208 169 63
10452 208 320 36
10453 208 37 5
10454 208 331 90
10455 208 511 26
10456 208 55 2
10457 208 538 56
10458 208 982 78
10459 208 213 37
10460 208 940 48
10461 208 755 69
10462 208 5 24
10463 209 944 75
10464 209 977 17
10465 209 444 77
10466 209 622 47
10467 209 49 2
10468 209 422 21
10469 209 865 94
10470 209 273 1
10471 209 282 8
10472 209 129 70
10473 209 965 68
10474 209 149 20
10475 209 517 67
10476 209 979 89
10477 209 564 54
10478 209 136 67
10479 209 79 14
10480 209 164 69
10481 209 362 6
10482 209 7 60
10483 209 332 24
10484 209 67 77
10485 209 788 90
10486 209 686 36
10487 209 276 6
10488 209 599 40
10489 209 411 41
10490 209 102 12
10491 209 354 48
10492 209 538 43
10493 209 847 38
10494 209 465 65
10495 209 390 54
10496 209 740 63
10497 209 769 37
10498 209 428 35
10499 209 650 79
10500 209 80 53
10501 209 610 89
10502 209 879 34
10503 210 924 58
10504 210 346 78
10505 210 174 23
10506 210 620 48
10507 210 175 59
10508 210 808 36
10509 210 701 99
10510 210 328 9
10511 210 530 53
10512 210 527 93
10513 210 677 84
10514 210 207 35
10515 210 31 73
10516 210 746 40
10517 210 369 68
10518 210 275 79
10519 210 276 89
10520 210 448 28
10521 210 723 56
10522 210 950 18
10523 210 775 31
10524 210 511 53
10525 210 523 69
10526 210 450 32
10527 210 259 56
10528 210 368 19
10529 210 593 24
10530 210 745 21
10531 210 112 98
10532 210 601 78
10533 210 700 84
10534 210 132 53
10535 210 590 20
10536 210 993 65
10537 210 5 79
10538 210 542 81
10539 210 715 39
10540 210 314 100
10541 210 65 57
10542 211 606 19
10543 211 556 66
10544 211 531 83
10545 211 180 49
10546 211 655 15
10547 211 402 95
10548 211 775 40
10549 211 290 25
10550 211 953 30
10551 211 30 80
10552 211 381 37
10553 211 388 35
10554 211 461 19
10555 211 310 68
10556 211 430 79
10557 211 581 5
10558 211 360 83
10559 211 857 50
10560 211 908 64
10561 211 811 81
10562 211 942 32
10563 211 662 35
10564 211 39 80
10565 211 994 17
10566 211 414 62
10567 211 588 15
10568 211 469 76
10569 211 224 35
10570 211 948 21
10571 211 676 35
10572 211 225 48
10573 211 698 71
10574 211 671 57
10575 211 636 54
10576 211 286 1
10577 211 864 74
10578 211 929 53
10579 211 870 55
10580 211 673 43
10581 211 584 89
10582 211 385 68
10583 211 703 82
10584 211 54 82
10585 211 222 92
10586 211 646 46
10587 211 614 80
10588 211 577 48
10589 211 83 96
10590 211 200 36
10591 211 55 63
10592 211 597 95
10593 212 753 39
10594 212 33 31
10595 212 571 67
10596 212 412 96
10597 212 430 15
10598 212 194 16
10599 212 661 43
10600 212 198 73
10601 212 763 21
10602 212 981 99
10603 212 670 8
10604 212 431 56
10605 212 65 62
10606 212 512 47
10607 212 859 64
10608 212 501 25
10609 212 278 97
10610 212 747 88
10611 212 770 57
10612 212 0 12
10613 212 767 35
10614 212 874 5
10615 212 418 39
10616 212 383 82
10617 212 517 1
10618 212 365 5
10619 212 548 62
10620 212 920 93
10621 212 451 43
10622 212 618 79
10623 212 997 67
10624 212 928 70
10625 212 304 3
10626 212 283 22
10627 212 282 40
10628 212 876 47
10629 212 378 18
10630 212 159 68
10631 212 550 96
10632 212 582 42
10633 212 179 90
10634 212 460 23
10635 212 296 26
10636 212 368 64
10637 212 317 37
10638 212 994 63
10639 212 707 61
10640 212 524 80
10641 212 587 55
10642 212 371 32
10643 212 719 3
10644 212 829 91
10645 213 985 38
10646 213 612 41
10647 213 402 8
10648 213 577 62
10649 213 701 93
10650 213 495 88
10651 213 717 21
10652 213 928 94
10653 213 802 72
10654 213 344 12
10655 213 648 90
10656 213 810 33
10657 213 470 36
10658 213 503 99
10659 213 111 33
10660 213 887 47
10661 213 331 47
10662 213 152 92
10663 213 806 10
10664 213 606 66
10665 213 134 89
10666 213 166 59
10667 213 309 42
10668 213 208 63
10669 213 509 16
10670 213 930 5
10671 213 477 2
10672 213 128 45
10673 213 192 1
10674 213 919 47
10675 213 539 20
10676 213 665 85
10677 213 46 61
10678 213 319 25
10679 213 987 67
10680 213 352 86
10681 213 854 76
10682 213 859 42
10683 213 651 79
10684 213 560 98
10685 213 172 45
10686 213 226 23
10687 213 408 73
10688 213 446 31
10689 213 966 30
10690 214 140 16
10691 214 984 55
10692 214 459 33
10693 214 404 50
10694 214 636 1
10695 214 876 1
10696 214 819 42
10697 214 967 54
10698 214 727 20
10699 214 834 73
10700 214 898 2
10701 214 234 20
10702 214 443 32
10703 214 630 49
10704 214 708 59
10705 214 961 34
10706 214 558 35
10707 214 139 2
10708 214 479 74
10709 214 100 73
10710 214 594 50
10711 214 798 55
10712 214 832 66
10713 214 946 6
10714 214 576 68
10715 214 285 13
10716 214 15 22
10717 214 711 22
10718 214 70 80
10719 214 319 94
10720 214 484 12
10721 214 945 49
10722 214 995 14
10723 214 17 68
10724 214 350 9
10725 214 126 7
10726 214 545 97
10727 214 980 10
10728 214 575 28
10729 214 457 52
10730 214 149 72
10731 214 949 73
10732 214 29 69
10733 214 314 11
10734 214 293 83
10735 214 463 75
10736 214 580 14
10737 214 631 27
10738 215 203 67
10739 215 582 34
10740 215 704 34
10741 215 819 24
10742 215 16 55
10743 215 46 74
10744 215 302 10
10745 215 573 24
10746 215 619 13
10747 215 520 68
10748 215 327 47
10749 215 225 89
10750 215 324 26
10751 215 735 31
10752 215 39 90
10753 215 616 22
10754 215 153 17
10755 215 982 81
10756 215 116 11
10757 215 972 90
10758 215 669 31
10759 215 409 70
10760 215 980 7
10761 215 233 14
10762 215 625 32
10763 215 815 47
10764 215 71 79
10765 215 883 70
10766 215 74 22
10767 215 123 43
10768 215 543 8
10769 215 161 42
10770 215 26 7
10771 215 685 96
10772 215 490 15
10773 215 919 13
10774 215 732 14
10775 215 442 17
10776 215 104 94
10777 215 421 57
10778 215 996 81
10779 215 251 97
10780 215 455 17
10781 215 483 64
10782 215 981 98
10783 216 731 59
10784 216 472 22
10785 216 744 7
10786 216 490 2
10787 216 363 43
10788 216 537 25
10789 216 83 80
10790 216 715 99
10791 216 76 74
10792 216 938 54
10793 216 89 29
10794 216 761 49
10795 216 25 91
10796 216 700 4
10797 216 164 99
10798 216 427 34
10799 216 729 92
10800 216 477 36
10801 216 489 58
10802 216 671 77
10803 216 521 98
10804 216 841 46
10805 216 431 13
10806 216 617 96
10807 216 219 86
10808 216 893 81
10809 216 532 51
10810 216 347 47
10811 216 485 20
10812 216 105 95
10813 216 643 80
10814 216 888 14
10815 216 38 18
10816 216 568 89
10817 216 18 64
10818 216 138 17
10819 216 512 48
10820 216 298 86
10821 216 930 16
10822 216 708 13
10823 216 188 2
10824 216 859 100
10825 216 327 72
10826 216 548 94
10827 216 156 57
10828 216 860 76
10829 216 549 78
10830 216 170 43
10831 216 296 51
10832 216 152 58
10833 217 923 75
10834 217 781 90
10835 217 59 76
10836 217 906 4
10837 217 511 17
10838 217 518 79
10839 217 593 76
10840 217 232 83
10841 217 506 53
10842 217 88 69
10843 217 275 39
10844 217 696 46
10845 217 925 31
10846 217 394 24
10847 217 478 45
10848 217 83 77
10849 217 719 47
10850 217 722 70
10851 217 104 22
10852 217 89 100
10853 217 125 12
10854 217 52 83
10855 217 919 8
10856 217 724 77
10857 217 350 28
10858 217 407 27
10859 217 68 4
10860 217 701 65
10861 217 126 94
10862 217 410 1
10863 217 228 100
10864 217 272 58
10865 217 760 52
10866 217 179 82
10867 217 90 36
10868 217 8 17
10869 217 481 62
10870 217 986 13
10871 217 391 52
10872 217 195 10
10873 217 216 100
10874 217 605 84
10875 217 69 78
10876 217 290 6
10877 217 45 75
10878 217 585 1
10879 217 743 64
10880 217 821 66
10881 217 223 34
10882 217 999 25
10883 217 335 60
10884 217 928 82
10885 217 916 12
10886 217 623 39
10887 217 766 28
10888 217 135 75
10889 217 206 70
10890 217 264 8
10891 217 513 89
10892 217 860 6
10893 218 30 47
10894 218 813 24
10895 218 92 70
10896 218 772 13
10897 218 872 27
10898 218 91 16
10899 218 312 72
10900 218 35 88
10901 218 418 73
10902 218 774 20
10903 218 856 66
10904 218 858 10
10905 218 193 87
10906 218 571 74
10907 218 125 83
10908 218 759 42
10909 218 498 19
10910 218 627 73
10911 218 604 81
10912 218 104 18
10913 218 902 43
10914 218 869 24
10915 218 313 45
10916 218 206 5
10917 218 814 83
10918 218 506 68
10919 218 938 45
10920 218 574 33
10921 218 72 85
10922 218 97 22
10923 218 354 4
10924 218 421 11
10925 218 552 67
10926 218 895 43
10927 218 584 69
10928 218 364 53
10929 218 840 58
10930 218 460 3
10931 218 665 44
10932 218 108 64
10933 218 531 18
10934 218 426 100
10935 218 927 32
10936 218 309 38
10937 218 897 94
10938 218 745 27
10939 218 449 68
10940 218 568 68
10941 218 308 72
10942 218 666 6
10943 218 407 62
10944 218 944 57
10945 218 169 78
10946 218 38 24
10947 218 514 84
10948 218 635 87
10949 218 962 91
10950 218 18 100
10951 219 111 76
10952 219 387 84
10953 219 246 95
10954 219 548 1
10955 219 680 76
10956 219 503 96
10957 219 744 17
10958 219 137 5
10959 219 368 19
10960 219 676 83
10961 219 295 55
10962 219 156 94
10963 219 267 62
10964 219 492 4
10965 219 262 45
10966 219 935 21
10967 219 986 70
10968 219 482 93
10969 219 161 91
10970 219 685 6
10971 219 164 87
10972 219 129 8
10973 219 302 17
10974 219 447 71
10975 219 652 13
10976 219 873 46
10977 219 557 52
10978 219 999 77
10979 219 170 25
10980 219 25 26
10981 219 448 87
10982 219 781 80
10983 219 483 69
10984 219 938 54
10985 219 173 38
10986 219 451 24
10987 219 421 40
10988 219 580 60
10989 219 732 88
10990 219 739 63
10991 219 323 93
10992 219 345 94
10993 219 450 78
10994 219 797 19
10995 219 582 7
10996 219 542 29
10997 219 726 55
10998 219 167 46
10999 219 787 26
11000 219 510 9
11001 219 475 73
11002 219 695 52
11003 219 753 6
11004 219 147 55
11005 219 741 12
11006 219 489 45
11007 219 432 3
11008 219 608 6
11009 219 272 70
11010 219 198 96
11011 219 433 67
11012 220 494 72
11013 220 105 33
11014 220 943 77
11015 220 833 3
11016 220 124 22
11017 220 141 71
11018 220 878 15
11019 220 36 66
11020 220 749 50
11021 220 71 33
11022 220 482 95
11023 220 960 31
11024 220 689 85
11025 220 195 60
11026 220 707 5
11027 220 900 38
11028 220 492 13
11029 220 62 14
11030 220 725 47
11031 220 139 25
11032 220 11 55
11033 220 968 44
11034 220 377 98
11035 220 647 33
11036 220 263 56
11037 220 782 61
11038 220 204 42
11039 220 850 22
11040 220 562 55
11041 220 3 43
11042 220 599 52
11043 220 146 26
11044 220 829 53
11045 220 620 46
11046 220 135 46
11047 220 657 25
11048 220 786 94
11049 220 761 53
11050 220 190 94
11051 220 983 87
11052 220 325 67
11053 220 455 52
11054 220 106 40
11055 220 149 39
11056 220 196 52
11057 220 73 60
11058 220 770 39
11059 220 349 5
11060 220 950 38
11061 220 260 36
11062 220 828 91
11063 220 507 66
11064 220 669 100
11065 220 792 78
11066 220 509 9
11067 220 993 15
11068 220 358 30
11069 220 790 18
11070 221 774 6
11071 221 711 35
11072 221 278 35
11073 221 506 56
11074 221 502 29
11075 221 55 84
11076 221 120 37
11077 221 501 61
11078 221 429 1
11079 221 328 8
11080 221 371 2
11081 221 553 80
11082 221 348 11
11083 221 245 94
11084 221 142 87
11085 221 516 93
11086 221 887 86
11087 221 162 52
11088 221 135 5
11089 221 473 72
11090 221 236 66
11091 221 209 66
11092 221 875 96
11093 221 247 35
11094 221 68 89
11095 221 782 41
11096 221 71 81
11097 221 558 15
11098 221 732 48
11099 221 416 12
11100 221 667 28
11101 221 44 88
11102 221 489 24
11103 221 570 28
11104 221 124 28
11105 221 456 93
11106 221 469 41
11107 221 937 90
11108 221 349 30
11109 222 589 76
11110 222 628 39
11111 222 243 54
11112 222 358 19
11113 222 441 32
11114 222 292 41
11115 222 597 50
11116 222 522 74
11117 222 947 81
11118 222 274 17
11119 222 665 68
11120 222 672 7
11121 222 540 7
11122 222 583 91
11123 222 195 27
11124 222 272 47
11125 222 519 91
11126 222 457 81
11127 222 730 43
11128 222 99 25
11129 222 678 88
11130 222 773 84
11131 222 557 70
11132 222 11 7
11133 222 436 73
11134 222 483 58
11135 222 29 71
11136 222 404 89
11137 222 905 36
11138 222 796 55
11139 222 545 13
11140 222 309 44
11141 222 809 67
11142 222 844 68
11143 222 255 96
11144 222 336 72
11145 222 849 69
11146 222 138 24
11147 222 172 9
11148 222 179 68
11149 222 407 86
11150 222 147 11
11151 222 535 1
11152 222 141 89
11153 222 618 14
11154 222 956 89
11155 222 850 67
11156 222 764 71
11157 222 568 24
11158 222 410 51
11159 222 609 87
11160 222 3 4
11161 222 397 81
11162 222 221 80
11163 222 738 55
11164 222 992 50
11165 222 869 81
11166 222 608 78
11167 222 737 83
11168 222 385 77
11169 223 102 86
11170 223 266 95
11171 223 949 52
11172 223 637 30
11173 223 401 31
11174 223 107 30
11175 223 631 81
11176 223 452 92
11177 223 533 43
11178 223 351 99
11179 223 277 29
11180 223 595 24
11181 223 735 7
11182 223 309 73
11183 223 419 18
11184 223 856 77
11185 223 530 1
11186 223 395 10
11187 223 634 80
11188 223 358 55
11189 223 561 86
11190 223 429 88
11191 223 52 4
11192 223 896 11
11193 223 252 63
11194 223 529 49
11195 223 504 74
11196 223 853 10
11197 223 235 20
11198 223 805 25
11199 223 580 6
11200 223 176 88
11201 223 431 59
11202 223 632 28
11203 223 308 76
11204 223 369 11
11205 223 320 7
11206 223 753 9
11207 223 220 95
11208 223 678 58
11209 223 963 1
11210 223 450 87
11211 223 232 5
11212 223 699 82
11213 223 931 96
11214 223 623 29
11215 223 959 27
11216 223 690 32
11217 223 142 52
11218 223 433 79
11219 223 724 23
11220 223 174 46
11221 223 410 36
11222 223 54 100
11223 223 731 4
11224 224 154 2
11225 224 474 71
11226 224 697 71
11227 224 868 30
11228 224 129 60
11229 224 634 5
11230 224 462 2
11231 224 62 29
11232 224 594 93
11233 224 759 15
11234 224 958 55
11235 224 817 14
11236 224 164 100
11237 224 237 98
11238 224 842 72
11239 224 968 48
11240 224 337 100
11241 224 80 65
11242 224 408 12
11243 224 339 83
11244 224 585 89
11245 224 326 34
11246 224 390 86
11247 224 465 30
11248 224 603 53
11249 224 576 47
11250 224 836 55
11251 224 61 45
11252 224 652 78
11253 224 772 78
11254 224 370 45
11255 224 845 69
11256 224 936 56
11257 224 306 40
11258 224 481 11
11259 224 719 25
11260 224 211 36
11261 224 524 71
11262 224 198 80
11263 224 653 72
11264 224 696 5
11265 224 751 74
11266 224 632 33
11267 224 362 35
11268 224 945 74
11269 224 656 61
11270 224 803 8
11271 225 508 57
11272 225 851 16
11273 225 327 78
11274 225 790 66
11275 225 950 8
11276 225 990 43
11277 225 865 14
11278 225 501 59
11279 225 860 29
11280 225 30 57
11281 225 519 14
11282 225 459 13
11283 225 937 84
11284 225 267 69
11285 225 312 85
11286 225 302 67
11287 225 714 21
11288 225 681 18
11289 225 295 10
11290 225 215 68
11291 225 84 63
11292 225 635 75
11293 225 541 46
11294 225 666 85
11295 225 748 52
11296 225 693 48
11297 225 496 81
11298 225 513 19
11299 225 845 44
11300 225 820 64
11301 225 387 27
11302 225 32 40
11303 225 35 69
11304 225 285 28
11305 225 602 7
11306 225 847 88
11307 225 169 5
11308 225 628 17
11309 226 66 96
11310 226 41 20
11311 226 722 64
11312 226 615 84
11313 226 649 24
11314 226 18 37
11315 226 787 90
11316 226 715 97
11317 226 993 76
11318 226 419 40
11319 226 740 62
11320 226 404 56
11321 226 714 50
11322 226 923 71
11323 226 998 36
11324 226 474 35
11325 226 682 34
11326 226 995 98
11327 226 23 61
11328 226 17 55
11329 226 969 16
11330 226 554 7
11331 226 45 70
11332 226 605 33
11333 226 238 41
11334 226 614 95
11335 226 503 95
11336 226 206 79
11337 226 427 24
11338 226 499 7
11339 226 755 2
11340 226 422 29
11341 226 962 70
11342 226 822 32
11343 226 909 90
11344 226 100 93
11345 226 872 74
11346 226 151 51
11347 226 911 58
11348 226 381 17
11349 226 563 98
11350 226 727 16
11351 226 321 91
11352 226 146 47
11353 226 819 55
11354 226 523 21
11355 226 583 67
11356 226 624 17
11357 226 698 25
11358 226 983 20
11359 226 889 7
11360 227 164 65
11361 227 963 70
11362 227 178 88
11363 227 166 62
11364 227 590 86
11365 227 305 59
11366 227 985 11
11367 227 360 51
11368 227 230 3
11369 227 367 67
11370 227 193 20
11371 227 566 61
11372 227 55 31
11373 227 170 62
11374 227 443 97
11375 227 715 8
11376 227 330 64
11377 227 573 62
11378 227 871 39
11379 227 719 33
11380 227 842 56
11381 227 252 57
11382 227 9 70
11383 227 303 40
11384 227 277 100
11385 227 111 50
11386 227 393 43
11387 227 368 27
11388 227 104 31
11389 227 634 56
11390 227 389 33
11391 227 520 83
11392 227 953 57
11393 227 64 99
11394 227 404 57
11395 227 591 36
11396 227 550 80
11397 227 82 1
11398 227 768 15
11399 227 605 87
11400 227 597 12
11401 227 635 39
11402 227 70 74
11403 227 6 7
11404 227 67 56
11405 227 11 28
11406 227 942 7
11407 228 893 29
11408 228 368 91
11409 228 240 7
11410 228 287 90
11411 228 693 17
11412 228 227 16
11413 228 423 38
11414 228 847 96
11415 228 295 5
11416 228 988 75
11417 228 923 94
11418 228 812 56
11419 228 320 54
11420 228 486 35
11421 228 876 9
11422 228 763 92
11423 228 110 79
11424 228 245 94
11425 228 28 34
11426 228 967 28
11427 228 334 92
11428 228 991 40
11429 228 802 85
11430 228 799 22
11431 228 784 87
11432 228 898 12
11433 228 759 10
11434 228 563 83
11435 228 468 35
11436 228 59 18
11437 228 223 28
11438 228 912 77
11439 228 844 4
11440 228 529 59
11441 228 608 97
11442 228 984 62
11443 228 843 53
11444 228 387 99
11445 228 138 14
11446 228 149 81
11447 228 315 91
11448 228 619 53
11449 228 649 30
11450 228 250 93
11451 228 858 14
11452 228 176 9
11453 228 96 41
11454 228 244 82
11455 228 449 74
11456 228 498 83
11457 228 85 73
11458 228 899 42
11459 228 591 9
11460 228 410 26
11461 228 519 50
11462 228 383 76
11463 229 929 31
11464 229 68 73
11465 229 733 76
11466 229 343 96
11467 229 291 83
11468 229 608 32
11469 229 337 53
11470 229 333 96
11471 229 584 26
11472 229 718 24
11473 229 862 98
11474 229 883 8
11475 229 218 28
11476 229 336 43
11477 229 515 62
11478 229 303 22
11479 229 387 10
11480 229 777 27
11481 229 150 24
11482 229 305 36
11483 229 514 91
11484 229 473 59
11485 229 356 14
11486 229 669 96
11487 229 534 34
11488 229 760 39
11489 229 856 90
11490 229 906 83
11491 229 3 84
11492 229 408 70
11493 229 963 66
11494 229 293 59
11495 229 659 70
11496 229 917 33
11497 229 30 44
11498 229 81 79
11499 229 977 71
11500 229 444 12
11501 229 326 68
11502 229 655 90
11503 229 747 31
11504 229 975 21
11505 229 185 96
11506 229 704 22
11507 229 886 3
11508 229 727 44
11509 230 472 80
11510 230 113 65
11511 230 464 20
11512 230 495 67
11513 230 264 53
11514 230 278 75
11515 230 910 44
11516 230 712 21
11517 230 413 34
11518 230 985 93
11519 230 160 23
11520 230 477 96
11521 230 153 59
11522 230 57 44
11523 230 496 85
11524 230 481 19
11525 230 247 33
11526 230 217 68
11527 230 78 8
11528 230 858 95
11529 230 564 46
11530 230 691 96
11531 230 192 28
11532 230 485 48
11533 230 891 3
11534 230 728 72
11535 230 715 73
11536 230 913 95
11537 230 191 15
11538 230 245 51
11539 230 753 18
11540 230 833 39
11541 230 549 86
11542 230 594 84
11543 230 973 19
11544 230 930 38
11545 230 26 67
11546 230 507 88
11547 230 731 18
11548 230 990 55
11549 230 213 45
11550 230 988 88
11551 230 581 97
11552 230 516 24
11553 231 217 89
11554 231 71 72
11555 231 373 6
11556 231 954 62
11557 231 326 4
11558 231 470 70
11559 231 201 68
11560 231 665 14
11561 231 276 17
11562 231 136 44
11563 231 968 42
11564 231 81 2
11565 231 323 67
11566 231 48 78
11567 231 100 70
11568 231 873 19
11569 231 492 13
11570 231 450 28
11571 231 516 83
11572 231 965 93
11573 231 497 25
11574 231 350 8
11575 231 990 83
11576 231 454 98
11577 231 704 34
11578 231 772 67
11579 231 513 85
11580 231 383 78
11581 231 601 70
11582 231 249 89
11583 231 31 53
11584 231 911 59
11585 231 738 89
11586 231 28 93
11587 231 993 72
11588 231 632 55
11589 231 50 44
11590 231 494 100
11591 231 641 6
11592 231 337 71
11593 231 588 33
11594 231 789 18
11595 231 318 65
11596 232 447 63
11597 232 606 98
11598 232 707 91
11599 232 885 53
11600 232 728 83
11601 232 999 70
11602 232 761 83
11603 232 191 74
11604 232 602 97
11605 232 178 90
11606 232 709 6
11607 232 8 34
11608 232 498 35
11609 232 353 28
11610 232 664 29
11611 232 292 42
11612 232 881 25
11613 232 607 71
11614 232 87 15
11615 232 936 58
11616 232 928 37
11617 232 558 38
11618 232 973 82
11619 232 768 76
11620 232 496 1
11621 232 516 8
11622 232 743 20
11623 232 510 62
11624 232 485 53
11625 232 475 48
11626 232 94 29
11627 232 112 79
11628 232 584 16
11629 232 369 7
11630 232 507 39
11631 232 472 61
11632 232 972 53
11633 232 899 62
11634 232 123 82
11635 232 776 30
11636 232 196 62
11637 232 959 51
11638 232 666 7
11639 233 280 34
11640 233 251 66
11641 233 655 14
11642 233 612 33
11643 233 978 77
11644 233 787 29
11645 233 255 10
11646 233 973 98
11647 233 606 37
11648 233 660 74
11649 233 866 95
11650 233 470 48
11651 233 326 41
11652 233 458 34
11653 233 122 77
11654 233 552 53
11655 233 982 10
11656 233 137 19
11657 233 967 77
11658 233 524 62
11659 233 264 14
11660 233 979 74
11661 233 244 15
11662 233 574 26
11663 233 94 93
11664 233 457 77
11665 233 722 1
11666 233 776 53
11667 233 180 85
11668 233 766 58
11669 233 505 84
11670 233 211 51
11671 233 927 98
11672 233 701 49
11673 233 200 16
11674 233 82 97
11675 233 562 32
11676 233 613 26
11677 233 611 8
11678 233 273 72
11679 233 908 99
11680 233 28 7
11681 233 721 35
11682 233 668 14
11683 233 915 75
11684 233 689 8
11685 233 788 82
11686 233 871 34
11687 233 698 58
11688 234 790 62
11689 234 482 95
11690 234 37 87
11691 234 353 41
11692 234 584 46
11693 234 61 60
11694 234 751 8
11695 234 466 60
11696 234 344 18
11697 234 84 73
11698 234 484 75
11699 234 773 29
11700 234 910 71
11701 234 602 56
11702 234 206 18
11703 234 656 26
11704 234 523 75
11705 234 721 10
11706 234 45 44
11707 234 907 17
11708 234 417 30
11709 234 195 23
11710 234 730 47
11711 234 618 32
11712 234 335 25
11713 234 410 38
11714 234 472 63
11715 234 816 12
11716 234 10 31
11717 234 772 73
11718 234 214 81
11719 234 734 81
11720 234 357 65
11721 234 770 31
11722 234 233 82
11723 234 637 80
11724 234 134 20
11725 234 821 67
11726 234 745 24
11727 234 92 48
11728 234 259 40
11729 234 81 51
11730 234 585 17
11731 235 552 97
11732 235 719 93
11733 235 740 40
11734 235 462 54
11735 235 526 15
11736 235 684 64
11737 235 232 93
11738 235 898 66
11739 235 3 92
11740 235 370 48
11741 235 980 21
11742 235 613 72
11743 235 77 79
11744 235 368 49
11745 235 58 70
11746 235 705 79
11747 235 452 36
11748 235 336 3
11749 235 603 70
11750 235 472 57
11751 235 199 80
11752 235 116 47
11753 235 790 72
11754 235 927 52
11755 235 411 91
11756 235 558 31
11757 235 561 31
11758 235 559 58
11759 235 43 69
11760 235 539 52
11761 235 322 27
11762 235 653 14
11763 235 104 80
11764 235 33 5
11765 235 478 19
11766 235 151 77
11767 235 346 14
11768 235 841 67
11769 235 577 15
11770 235 21 91
11771 235 782 43
11772 235 664 5
11773 235 625 8
11774 235 262 47
11775 235 830 8
11776 235 793 75
11777 235 400 100
11778 235 696 56
11779 235 986 33
11780 235 70 97
11781 235 589 100
11782 235 527 34
11783 235 383 77
11784 235 670 4
11785 235 312 37
11786 235 358 34
11787 235 405 89
11788 235 842 9
11789 235 525 56
11790 236 759 94
11791 236 143 69
11792 236 310 76
11793 236 67 35
11794 236 970 76
11795 236 430 22
11796 236 982 49
11797 236 157 87
11798 236 370 38
11799 236 810 80
11800 236 698 33
11801 236 818 54
11802 236 242 26
11803 236 169 52
11804 236 961 46
11805 236 228 27
11806 236 451 89
11807 236 661 22
11808 236 35 99
11809 236 910 40
11810 236 304 75
11811 236 967 23
11812 236 712 95
11813 236 460 1
11814 236 162 55
11815 236 360 57
11816 236 191 5
11817 236 800 19
11818 236 80 93
11819 236 495 3
11820 236 677 6
11821 236 81 52
11822 236 527 49
11823 236 367 38
11824 236 333 11
11825 236 442 40
11826 236 377 2
11827 236 899 11
11828 236 849 26
11829 236 214 65
11830 236 489 50
11831 236 565 43
11832 236 275 68
11833 236 223 77
11834 236 858 11
11835 236 176 16
11836 236 738 21
11837 236 737 62
11838 236 446 62
11839 236 657 65
11840 236 112 74
11841 236 928 18
11842 236 239 75
11843 236 253 24
11844 236 548 24
11845 236 114 49
11846 236 358 33
11847 237 901 28
11848 237 471 51
11849 237 842 87
11850 237 918 90
11851 237 803 19
11852 237 929 71
11853 237 388 22
11854 237 371 94
11855 237 935 45
11856 237 311 64
11857 237 53 58
11858 237 857 70
11859 237 945 71
11860 237 460 51
11861 237 323 67
11862 237 154 15
11863 237 465 45
11864 237 260 81
11865 237 138 2
11866 237 795 30
11867 237 142 82
11868 237 478 89
11869 237 618 85
11870 237 585 41
11871 237 236 67
11872 237 225 58
11873 237 381 8
11874 237 229 1
11875 237 359 63
11876 237 76 59
11877 237 736 24
11878 237 551 72
11879 237 348 80
11880 237 379 97
11881 237 51 6
11882 237 620 75
11883 237 504 83
11884 237 211 32
11885 237 772 20
11886 237 437 49
11887 237 114 16
11888 237 485 21
11889 237 469 24
11890 237 269 50
11891 237 688 5
11892 237 455 87
11893 237 517 73
11894 237 550 52
11895 237 408 80
11896 237 360 40
11897 237 364 83
11898 237 198 38
11899 237 50 30
11900 237 217 2
11901 237 650 25
11902 237 898 86
11903 237 958 86
11904 238 627 38
11905 238 253 30
11906 238 468 38
11907 238 723 80
11908 238 283 25
11909 238 348 89
11910 238 816 75
11911 238 875 32
11912 238 574 100
11913 238 503 64
11914 238 489 48
11915 238 73 30
11916 238 366 83
11917 238 850 36
11918 238 652 47
11919 238 298 17
11920 238 454 83
11921 238 337 56
11922 238 736 6
11923 238 396 3
11924 238 452 36
11925 238 307 7
11926 238 959 95
11927 238 145 2
11928 238 702 19
11929 238 479 37
11930 238 559 30
11931 238 904 30
11932 238 369 93
11933 238 782 23
11934 238 584 10
11935 238 859 8
11936 238 887 81
11937 238 347 18
11938 238 356 77
11939 238 494 20
11940 238 381 95
11941 238 191 70
11942 238 855 88
11943 238 727 73
11944 238 358 56
11945 238 562 19
11946 238 297 74
11947 238 95 92
11948 238 480 4
11949 238 613 98
11950 238 532 59
11951 238 397 36
11952 238 690 73
11953 238 878 85
11954 238 800 87
11955 238 611 74
11956 238 499 64
11957 238 986 98
11958 238 188 35
11959 239 600 73
11960 239 921 7
11961 239 663 67
11962 239 847 19
11963 239 271 43
11964 239 558 41
11965 239 232 25
11966 239 711 76
11967 239 480 50
11968 239 21 44
11969 239 5 72
11970 239 908 3
11971 239 246 63
11972 239 810 40
11973 239 578 27
11974 239 729 16
11975 239 743 82
11976 239 252 78
11977 239 845 52
11978 239 183 49
11979 239 774 60
11980 239 780 49
11981 239 162 67
11982 239 132 7
11983 239 432 37
11984 239 925 81
11985 239 58 33
11986 239 661 30
11987 239 807 35
11988 239 133 73
11989 239 325 14
11990 239 342 79
11991 239 583 81
11992 239 799 45
11993 239 943 42
11994 239 915 64
11995 239 455 10
11996 239 639 13
11997 239 740 70
11998 239 284 48
11999 239 513 52
12000 239 595 31
12001 239 714 9
12002 239 215 78
12003 239 689 75
12004 239 373 7
12005 239 332 28
12006 239 88 47
12007 239 108 42
12008 239 460 81
12009 239 803 2
12010 239 621 31
12011 240 196 58
12012 240 132 38
12013 240 949 98
12014 240 473 96
12015 240 468 37
12016 240 428 33
12017 240 511 92
12018 240 890 68
12019 240 806 83
12020 240 775 86
12021 240 525 83
12022 240 917 71
12023 240 67 48
12024 240 939 37
12025 240 98 59
12026 240 93 10
12027 240 441 32
12028 240 258 87
12029 240 225 68
12030 240 385 57
12031 240 140 43
12032 240 474 53
12033 240 642 5
12034 240 789 94
12035 240 882 85
12036 240 712 36
12037 240 701 20
12038 240 170 68
12039 240 587 89
12040 240 912 19
12041 240 30 47
12042 240 897 37
12043 240 162 15
12044 240 239 11
12045 240 471 43
12046 240 96 72
12047 240 725 63
12048 240 347 13
12049 240 289 3
12050 240 375 40
12051 240 916 27
12052 240 215 16
12053 240 709 31
12054 240 116 91
12055 240 771 41
12056 240 469 82
12057 240 863 69
12058 240 361 51
12059 240 851 97
12060 240 763 57
12061 240 814 35
12062 241 686 70
12063 241 344 90
12064 241 591 5
12065 241 869 34
12066 241 774 71
12067 241 212 81
12068 241 209 77
12069 241 819 83
12070 241 702 38
12071 241 326 51
12072 241 270 32
12073 241 807 40
12074 241 471 100
12075 241 912 86
12076 241 867 16
12077 241 14 14
12078 241 873 53
12079 241 742 91
12080 241 600 71
12081 241 743 30
12082 241 539 37
12083 241 651 66
12084 241 529 44
12085 241 317 4
12086 241 566 9
12087 241 390 37
12088 241 555 57
12089 241 204 89
12090 241 18 74
12091 241 779 64
12092 241 735 42
12093 241 616 36
12094 241 224 28
12095 241 890 24
12096 241 11 10
12097 241 84 85
12098 241 345 21
12099 241 496 83
12100 242 997 87
12101 242 41 82
12102 242 85 67
12103 242 123 49
12104 242 93 70
12105 242 14 21
12106 242 801 66
12107 242 466 47
12108 242 524 37
12109 242 295 30
12110 242 57 35
12111 242 438 68
12112 242 607 18
12113 242 996 83
12114 242 807 36
12115 242 116 27
12116 242 701 8
12117 242 711 19
12118 242 725 100
12119 242 758 7
12120 242 346 34
12121 242 875 83
12122 242 562 73
12123 242 302 92
12124 242 291 69
12125 242 53 46
12126 242 950 45
12127 242 292 25
12128 242 135 49
12129 242 530 93
12130 242 194 46
12131 242 356 3
12132 242 897 66
12133 242 824 56
12134 242 734 20
12135 242 703 65
12136 242 216 14
12137 242 673 33
12138 242 326 39
12139 242 902 66
12140 242 181 46
12141 242 854 2
12142 242 559 78
12143 242 817 81
12144 242 314 21
12145 242 855 14
12146 243 316 79
12147 243 629 45
12148 243 752 28
12149 243 712 81
12150 243 262 50
12151 243 420 40
12152 243 205 49
12153 243 72 44
12154 243 407 79
12155 243 206 57
12156 243 100 47
12157 243 475 84
12158 243 312 88
12159 243 201 67
12160 243 672 32
12161 243 129 85
12162 243 820 31
12163 243 309 65
12164 243 33 24
12165 243 457 5
12166 243 130 60
12167 243 580 70
12168 243 709 45
12169 243 157 42
12170 243 35 77
12171 243 968 69
12172 243 703 62
12173 243 833 28
12174 243 735 16
12175 243 108 14
12176 243 310 30
12177 243 822 29
12178 243 624 97
12179 243 112 64
12180 243 364 38
12181 243 328 22
12182 243 912 95
12183 243 868 89
12184 243 873 5
12185 243 160 97
12186 243 775 75
12187 243 637 62
12188 243 768 2
12189 243 649 80
12190 243 377 85
12191 243 905 49
12192 243 976 54
12193 243 306 35
12194 243 338 31
12195 243 635 34
12196 243 256 20
12197 243 117 36
12198 243 85 31
12199 243 134 30
12200 243 242 60
12201 243 233 91
12202 243 325 47
12203 243 983 95
12204 243 36 83
12205 243 830 29
12206 243 596 35
12207 243 647 16
12208 243 938 67
12209 244 338 61
12210 244 145 75
12211 244 379 12
12212 244 950 5
12213 244 750 28
12214 244 326 11
12215 244 973 62
12216 244 144 25
12217 244 433 99
12218 244 910 43
12219 244 309 67
12220 244 377 24
12221 244 733 20
12222 244 239 24
12223 244 868 71
12224 244 291 27
12225 244 48 66
12226 244 827 98
12227 244 694 61
12228 244 275 74
12229 244 180 14
12230 244 480 26
12231 244 594 51
12232 244 539 95
12233 244 140 77
12234 244 828 92
12235 244 551 53
12236 244 468 26
12237 244 782 49
12238 244 822 5
12239 244 895 83
12240 244 732 19
12241 244 237 74
12242 244 485 4
12243 244 110 73
12244 244 127 72
12245 244 90 26
12246 244 123 5
12247 244 650 52
12248 244 692 27
12249 244 477 2
12250 244 982 94
12251 244 130 37
12252 244 71 52
12253 244 155 68
12254 244 819 5
12255 244 120 8
12256 245 549 24
12257 245 970 1
12258 245 948 26
12259 245 366 78
12260 245 605 43
12261 245 1 65
12262 245 278 61
12263 245 309 34
12264 245 65 53
12265 245 665 64
12266 245 97 54
12267 245 992 56
12268 245 146 62
12269 245 51 12
12270 245 912 61
12271 245 80 2
12272 245 513 77
12273 245 681 97
12274 245 898 26
12275 245 741 90
12276 245 479 68
12277 245 600 39
12278 245 182 8
12279 245 467 50
12280 245 775 26
12281 245 274 46
12282 245 482 17
12283 245 87 75
12284 245 186 43
12285 245 54 20
12286 245 595 51
12287 245 423 18
12288 245 516 39
12289 245 864 53
12290 245 361 5
12291 245 419 1
12292 245 25 62
12293 245 349 54
12294 246 433 50
12295 246 666 33
12296 246 477 78
12297 246 927 39
12298 246 571 25
12299 246 6 30
12300 246 751 63
12301 246 366 95
12302 246 252 67
12303 246 155 41
12304 246 266 58
12305 246 716 46
12306 246 487 37
12307 246 50 69
12308 246 292 88
12309 246 375 38
12310 246 528 58
12311 246 16 75
12312 246 199 99
12313 246 827 9
12314 246 585 66
12315 246 982 60
12316 246 729 88
12317 246 104 61
12318 246 491 43
12319 246 76 4
12320 246 815 38
12321 246 717 93
12322 246 338 99
12323 246 497 80
12324 246 177 42
12325 246 526 81
12326 246 183 98
12327 246 370 13
12328 246 283 42
12329 246 564 76
12330 246 352 60
12331 246 510 99
12332 246 844 64
12333 246 421 36
12334 246 715 44
12335 246 218 91
12336 246 329 22
12337 246 150 55
12338 246 897 74
12339 246 259 87
12340 246 61 21
12341 246 951 7
12342 246 33 40
12343 246 845 83
12344 246 305 36
12345 246 640 22
12346 246 475 69
12347 246 145 39
12348 247 269 75
12349 247 301 18
12350 247 716 98
12351 247 838 38
12352 247 225 26
12353 247 207 40
12354 247 342 13
12355 247 661 73
12356 247 948 91
12357 247 15 14
12358 247 943 68
12359 247 709 47
12360 247 471 41
12361 247 757 74
12362 247 853 73
12363 247 372 43
12364 247 153 71
12365 247 393 39
12366 247 418 97
12367 247 619 1
12368 247 475 60
12369 247 300 75
12370 247 740 15
12371 247 476 14
12372 247 977 75
12373 247 954 90
12374 247 509 99
12375 247 992 33
12376 247 598 18
12377 247 536 99
12378 247 14 42
12379 247 111 87
12380 247 872 38
12381 247 461 11
12382 247 69 91
12383 247 925 38
12384 247 483 69
12385 247 213 15
12386 247 839 33
12387 247 172 14
12388 247 76 83
12389 247 121 32
12390 247 149 76
12391 247 375 8
12392 247 538 91
12393 247 788 91
12394 247 613 94
12395 247 967 89
12396 247 261 40
12397 247 378 54
12398 247 132 49
12399 247 876 7
12400 247 197 2
12401 247 987 62
12402 247 890 97
12403 247 497 31
12404 247 406 88
12405 248 822 16
12406 248 392 10
12407 248 895 48
12408 248 711 88
12409 248 274 67
12410 248 816 30
12411 248 544 77
12412 248 477 19
12413 248 774 60
12414 248 144 87
12415 248 449 53
12416 248 914 97
12417 248 419 48
12418 248 725 53
12419 248 22 65
12420 248 196 43
12421 248 786 80
12422 248 593 49
12423 248 415 98
12424 248 696 36
12425 248 79 33
12426 248 204 84
12427 248 528 57
12428 248 843 60
12429 248 979 74
12430 248 269 84
12431 248 995 97
12432 248 505 44
12433 248 460 75
12434 248 953 42
12435 248 702 95
12436 248 762 54
12437 248 872 78
12438 248 238 23
12439 248 569 92
12440 248 752 87
12441 248 31 84
12442 248 525 86
12443 248 13 93
12444 248 209 47
12445 248 882 93
12446 248 927 43
12447 248 453 5
12448 248 819 58
12449 248 989 57
12450 248 613 52
12451 248 938 36
12452 248 142 81
12453 248 707 94
12454 248 1 100
12455 248 403 34
12456 248 155 6
12457 248 329 30
12458 248 361 91
12459 249 691 24
12460 249 889 66
12461 249 850 48
12462 249 317 48
12463 249 282 4
12464 249 625 53
12465 249 826 38
12466 249 616 100
12467 249 369 72
12468 249 371 97
12469 249 753 50
12470 249 574 94
12471 249 418 95
12472 249 847 20
12473 249 296 29
12474 249 743 93
12475 249 247 99
12476 249 378 45
12477 249 166 63
12478 249 719 7
12479 249 540 75
12480 249 547 40
12481 249 658 80
12482 249 85 41
12483 249 803 21
12484 249 405 91
12485 249 0 2
12486 249 196 84
12487 249 897 51
12488 249 274 56
12489 249 355 1
12490 249 916 8
12491 249 360 71
12492 249 613 71
12493 249 222 88
12494 249 70 42
12495 249 411 25
12496 249 837 65
12497 249 432 36
12498 249 491 96
12499 249 163 29
12500 249 180 83
12501 249 891 30
12502 249 730 15
12503 249 337 68
12504 249 143 16
12505 250 93 78
12506 250 438 65
12507 250 209 57
12508 250 159 83
12509 250 934 67
12510 250 984 39
12511 250 167 24
12512 250 359 74
12513 250 915 92
12514 250 644 23
12515 250 345 71
12516 250 351 89
12517 250 69 25
12518 250 546 57
12519 250 72 67
12520 250 789 77
12521 250 384 39
12522 250 61 41
12523 250 84 8
12524 250 80 26
12525 250 261 72
12526 250 691 92
12527 250 360 82
12528 250 230 87
12529 250 708 89
12530 250 838 7
12531 250 255 90
12532 250 846 93
12533 250 501 85
12534 250 163 8
12535 250 579 73
12536 250 961 78
12537 250 527 54
12538 250 545 10
12539 250 20 85
12540 250 81 77
12541 250 350 80
12542 250 446 17
12543 250 699 9
12544 250 713 79
12545 250 899 90
12546 250 743 75
12547 250 111 40
12548 251 450 65
12549 251 305 15
12550 251 360 78
12551 251 9 98
12552 251 907 9
12553 251 194 63
12554 251 568 14
12555 251 726 66
12556 251 395 19
12557 251 819 15
12558 251 634 69
12559 251 457 74
12560 251 355 74
12561 251 649 49
12562 251 630 79
12563 251 422 69
12564 251 948 67
12565 251 112 83
12566 251 38 20
12567 251 337 12
12568 251 910 80
12569 251 43 9
12570 251 398 89
12571 251 446 98
12572 251 810 90
12573 251 812 92
12574 251 292 84
12575 251 507 41
12576 251 718 52
12577 251 93 29
12578 251 51 10
12579 251 102 29
12580 251 128 79
12581 251 50 63
12582 251 333 96
12583 251 832 99
12584 251 659 33
12585 251 937 52
12586 251 325 10
12587 251 859 28
12588 251 15 33
12589 251 768 84
12590 251 245 64
12591 251 893 24
12592 251 825 41
12593 251 439 43
12594 251 640 79
12595 251 469 30
12596 251 126 36
12597 251 293 67
12598 251 844 93
12599 252 773 83
12600 252 493 24
12601 252 40 65
12602 252 745 9
12603 252 370 53
12604 252 738 92
12605 252 162 100
12606 252 508 100
12607 252 417 86
12608 252 610 22
12609 252 877 70
12610 252 615 62
12611 252 103 29
12612 252 944 89
12613 252 209 32
12614 252 547 31
12615 252 84 94
12616 252 139 73
12617 252 976 46
12618 252 220 32
12619 252 863 85
12620 252 798 67
12621 252 892 11
12622 252 141 54
12623 252 559 45
12624 252 761 13
12625 252 227 56
12626 252 172 23
12627 252 541 87
12628 252 348 36
12629 252 931 73
12630 252 986 45
12631 252 243 6
12632 252 794 2
12633 252 499 1
12634 252 274 66
12635 252 560 51
12636 252 554 12
12637 252 774 13
12638 252 612 18
12639 252 350 49
12640 252 357 94
12641 252 36 3
12642 252 363 74
12643 252 813 54
12644 252 737 99
12645 252 347 43
12646 252 232 17
12647 253 25 31
12648 253 968 20
12649 253 162 64
12650 253 977 54
12651 253 195 12
12652 253 336 72
12653 253 37 4
12654 253 900 44
12655 253 490 85
12656 253 931 58
12657 253 886 41
12658 253 815 95
12659 253 619 32
12660 253 445 12
12661 253 640 70
12662 253 44 73
12663 253 621 68
12664 253 844 30
12665 253 392 58
12666 253 404 24
12667 253 562 32
12668 253 998 89
12669 253 845 32
12670 253 551 79
12671 253 557 51
12672 253 87 88
12673 253 66 58
12674 253 670 26
12675 253 124 86
12676 253 302 89
12677 253 328 21
12678 253 658 31
12679 253 912 3
12680 253 331 17
12681 253 202 73
12682 253 79 42
12683 253 188 48
12684 253 14 85
12685 253 235 57
12686 253 752 59
12687 253 173 20
12688 253 182 21
12689 253 383 45
12690 253 681 77
12691 253 462 67
12692 253 196 24
12693 253 767 75
12694 253 122 86
12695 253 854 31
12696 253 294 33
12697 253 283 68
12698 253 659 47
12699 253 720 89
12700 253 647 92
12701 253 133 30
12702 254 224 85
12703 254 965 78
12704 254 421 75
12705 254 509 51
12706 254 168 80
12707 254 434 98
12708 254 667 43
12709 254 934 66
12710 254 506 26
12711 254 502 99
12712 254 947 91
12713 254 336 71
12714 254 126 22
12715 254 229 66
12716 254 370 57
12717 254 773 63
12718 254 340 97
12719 254 27 78
12720 254 644 21
12721 254 848 90
12722 254 671 32
12723 254 569 7
12724 254 735 37
12725 254 653 41
12726 254 188 15
12727 254 417 25
12728 254 525 82
12729 254 968 97
12730 254 242 48
12731 254 577 63
12732 254 611 89
12733 254 223 11
12734 254 107 51
12735 254 187 48
12736 254 613 3
12737 254 619 44
12738 254 612 66
12739 254 729 33
12740 254 799 61
12741 254 379 66
12742 254 602 54
12743 254 124 99
12744 254 673 53
12745 254 156 59
12746 254 874 5
12747 254 431 86
12748 254 851 5
12749 254 385 89
12750 255 733 63
12751 255 414 26
12752 255 263 43
12753 255 447 24
12754 255 261 4
12755 255 198 59
12756 255 613 26
12757 255 684 11
12758 255 5 56
12759 255 986 37
12760 255 491 27
12761 255 465 85
12762 255 119 64
12763 255 659 31
12764 255 389 46
12765 255 229 24
12766 255 584 93
12767 255 551 34
12768 255 464 57
12769 255 30 74
12770 255 43 94
12771 255 48 91
12772 255 193 48
12773 255 499 92
12774 255 740 4
12775 255 575 11
12776 255 216 28
12777 255 401 94
12778 255 985 63
12779 255 969 66
12780 255 495 41
12781 255 93 66
12782 255 57 75
12783 255 526 16
12784 255 231 5
12785 255 999 100
12786 255 137 55
12787 255 308 39
12788 255 345 80
12789 255 557 1
12790 255 300 67
12791 255 785 21
12792 255 738 75
12793 255 936 17
12794 255 159 32
12795 256 405 81
12796 256 838 85
12797 256 790 98
12798 256 788 11
12799 256 314 80
12800 256 347 58
12801 256 695 50
12802 256 658 38
12803 256 824 98
12804 256 861 82
12805 256 960 55
12806 256 350 88
12807 256 948 71
12808 256 205 82
12809 256 961 53
12810 256 427 67
12811 256 752 20
12812 256 833 41
12813 256 218 19
12814 256 791 20
12815 256 477 8
12816 256 407 36
12817 256 415 77
12818 256 980 26
12819 256 784 74
12820 256 351 98
12821 256 73 85
12822 256 854 88
12823 256 955 75
12824 256 391 7
12825 256 543 83
12826 256 525 80
12827 256 19 45
12828 256 12 32
12829 256 747 17
12830 256 113 89
12831 256 216 91
12832 256 176 1
12833 256 840 18
12834 256 244 94
12835 256 186 16
12836 256 583 6
12837 256 272 91
12838 256 644 56
12839 256 33 83
12840 256 991 45
12841 256 793 54
12842 256 618 21
12843 256 401 21
12844 256 59 89
12845 256 753 21
12846 256 189 91
12847 257 387 52
12848 257 922 76
12849 257 300 81
12850 257 108 24
12851 257 729 68
12852 257 748 70
12853 257 803 11
12854 257 517 67
12855 257 192 8
12856 257 85 53
12857 257 468 16
12858 257 581 12
12859 257 21 90
12860 257 320 67
12861 257 823 68
12862 257 547 78
12863 257 305 41
12864 257 873 65
12865 257 313 40
12866 257 272 79
12867 257 698 55
12868 257 564 46
12869 257 416 9
12870 257 231 64
12871 257 972 43
12872 257 491 59
12873 257 905 38
12874 257 956 6
12875 257 216 4
12876 257 480 63
12877 257 725 65
12878 257 617 33
12879 257 374 36
12880 257 413 20
12881 257 860 47
12882 257 538 70
12883 257 79 77
12884 257 121 92
12885 257 246 3
12886 257 531 92
12887 257 940 65
12888 257 347 2
12889 257 226 3
12890 257 105 38
12891 257 139 68
12892 257 346 58
12893 257 285 69
12894 257 899 88
12895 257 804 13
12896 257 17 51
12897 257 902 99
12898 257 444 63
12899 257 472 76
12900 258 313 79
12901 258 154 85
12902 258 758 80
12903 258 424 18
12904 258 676 95
12905 258 212 68
12906 258 669 30
12907 258 222 12
12908 258 452 5
12909 258 535 19
12910 258 680 12
12911 258 380 57
12912 258 402 86
12913 258 136 32
12914 258 997 20
12915 258 432 93
12916 258 248 16
12917 258 503 18
12918 258 809 75
12919 258 663 14
12920 258 78 64
12921 258 392 84
12922 258 325 44
12923 258 624 41
12924 258 184 78
12925 258 899 35
12926 258 887 46
12927 258 306 12
12928 258 752 24
12929 258 879 11
12930 258 448 39
12931 258 272 77
12932 258 73 17
12933 258 638 7
12934 258 553 47
12935 258 192 94
12936 258 681 63
12937 258 456 94
12938 258 795 56
12939 258 278 61
12940 258 849 45
12941 258 3 40
12942 258 13 88
12943 258 601 52
12944 258 86 41
12945 258 878 99
12946 258 696 41
12947 258 947 91
12948 258 450 80
12949 258 476 1
12950 259 307 79
12951 259 598 65
12952 259 772 4
12953 259 205 40
12954 259 102 42
12955 259 829 64
12956 259 146 33
12957 259 619 55
12958 259 592 64
12959 259 903 17
12960 259 222 53
12961 259 300 84
12962 259 705 45
12963 259 717 11
12964 259 969 33
12965 259 363 23
12966 259 861 39
12967 259 603 20
12968 259 362 32
12969 259 251 34
12970 259 97 80
12971 259 385 63
12972 259 812 51
12973 259 952 85
12974 259 858 94
12975 259 238 71
12976 259 568 7
12977 259 719 24
12978 259 117 4
12979 259 993 8
12980 259 39 79
12981 259 784 6
12982 259 761 13
12983 259 434 22
12984 259 776 96
12985 259 154 81
12986 259 436 13
12987 259 811 23
12988 259 799 28
12989 259 704 49
12990 259 773 27
12991 259 0 56
12992 259 206 78
12993 259 113 58
12994 259 46 59
12995 259 471 5
12996 259 8 1
12997 259 460 19
12998 259 725 46
12999 260 517 25
13000 260 298 23
13001 260 54 81
13002 260 151 10
13003 260 418 26
13004 260 140 44
13005 260 465 41
13006 260 801 13
13007 260 130 51
13008 260 282 89
13009 260 551 72
13010 260 820 66
13011 260 699 98
13012 260 122 29
13013 260 521 90
13014 260 597 28
13015 260 263 28
13016 260 558 81
13017 260 904 100
13018 260 407 66
13019 260 553 46
13020 260 838 73
13021 260 385 3
13022 260 105 62
13023 260 825 100
13024 260 503 37
13025 260 676 97
13026 260 386 68
13027 260 413 62
13028 260 764 48
13029 260 967 41
13030 260 952 61
13031 260 727 83
13032 260 126 50
13033 260 349 52
13034 260 217 49
13035 260 204 68
13036 260 907 47
13037 260 267 98
13038 260 721 14
13039 260 625 28
13040 260 13 28
13041 260 983 75
13042 260 66 32
13043 260 86 13
13044 260 646 48
13045 260 851 87
13046 260 14 26
13047 260 896 91
13048 261 437 26
13049 261 800 90
13050 261 6 85
13051 261 963 69
13052 261 905 95
13053 261 751 66
13054 261 127 4
13055 261 892 55
13056 261 462 3
13057 261 457 79
13058 261 45 96
13059 261 748 51
13060 261 325 20
13061 261 523 65
13062 261 981 59
13063 261 789 38
13064 261 750 39
13065 261 251 6
13066 261 481 90
13067 261 852 39
13068 261 859 77
13069 261 455 91
13070 261 651 59
13071 261 165 5
13072 261 602 34
13073 261 572 40
13074 261 426 24
13075 261 569 24
13076 261 273 47
13077 261 583 29
13078 261 588 29
13079 261 791 19
13080 261 953 53
13081 261 265 94
13082 261 26 13
13083 261 202 80
13084 261 389 44
13085 262 302 87
13086 262 284 45
13087 262 964 82
13088 262 370 99
13089 262 7 28
13090 262 301 35
13091 262 508 51
13092 262 803 45
13093 262 57 28
13094 262 163 16
13095 262 475 35
13096 262 137 40
13097 262 178 12
13098 262 455 5
13099 262 708 58
13100 262 101 11
13101 262 772 62
13102 262 884 5
13103 262 115 7
13104 262 371 96
13105 262 490 39
13106 262 390 63
13107 262 421 20
13108 262 791 21
13109 262 480 29
13110 262 481 65
13111 262 796 96
13112 262 51 53
13113 262 34 26
13114 262 998 27
13115 262 360 74
13116 262 384 80
13117 262 684 47
13118 262 949 16
13119 262 751 5
13120 262 116 14
13121 262 448 65
13122 262 220 87
13123 262 266 75
13124 262 43 11
13125 262 920 37
13126 262 187 43
13127 262 665 89
13128 262 517 93
13129 262 433 82
13130 262 966 5
13131 262 265 5
13132 262 910 36
13133 262 327 92
13134 262 399 29
13135 262 126 50
13136 262 726 95
13137 262 111 22
13138 262 36 42
13139 262 724 33
13140 262 434 47
13141 262 720 20
13142 262 147 43
13143 262 965 56
13144 263 121 30
13145 263 763 22
13146 263 77 18
13147 263 705 42
13148 263 983 20
13149 263 189 100
13150 263 322 58
13151 263 540 29
13152 263 485 61
13153 263 534 42
13154 263 334 24
13155 263 92 71
13156 263 985 7
13157 263 703 42
13158 263 202 44
13159 263 145 60
13160 263 558 48
13161 263 131 48
13162 263 759 1
13163 263 863 84
13164 263 192 99
13165 263 111 87
13166 263 270 13
13167 263 57 30
13168 263 986 95
13169 263 284 86
13170 263 535 62
13171 263 654 36
13172 263 409 98
13173 263 180 16
13174 263 71 36
13175 263 726 95
13176 263 788 4
13177 263 190 61
13178 263 465 60
13179 263 390 52
13180 263 618 79
13181 263 528 96
13182 263 516 76
13183 263 909 47
13184 263 269 23
13185 263 802 20
13186 263 427 27
13187 263 598 20
13188 263 602 38
13189 264 667 43
13190 264 775 37
13191 264 524 24
13192 264 336 96
13193 264 539 99
13194 264 162 60
13195 264 971 96
13196 264 480 19
13197 264 541 100
13198 264 946 88
13199 264 44 11
13200 264 77 69
13201 264 819 4
13202 264 777 82
13203 264 98 95
13204 264 41 93
13205 264 281 10
13206 264 906 51
13207 264 630 55
13208 264 175 31
13209 264 692 65
13210 264 177 54
13211 264 856 94
13212 264 310 50
13213 264 140 95
13214 264 860 75
13215 264 501 22
13216 264 962 35
13217 264 659 98
13218 264 73 72
13219 264 189 81
13220 264 653 9
13221 264 972 64
13222 264 491 77
13223 264 651 35
13224 264 11 40
13225 264 290 23
13226 264 620 74
13227 264 607 25
13228 264 123 12
13229 264 600 20
13230 264 251 52
13231 264 727 47
13232 265 965 70
13233 265 95 37
13234 265 831 82
13235 265 429 88
13236 265 656 6
13237 265 757 98
13238 265 251 13
13239 265 886 66
13240 265 897 76
13241 265 445 12
13242 265 294 96
13243 265 636 100
13244 265 742 60
13245 265 921 2
13246 265 240 60
13247 265 798 32
13248 265 730 62
13249 265 840 74
13250 265 212 86
13251 265 360 36
13252 265 841 72
13253 265 204 56
13254 265 39 47
13255 265 851 26
13256 265 560 11
13257 265 619 7
13258 265 367 80
13259 265 574 23
13260 265 462 81
13261 265 451 51
13262 265 548 49
13263 265 13 43
13264 265 121 56
13265 265 919 61
13266 265 845 45
13267 265 544 33
13268 265 282 89
13269 265 642 40
13270 265 387 6
13271 265 68 71
13272 265 441 2
13273 265 652 64
13274 265 668 22
13275 265 816 88
13276 265 67 76
13277 265 499 26
13278 265 627 82
13279 266 135 48
13280 266 271 50
13281 266 234 76
13282 266 211 55
13283 266 504 90
13284 266 55 97
13285 266 325 22
13286 266 429 34
13287 266 619 47
13288 266 834 23
13289 266 808 80
13290 266 91 20
13291 266 219 83
13292 266 616 23
13293 266 250 6
13294 266 514 30
13295 266 207 75
13296 266 371 86
13297 266 108 91
13298 266 830 97
13299 266 111 8
13300 266 874 90
13301 266 306 40
13302 266 953 54
13303 266 226 92
13304 266 624 85
13305 266 48 7
13306 266 214 97
13307 266 379 89
13308 266 609 71
13309 266 776 89
13310 266 470 31
13311 266 775 30
13312 266 450 68
13313 266 563 11
13314 266 11 57
13315 266 140 72
13316 266 420 57
13317 266 571 52
13318 266 822 77
13319 266 997 20
13320 266 812 81
13321 266 916 28
13322 266 13 99
13323 266 564 71
13324 266 754 61
13325 266 921 11
13326 266 168 59
13327 266 441 78
13328 267 336 73
13329 267 877 89
13330 267 291 41
13331 267 757 4
13332 267 803 57
13333 267 537 42
13334 267 727 35
13335 267 883 100
13336 267 337 41
13337 267 808 21
13338 267 899 83
13339 267 691 93
13340 267 525 99
13341 267 73 80
13342 267 307 67
13343 267 839 82
13344 267 301 85
13345 267 287 88
13346 267 203 61
13347 267 906 13
13348 267 826 18
13349 267 85 76
13350 267 849 5
13351 267 955 40
13352 267 412 34
13353 267 238 21
13354 267 300 18
13355 267 333 45
13356 267 404 76
13357 267 793 60
13358 267 98 44
13359 267 187 1
13360 267 507 90
13361 267 715 98
13362 267 467 62
13363 267 257 67
13364 267 563 88
13365 267 862 85
13366 267 77 47
13367 267 99 16
13368 267 455 52
13369 268 863 8
13370 268 131 36
13371 268 669 54
13372 268 730 13
13373 268 494 61
13374 268 80 23
13375 268 375 70
13376 268 617 37
13377 268 737 94
13378 268 431 96
13379 268 401 55
13380 268 175 31
13381 268 520 16
13382 268 641 47
13383 268 910 14
13384 268 439 67
13385 268 533 4
13386 268 326 15
13387 268 106 86
13388 268 812 3
13389 268 397 84
13390 268 721 76
13391 268 240 12
13392 268 119 29
13393 268 176 21
13394 268 292 37
13395 268 247 21
13396 268 473 35
13397 268 54 51
13398 268 878 82
13399 268 324 95
13400 268 551 55
13401 268 151 52
13402 268 75 75
13403 268 894 21
13404 268 614 88
13405 268 221 8
13406 268 365 65
13407 268 200 19
13408 268 16 21
13409 268 850 34
13410 268 917 72
13411 268 102 82
13412 268 139 27
13413 268 355 35
13414 269 54 78
13415 269 99 57
13416 269 268 5
13417 269 792 59
13418 269 12 65
13419 269 804 40
13420 269 241 54
13421 269 201 57
13422 269 795 19
13423 269 326 32
13424 269 783 64
13425 269 509 11
13426 269 931 54
13427 269 400 81
13428 269 440 27
13429 269 688 70
13430 269 176 74
13431 269 215 27
13432 269 849 50
13433 269 740 72
13434 269 508 59
13435 269 500 86
13436 269 424 25
13437 269 738 99
13438 269 275 67
13439 269 197 46
13440 269 521 28
13441 269 288 46
13442 269 187 55
13443 269 65 94
13444 269 880 11
13445 269 265 70
13446 269 346 32
13447 269 137 55
13448 269 225 58
13449 269 10 56
13450 269 38 33
13451 269 721 26
13452 269 856 45
13453 269 68 77
13454 269 519 99
13455 269 82 21
13456 269 283 80
13457 269 554 82
13458 269 445 91
13459 269 937 54
13460 269 441 91
13461 269 266 68
13462 269 559 10
13463 269 812 33
13464 269 822 30
13465 269 842 54
13466 270 715 57
13467 270 377 64
13468 270 305 53
13469 270 246 26
13470 270 273 24
13471 270 361 35
13472 270 49 48
13473 270 468 72
13474 270 629 89
13475 270 191 56
13476 270 283 30
13477 270 354 32
13478 270 803 21
13479 270 502 21
13480 270 33 72
13481 270 634 92
13482 270 43 17
13483 270 746 13
13484 270 473 15
13485 270 485 72
13486 270 133 50
13487 270 681 12
13488 270 463 58
13489 270 716 37
13490 270 679 42
13491 270 378 1
13492 270 217 1
13493 270 607 89
13494 270 838 63
13495 270 717 94
13496 270 910 51
13497 270 299 74
13498 270 623 77
13499 270 435 24
13500 270 185 14
13501 270 505 77
13502 270 318 19
13503 270 301 40
13504 270 50 14
13505 270 387 19
13506 270 296 88
13507 270 447 4
13508 270 338 9
13509 270 695 16
13510 270 60 33
13511 270 806 73
13512 270 226 71
13513 270 157 1
13514 270 12 31
13515 270 398 54
13516 270 228 86
13517 270 255 98
13518 271 397 35
13519 271 190 6
13520 271 860 18
13521 271 5 97
13522 271 406 68
13523 271 203 62
13524 271 681 61
13525 271 714 75
13526 271 780 35
13527 271 911 36
13528 271 151 75
13529 271 102 25
13530 271 469 53
13531 271 483 22
13532 271 268 53
13533 271 244 23
13534 271 501 47
13535 271 745 92
13536 271 830 36
13537 271 160 63
13538 271 1 2
13539 271 183 1
13540 271 124 10
13541 271 56 77
13542 271 82 64
13543 271 729 99
13544 271 441 94
13545 271 589 14
13546 271 46 50
13547 271 639 8
13548 271 533 28
13549 271 369 39
13550 271 376 94
13551 271 332 64
13552 271 393 17
13553 271 728 96
13554 271 229 43
13555 271 873 70
13556 271 876 81
13557 271 425 20
13558 271 908 33
13559 271 477 9
13560 271 979 78
13561 271 228 11
13562 271 14 18
13563 271 49 31
13564 271 746 4
13565 271 345 17
13566 271 191 53
13567 271 208 30
13568 271 398 29
13569 271 378 42
13570 271 12 100
13571 271 21 56
13572 271 706 47
13573 271 60 66
13574 271 985 52
13575 271 326 7
13576 271 796 85
13577 271 157 7
13578 271 604 79
13579 271 471 2
13580 271 618 61
13581 271 485 37
13582 271 708 28
13583 272 164 13
13584 272 636 97
13585 272 457 60
13586 272 904 67
13587 272 184 23
13588 272 54 2
13589 272 141 18
13590 272 399 60
13591 272 435 23
13592 272 93 17
13593 272 736 62
13594 272 228 37
13595 272 673 4
13596 272 689 40
13597 272 245 51
13598 272 172 56
13599 272 828 22
13600 272 696 89
13601 272 967 91
13602 272 758 88
13603 272 454 66
13604 272 83 87
13605 272 773 83
13606 272 466 19
13607 272 979 33
13608 272 183 53
13609 272 171 83
13610 272 614 21
13611 272 830 51
13612 272 109 24
13613 272 966 88
13614 272 896 96
13615 272 528 13
13616 272 94 84
13617 272 276 32
13618 272 616 16
13619 272 950 96
13620 272 121 39
13621 272 540 9
13622 273 150 34
13623 273 869 44
13624 273 810 38
13625 273 821 33
13626 273 739 90
13627 273 787 93
13628 273 754 13
13629 273 160 13
13630 273 837 19
13631 273 6 17
13632 273 797 25
13633 273 85 6
13634 273 360 11
13635 273 748 12
13636 273 90 76
13637 273 960 45
13638 273 808 84
13639 273 297 89
13640 273 771 37
13641 273 554 26
13642 273 291 11
13643 273 907 3
13644 273 128 25
13645 273 469 38
13646 273 971 34
13647 273 500 89
13648 273 39 15
13649 273 825 71
13650 273 271 25
13651 273 188 27
13652 273 774 3
13653 273 58 30
13654 273 8 48
13655 273 267 22
13656 273 722 69
13657 273 18 23
13658 273 779 42
13659 273 334 88
13660 273 915 91
13661 273 643 84
13662 273 169 61
13663 273 507 7
13664 273 990 76
13665 273 4 23
13666 273 483 3
13667 273 524 82
13668 273 853 87
13669 273 152 7
13670 273 388 62
13671 273 921 59
13672 273 194 9
13673 273 932 40
13674 273 954 99
13675 274 522 38
13676 274 616 100
13677 274 289 23
13678 274 651 100
13679 274 625 14
13680 274 817 93
13681 274 471 98
13682 274 739 15
13683 274 56 84
13684 274 947 13
13685 274 75 89
13686 274 293 3
13687 274 595 77
13688 274 455 93
13689 274 552 31
13690 274 418 6
13691 274 233 84
13692 274 617 47
13693 274 251 33
13694 274 50 87
13695 274 511 47
13696 274 973 31
13697 274 347 36
13698 274 731 93
13699 274 52 81
13700 274 765 15
13701 274 219 51
13702 274 885 83
13703 274 535 89
13704 274 717 79
13705 274 569 89
13706 274 990 16
13707 274 772 59
13708 274 104 5
13709 274 115 35
13710 274 581 8
13711 274 794 48
13712 274 556 9
13713 274 741 11
13714 274 477 39
13715 274 307 95
13716 274 266 58
13717 274 491 67
13718 274 712 84
13719 274 466 33
13720 274 632 66
13721 274 505 13
13722 274 826 35
13723 274 468 77
13724 274 706 5
13725 274 387 81
13726 274 654 91
13727 274 121 16
13728 274 583 12
13729 274 363 97
13730 274 949 81
13731 275 609 66
13732 275 399 87
13733 275 319 35
13734 275 336 90
13735 275 467 48
13736 275 209 24
13737 275 157 23
13738 275 306 39
13739 275 759 3
13740 275 788 31
13741 275 989 46
13742 275 893 50
13743 275 757 95
13744 275 791 25
13745 275 109 18
13746 275 678 22
13747 275 659 13
13748 275 220 1
13749 275 753 65
13750 275 699 65
13751 275 537 15
13752 275 942 41
13753 275 713 69
13754 275 61 23
13755 275 22 20
13756 275 455 76
13757 275 363 59
13758 275 184 16
13759 275 192 84
13760 275 733 89
13761 275 438 42
13762 275 690 85
13763 275 463 47
13764 275 138 87
13765 275 890 35
13766 275 838 82
13767 275 916 60
13768 275 415 29
13769 275 34 86
13770 275 606 87
13771 275 737 5
13772 275 908 65
13773 275 881 49
13774 275 727 90
13775 276 891 68
13776 276 959 33
13777 276 579 29
13778 276 277 87
13779 276 997 83
13780 276 460 49
13781 276 939 50
13782 276 882 41
13783 276 792 8
13784 276 123 1
13785 276 610 25
13786 276 197 68
13787 276 250 3
13788 276 557 32
13789 276 93 15
13790 276 140 65
13791 276 174 89
13792 276 685 45
13793 276 518 45
13794 276 200 29
13795 276 488 27
13796 276 950 10
13797 276 69 42
13798 276 756 73
13799 276 852 5
13800 276 202 83
13801 276 46 8
13802 276 858 97
13803 276 811 94
13804 276 438 17
13805 276 815 18
13806 276 835 88
13807 276 940 2
13808 276 522 100
13809 276 417 13
13810 276 445 2
13811 276 994 10
13812 276 957 10
13813 276 872 84
13814 276 558 62
13815 276 517 57
13816 276 336 6
13817 276 78 32
13818 276 324 11
13819 276 884 19
13820 276 797 19
13821 276 386 9
13822 277 88 66
13823 277 111 33
13824 277 438 98
13825 277 114 100
13826 277 235 55
13827 277 1 13
13828 277 975 11
13829 277 303 79
13830 277 582 5
13831 277 381 68
13832 277 187 100
13833 277 583 64
13834 277 950 10
13835 277 571 55
13836 277 421 86
13837 277 674 11
13838 277 844 48
13839 277 490 70
13840 277 938 67
13841 277 350 32
13842 277 532 27
13843 277 457 19
13844 277 355 48
13845 277 765 48
13846 277 524 51
13847 277 973 17
13848 277 353 19
13849 277 552 60
13850 277 207 26
13851 277 784 33
13852 277 579 50
13853 277 359 44
13854 277 325 33
13855 277 48 73
13856 277 660 63
13857 277 926 6
13858 277 947 82
13859 277 310 19
13860 277 502 56
13861 277 859 77
13862 277 327 65
13863 277 902 49
13864 277 990 3
13865 277 397 55
13866 277 894 14
13867 277 535 16
13868 277 9 98
13869 277 867 24
13870 277 817 78
13871 277 832 27
13872 277 174 78
13873 278 65 4
13874 278 868 55
13875 278 384 22
13876 278 690 25
13877 278 711 4
13878 278 732 86
13879 278 320 93
13880 278 83 44
13881 278 440 29
13882 278 686 97
13883 278 358 94
13884 278 235 70
13885 278 105 66
13886 278 351 52
13887 278 515 91
13888 278 783 65
13889 278 476 11
13890 278 664 59
13891 278 159 33
13892 278 80 59
13893 278 197 78
13894 278 215 81
13895 278 308 98
13896 278 342 65
13897 278 917 40
13898 278 874 94
13899 278 487 61
13900 278 300 7
13901 278 546 24
13902 278 661 76
13903 278 228 97
13904 278 950 60
13905 278 356 35
13906 278 576 5
13907 278 598 24
13908 278 639 85
13909 278 462 85
13910 278 103 96
13911 278 781 74
13912 278 551 10
13913 278 23 40
13914 278 753 64
13915 278 427 44
13916 278 306 85
13917 278 419 1
13918 278 117 49
13919 278 954 52
13920 278 784 31
13921 278 206 67
13922 278 297 37
13923 278 982 97
13924 278 718 13
13925 278 795 18
13926 278 675 39
13927 278 830 57
13928 278 17 55
13929 278 511 72
13930 278 693 83
13931 279 344 79
13932 279 375 80
13933 279 323 98
13934 279 55 52
13935 279 102 72
13936 279 259 62
13937 279 964 56
13938 279 955 44
13939 279 690 39
13940 279 572 67
13941 279 654 27
13942 279 849 48
13943 279 731 22
13944 279 744 55
13945 279 458 88
13946 279 67 78
13947 279 117 54
13948 279 275 42
13949 279 518 19
13950 279 33 25
13951 279 927 60
13952 279 242 39
13953 279 9 15
13954 279 897 39
13955 279 512 84
13956 279 439 31
13957 279 274 53
13958 279 225 9
13959 279 684 25
13960 279 639 1
13961 279 780 57
13962 279 343 88
13963 279 501 33
13964 279 845 42
13965 279 283 61
13966 279 770 91
13967 279 722 43
13968 279 634 68
13969 279 127 26
13970 279 330 12
13971 279 862 30
13972 279 600 64
13973 279 763 5
13974 279 519 63
13975 279 983 94
13976 279 761 13
13977 279 598 51
13978 279 198 68
13979 279 86 6
13980 279 174 74
13981 279 624 65
13982 280 148 2
13983 280 583 64
13984 280 204 99
13985 280 813 6
13986 280 539 34
13987 280 756 21
13988 280 175 1
13989 280 463 60
13990 280 317 11
13991 280 729 3
13992 280 396 78
13993 280 578 94
13994 280 210 19
13995 280 251 8
13996 280 650 22
13997 280 720 15
13998 280 858 74
13999 280 556 50
14000 280 174 31
14001 280 452 57
14002 280 95 89
14003 280 704 73
14004 280 653 36
14005 280 722 89
14006 280 982 37
14007 280 128 88
14008 280 269 26
14009 280 264 55
14010 280 219 71
14011 280 427 67
14012 280 474 93
14013 280 242 98
14014 280 774 60
14015 280 47 5
14016 280 634 29
14017 280 270 53
14018 280 898 37
14019 280 442 39
14020 280 669 98
14021 280 19 86
14022 280 160 75
14023 280 6 10
14024 280 604 88
14025 280 57 54
14026 280 285 23
14027 280 331 43
14028 280 996 78
14029 280 138 78
14030 280 601 52
14031 280 92 84
14032 280 510 61
14033 280 61 42
14034 280 380 57
14035 280 255 91
14036 280 73 47
14037 281 899 83
14038 281 268 59
14039 281 901 58
14040 281 784 71
14041 281 157 32
14042 281 629 23
14043 281 824 9
14044 281 812 99
14045 281 124 63
14046 281 255 80
14047 281 60 14
14048 281 448 13
14049 281 596 85
14050 281 648 47
14051 281 78 55
14052 281 898 23
14053 281 32 47
14054 281 477 11
14055 281 27 84
14056 281 62 9
14057 281 48 8
14058 281 316 3
14059 281 797 69
14060 281 195 2
14061 281 523 14
14062 281 933 38
14063 281 430 2
14064 281 31 39
14065 281 167 13
14066 281 550 35
14067 281 669 13
14068 281 149 61
14069 281 980 49
14070 281 893 30
14071 281 761 67
14072 281 769 91
14073 281 485 4
14074 281 509 53
14075 281 329 80
14076 281 940 92
14077 281 597 94
14078 281 737 52
14079 281 814 34
14080 281 462 16
14081 281 13 22
14082 281 869 35
14083 281 630 9
14084 281 853 64
14085 281 952 57
14086 281 738 76
14087 281 565 12
14088 281 138 80
14089 281 7 65
14090 281 305 43
14091 281 875 76
14092 281 570 28
14093 281 181 38
14094 281 147 84
14095 281 314 98
14096 281 803 58
14097 282 941 3
14098 282 808 26
14099 282 731 95
14100 282 468 61
14101 282 737 58
14102 282 806 66
14103 282 972 40
14104 282 225 12
14105 282 818 66
14106 282 395 51
14107 282 464 100
14108 282 655 33
14109 282 926 28
14110 282 267 12
14111 282 760 10
14112 282 963 100
14113 282 342 27
14114 282 232 3
14115 282 895 22
14116 282 379 81
14117 282 711 12
14118 282 106 11
14119 282 894 29
14120 282 704 26
14121 282 439 95
14122 282 308 6
14123 282 571 54
14124 282 940 73
14125 282 962 69
14126 282 532 50
14127 282 595 11
14128 282 664 30
14129 282 92 31
14130 282 410 88
14131 282 553 46
14132 282 860 83
14133 282 705 84
14134 282 63 44
14135 282 530 4
14136 282 207 68
14137 282 816 65
14138 282 283 3
14139 282 449 31
14140 282 746 62
14141 282 170 97
14142 282 193 14
14143 282 599 62
14144 282 65 23
14145 282 512 95
14146 282 272 65
14147 282 675 56
14148 282 463 57
14149 282 216 19
14150 282 343 1
14151 282 234 9
14152 282 849 8
14153 282 780 75
14154 282 336 49
14155 282 960 49
14156 283 394 22
14157 283 466 80
14158 283 678 62
14159 283 282 86
14160 283 463 11
14161 283 385 13
14162 283 618 39
14163 283 533 85
14164 283 636 93
14165 283 820 43
14166 283 48 65
14167 283 316 94
14168 283 785 39
14169 283 384 8
14170 283 496 84
14171 283 80 78
14172 283 4 32
14173 283 665 46
14174 283 379 63
14175 283 680 24
14176 283 916 58
14177 283 831 37
14178 283 864 75
14179 283 455 5
14180 283 487 10
14181 283 164 2
14182 283 180 59
14183 283 594 73
14184 283 781 60
14185 283 814 22
14186 283 309 25
14187 283 317 82
14188 283 608 29
14189 283 263 96
14190 283 142 32
14191 283 368 39
14192 283 274 4
14193 283 232 9
14194 283 290 93
14195 283 471 2
14196 283 589 30
14197 283 753 79
14198 283 21 88
14199 283 43 85
14200 283 646 65
14201 283 810 20
14202 283 983 7
14203 283 128 70
14204 284 666 48
14205 284 643 66
14206 284 701 87
14207 284 331 74
14208 284 418 80
14209 284 936 41
14210 284 69 92
14211 284 879 72
14212 284 821 23
14213 284 432 86
14214 284 523 68
14215 284 194 63
14216 284 375 32
14217 284 597 31
14218 284 329 94
14219 284 333 61
14220 284 787 22
14221 284 61 65
14222 284 951 38
14223 284 943 12
14224 284 292 34
14225 284 898 57
14226 284 888 50
14227 284 601 19
14228 284 180 94
14229 284 653 48
14230 284 299 39
14231 284 378 2
14232 284 201 69
14233 284 578 51
14234 284 558 43
14235 284 168 37
14236 284 497 43
14237 284 793 85
14238 284 883 98
14239 284 385 95
14240 284 598 37
14241 284 367 29
14242 284 252 4
14243 284 457 13
14244 284 965 90
14245 284 887 41
14246 284 524 43
14247 284 823 89
14248 284 737 9
14249 284 743 51
14250 285 936 60
14251 285 664 100
14252 285 782 36
14253 285 1 78
14254 285 978 22
14255 285 471 21
14256 285 315 97
14257 285 985 34
14258 285 587 93
14259 285 983 86
14260 285 366 30
14261 285 176 7
14262 285 479 60
14263 285 31 99
14264 285 814 33
14265 285 696 41
14266 285 37 96
14267 285 926 1
14268 285 464 16
14269 285 112 56
14270 285 183 12
14271 285 586 83
14272 285 892 17
14273 285 958 39
14274 285 877 80
14275 285 809 96
14276 285 378 54
14277 285 321 76
14278 285 424 18
14279 285 237 54
14280 285 648 82
14281 285 376 56
14282 285 604 8
14283 285 534 30
14284 285 634 8
14285 285 413 19
14286 286 134 59
14287 286 250 18
14288 286 538 88
14289 286 346 61
14290 286 312 95
14291 286 276 80
14292 286 634 78
14293 286 952 96
14294 286 972 60
14295 286 368 95
14296 286 916 87
14297 286 400 88
14298 286 886 22
14299 286 565 49
14300 286 471 18
14301 286 157 55
14302 286 949 63
14303 286 838 47
14304 286 420 55
14305 286 766 53
14306 286 836 87
14307 286 272 18
14308 286 826 63
14309 286 175 65
14310 286 857 76
14311 286 111 69
14312 286 197 96
14313 286 23 77
14314 286 399 87
14315 286 780 50
14316 286 501 10
14317 286 749 82
14318 286 895 26
14319 286 146 85
14320 286 397 29
14321 286 672 4
14322 286 754 86
14323 286 985 29
14324 286 557 82
14325 286 152 72
14326 286 641 68
14327 286 699 67
14328 287 204 9
14329 287 75 71
14330 287 643 63
14331 287 588 54
14332 287 231 70
14333 287 649 84
14334 287 164 59
14335 287 781 82
14336 287 518 10
14337 287 66 94
14338 287 686 39
14339 287 319 76
14340 287 875 89
14341 287 474 91
14342 287 585 47
14343 287 596 11
14344 287 641 70
14345 287 700 69
14346 287 370 23
14347 287 855 89
14348 287 604 65
14349 287 226 64
14350 287 451 15
14351 287 126 91
14352 287 959 23
14353 287 351 66
14354 287 135 27
14355 287 823 51
14356 287 845 39
14357 287 432 31
14358 287 15 12
14359 287 789 16
14360 287 128 82
14361 287 296 36
14362 287 462 99
14363 287 265 5
14364 287 153 96
14365 287 563 43
14366 287 318 92
14367 287 695 54
14368 287 859 2
14369 287 344 59
14370 287 935 74
14371 287 426 43
14372 287 87 62
14373 287 272 16
14374 287 737 88
14375 287 105 40
14376 287 38 46
14377 288 414 82
14378 288 760 17
14379 288 17 10
14380 288 210 2
14381 288 879 74
14382 288 802 60
14383 288 1 80
14384 288 538 74
14385 288 987 68
14386 288 883 66
14387 288 803 37
14388 288 731 28
14389 288 377 96
14390 288 492 76
14391 288 337 41
14392 288 848 100
14393 288 695 100
14394 288 658 90
14395 288 145 66
14396 288 318 38
14397 288 810 33
14398 288 655 79
14399 288 960 42
14400 288 301 86
14401 288 997 88
14402 288 524 68
14403 288 989 16
14404 288 718 27
14405 288 892 72
14406 288 276 34
14407 288 742 16
14408 288 402 13
14409 288 902 56
14410 288 40 43
14411 288 240 6
14412 288 952 16
14413 288 119 7
14414 288 316 39
14415 288 868 31
14416 288 926 97
14417 288 569 16
14418 288 813 33
14419 289 973 55
14420 289 680 49
14421 289 640 1
14422 289 882 43
14423 289 97 22
14424 289 954 30
14425 289 782 47
14426 289 5 22
14427 289 185 28
14428 289 987 27
14429 289 587 30
14430 289 50 78
14431 289 451 46
14432 289 727 77
14433 289 138 67
14434 289 777 44
14435 289 444 41
14436 289 764 92
14437 289 805 66
14438 289 338 39
14439 289 897 7
14440 289 806 12
14441 289 51 91
14442 289 146 78
14443 289 32 32
14444 289 884 74
14445 289 170 98
14446 289 315 23
14447 289 723 33
14448 289 436 46
14449 289 379 2
14450 289 555 75
14451 289 500 66
14452 289 231 12
14453 289 738 21
14454 289 21 8
14455 289 674 34
14456 289 498 70
14457 289 953 47
14458 289 820 86
14459 289 41 15
14460 289 673 85
14461 289 105 46
14462 289 246 21
14463 289 829 93
14464 289 930 96
14465 289 773 39
14466 289 596 76
14467 289 696 24
14468 289 87 25
14469 289 705 55
14470 289 389 12
14471 290 292 54
14472 290 572 56
14473 290 148 3
14474 290 459 47
14475 290 821 10
14476 290 218 8
14477 290 483 96
14478 290 563 55
14479 290 328 22
14480 290 795 14
14481 290 723 44
14482 290 922 76
14483 290 160 41
14484 290 338 97
14485 290 852 96
14486 290 954 84
14487 290 706 84
14488 290 89 51
14489 290 146 71
14490 290 781 53
14491 290 458 96
14492 290 411 36
14493 290 474 58
14494 290 131 67
14495 290 983 35
14496 290 350 73
14497 290 905 33
14498 290 219 58
14499 290 71 57
14500 290 985 49
14501 290 616 16
14502 290 169 9
14503 290 537 36
14504 290 875 73
14505 290 226 75
14506 290 804 14
14507 290 666 34
14508 290 676 35
14509 290 736 7
14510 290 637 55
14511 290 364 8
14512 290 241 75
14513 290 112 2
14514 290 977 27
14515 290 667 93
14516 290 447 18
14517 290 173 35
14518 290 70 64
14519 290 788 14
14520 290 481 39
14521 290 74 35
14522 291 5 37
14523 291 863 3
14524 291 89 78
14525 291 924 26
14526 291 182 73
14527 291 87 100
14528 291 731 93
14529 291 893 57
14530 291 83 34
14531 291 159 37
14532 291 525 33
14533 291 874 81
14534 291 617 31
14535 291 880 96
14536 291 546 49
14537 291 890 87
14538 291 346 46
14539 291 812 63
14540 291 304 91
14541 291 708 65
14542 291 144 37
14543 291 282 51
14544 291 248 91
14545 291 49 89
14546 291 499 86
14547 291 835 18
14548 291 742 96
14549 291 40 64
14550 291 702 99
14551 291 195 54
14552 291 349 95
14553 291 228 17
14554 291 14 99
14555 291 337 10
14556 291 761 61
14557 291 561 65
14558 291 738 37
14559 291 771 56
14560 291 814 44
14561 291 229 76
14562 291 568 38
14563 291 712 78
14564 291 191 39
14565 291 610 29
14566 291 63 63
14567 291 359 82
14568 291 818 17
14569 291 156 81
14570 291 581 45
14571 291 106 19
14572 291 23 10
14573 291 432 1
14574 291 449 27
14575 291 82 58
14576 291 647 18
14577 291 339 14
14578 291 751 8
14579 291 484 86
14580 292 431 52
14581 292 538 15
14582 292 874 25
14583 292 582 31
14584 292 198 16
14585 292 706 24
14586 292 18 71
14587 292 903 36
14588 292 95 39
14589 292 458 49
14590 292 228 50
14591 292 741 90
14592 292 428 86
14593 292 969 27
14594 292 736 22
14595 292 12 92
14596 292 623 29
14597 292 547 46
14598 292 630 51
14599 292 238 93
14600 292 455 95
14601 292 813 38
14602 292 421 81
14603 292 124 37
14604 292 324 7
14605 292 132 22
14606 292 474 49
14607 292 21 85
14608 292 947 40
14609 292 491 78
14610 292 459 18
14611 292 342 35
14612 292 685 26
14613 292 570 67
14614 292 846 79
14615 292 589 95
14616 292 906 88
14617 292 789 98
14618 292 854 95
14619 292 11 94
14620 292 778 26
14621 292 156 45
14622 292 478 13
14623 292 739 47
14624 292 216 64
14625 292 293 29
14626 292 608 17
14627 292 522 22
14628 292 606 58
14629 292 664 33
14630 292 460 61
14631 292 913 69
14632 293 85 58
14633 293 902 48
14634 293 908 51
14635 293 23 75
14636 293 227 61
14637 293 290 4
14638 293 57 95
14639 293 459 17
14640 293 258 6
14641 293 521 26
14642 293 383 32
14643 293 652 5
14644 293 294 55
14645 293 495 70
14646 293 306 75
14647 293 631 28
14648 293 540 70
14649 293 861 69
14650 293 511 36
14651 293 280 97
14652 293 765 39
14653 293 741 62
14654 293 203 82
14655 293 28 99
14656 293 711 90
14657 293 737 15
14658 293 143 13
14659 293 160 57
14660 293 592 46
14661 293 573 79
14662 293 992 78
14663 293 559 8
14664 293 276 85
14665 293 334 80
14666 293 462 25
14667 293 583 36
14668 293 261 43
14669 293 817 5
14670 293 997 49
14671 293 778 29
14672 293 991 83
14673 293 326 10
14674 293 917 50
14675 293 174 4
14676 293 472 81
14677 293 684 13
14678 293 359 60
14679 293 63 13
14680 293 698 94
14681 293 772 11
14682 293 372 52
14683 293 106 74
14684 293 641 3
14685 294 886 97
14686 294 317 3
14687 294 634 88
14688 294 273 72
14689 294 479 32
14690 294 18 81
14691 294 103 97
14692 294 456 25
14693 294 712 60
14694 294 695 98
14695 294 589 63
14696 294 770 89
14697 294 722 68
14698 294 924 41
14699 294 987 40
14700 294 868 41
14701 294 316 10
14702 294 901 39
14703 294 192 58
14704 294 33 10
14705 294 275 87
14706 294 271 55
14707 294 573 27
14708 294 360 100
14709 294 311 97
14710 294 371 57
14711 294 543 45
14712 294 26 99
14713 294 581 41
14714 294 598 57
14715 294 117 100
14716 294 112 98
14717 294 520 2
14718 294 825 7
14719 294 996 79
14720 294 862 42
14721 294 617 45
14722 294 227 53
14723 294 877 36
14724 294 372 39
14725 294 499 1
14726 294 313 17
14727 294 245 11
14728 294 655 18
14729 294 111 38
14730 294 783 50
14731 294 218 58
14732 294 416 3
14733 294 173 92
14734 294 276 69
14735 294 0 90
14736 294 975 22
14737 294 274 83
14738 294 953 69
14739 294 983 8
14740 294 628 49
14741 294 687 24
14742 294 556 92
14743 294 624 73
14744 295 118 33
14745 295 395 37
14746 295 8 80
14747 295 793 24
14748 295 592 31
14749 295 754 5
14750 295 932 95
14751 295 202 48
14752 295 131 14
14753 295 714 95
14754 295 318 15
14755 295 22 61
14756 295 264 43
14757 295 783 84
14758 295 204 98
14759 295 122 55
14760 295 93 34
14761 295 968 32
14762 295 12 34
14763 295 775 12
14764 295 278 21
14765 295 495 80
14766 295 650 58
14767 295 155 75
14768 295 500 80
14769 295 826 96
14770 295 539 51
14771 295 687 51
14772 295 943 42
14773 295 103 92
14774 295 568 89
14775 295 544 89
14776 295 777 37
14777 295 182 52
14778 295 608 60
14779 295 972 10
14780 295 92 21
14781 295 87 34
14782 295 211 45
14783 296 674 66
14784 296 615 72
14785 296 13 77
14786 296 83 54
14787 296 611 61
14788 296 189 34
14789 296 186 64
14790 296 739 44
14791 296 681 33
14792 296 978 99
14793 296 865 22
14794 296 791 93
14795 296 567 94
14796 296 716 44
14797 296 752 85
14798 296 368 52
14799 296 5 100
14800 296 784 38
14801 296 190 22
14802 296 220 50
14803 296 345 80
14804 296 873 98
14805 296 854 40
14806 296 408 7
14807 296 290 94
14808 296 810 88
14809 296 134 35
14810 296 671 22
14811 296 961 86
14812 296 282 85
14813 296 646 29
14814 296 588 50
14815 296 494 39
14816 296 936 96
14817 296 521 41
14818 296 530 77
14819 296 982 57
14820 296 556 77
14821 296 660 48
14822 296 569 74
14823 296 430 3
14824 296 319 21
14825 296 192 30
14826 296 484 76
14827 296 28 51
14828 296 794 46
14829 296 391 57
14830 296 56 53
14831 296 902 88
14832 296 562 27
14833 296 196 88
14834 297 226 90
14835 297 101 1
14836 297 399 36
14837 297 691 95
14838 297 572 1
14839 297 270 81
14840 297 424 95
14841 297 289 17
14842 297 309 64
14843 297 94 57
14844 297 323 7
14845 297 120 14
14846 297 143 49
14847 297 883 19
14848 297 74 57
14849 297 925 40
14850 297 510 50
14851 297 269 21
14852 297 154 31
14853 297 39 19
14854 297 649 55
14855 297 591 51
14856 297 697 17
14857 297 264 6
14858 297 657 99
14859 297 664 26
14860 297 151 12
14861 297 681 95
14862 297 100 56
14863 297 396 77
14864 297 684 62
14865 297 221 99
14866 297 468 91
14867 297 352 4
14868 297 346 52
14869 297 713 57
14870 297 869 95
14871 297 917 41
14872 297 156 64
14873 297 575 55
14874 298 284 76
14875 298 920 20
14876 298 516 12
14877 298 507 48
14878 298 124 34
14879 298 694 12
14880 298 908 52
14881 298 718 65
14882 298 759 67
14883 298 866 51
14884 298 61 72
14885 298 74 29
14886 298 948 77
14887 298 506 75
14888 298 458 72
14889 298 897 9
14890 298 116 33
14891 298 703 90
14892 298 26 32
14893 298 149 58
14894 298 573 60
14895 298 88 60
14896 298 733 26
14897 298 197 99
14898 298 196 28
14899 298 423 48
14900 298 59 82
14901 298 968 94
14902 298 264 21
14903 298 204 15
14904 298 347 13
14905 298 313 13
14906 298 463 45
14907 298 667 85
14908 298 797 22
14909 298 1 91
14910 298 738 62
14911 298 900 1
14912 298 681 74
14913 298 73 87
14914 298 682 26
14915 298 735 58
14916 298 716 77
14917 298 172 19
14918 298 323 43
14919 298 531 1
14920 298 810 92
14921 298 620 88
14922 298 368 33
14923 299 690 31
14924 299 45 8
14925 299 155 81
14926 299 896 49
14927 299 678 18
14928 299 191 76
14929 299 292 35
14930 299 228 70
14931 299 701 33
14932 299 153 93
14933 299 597 2
14934 299 560 15
14935 299 995 58
14936 299 651 59
14937 299 302 31
14938 299 627 70
14939 299 797 75
14940 299 738 41
14941 299 541 94
14942 299 804 59
14943 299 61 66
14944 299 581 7
14945 299 902 97
14946 299 250 61
14947 299 672 30
14948 299 772 24
14949 299 455 23
14950 299 332 79
14951 299 851 96
14952 299 589 42
14953 299 389 53
14954 299 729 11
14955 299 711 67
14956 299 421 3
14957 299 444 84
14958 299 431 6
14959 299 92 12
14960 299 741 1
14961 299 260 37
14962 299 639 56
14963 299 535 52
14964 299 59 95
14965 299 43 40
14966 299 267 67
14967 299 501 96
14968 299 692 15
14969 299 17 40
14970 299 760 41
14971 299 835 86
14972 299 951 9
14973 299 635 25
14974 300 538 30
14975 300 656 57
14976 300 678 31
14977 300 749 99
14978 300 774 19
14979 300 81 35
14980 300 71 32
14981 300 289 14
14982 300 537 68
14983 300 507 72
14984 300 951 60
14985 300 572 1
14986 300 766 82
14987 300 360 53
14988 300 762 61
14989 300 282 43
14990 300 488 99
14991 300 549 89
14992 300 103 10
14993 300 639 74
14994 300 545 4
14995 300 787 71
14996 300 34 51
14997 300 473 98
14998 300 53 73
14999 300 265 67
15000 300 988 82
15001 300 648 45
15002 300 578 13
15003 300 679 52
15004 300 134 5
15005 300 453 27
15006 300 540 59
15007 300 293 32
15008 300 654 60
15009 300 501 94
15010 300 695 78
15011 300 373 60
15012 300 684 61
15013 300 296 87
15014 300 217 87
15015 300 607 78
15016 300 89 14
15017 300 936 20
15018 300 406 4
15019 300 831 70
15020 300 625 15
15021 300 527 11
15022 300 277 30
15023 300 129 56
15024 300 411 46
15025 300 121 73
15026 301 470 99
15027 301 293 77
15028 301 458 97
15029 301 761 52
15030 301 407 60
15031 301 500 14
15032 301 442 33
15033 301 21 5
15034 301 578 27
15035 301 845 9
15036 301 34 44
15037 301 701 26
15038 301 484 63
15039 301 590 20
15040 301 50 30
15041 301 679 34
15042 301 858 63
15043 301 749 66
15044 301 361 77
15045 301 29 45
15046 301 883 57
15047 301 849 21
15048 301 338 95
15049 301 951 45
15050 301 45 65
15051 301 101 62
15052 301 892 65
15053 301 179 4
15054 301 482 27
15055 301 688 24
15056 301 85 13
15057 301 65 40
15058 301 125 30
15059 301 895 9
15060 301 642 50
15061 301 984 60
15062 301 716 86
15063 301 936 79
15064 301 698 65
15065 301 104 18
15066 301 622 4
15067 301 562 58
15068 301 495 27
15069 302 382 85
15070 302 690 23
15071 302 304 59
15072 302 841 7
15073 302 96 74
15074 302 852 43
15075 302 74 17
15076 302 270 83
15077 302 754 9
15078 302 513 12
15079 302 702 7
15080 302 979 39
15081 302 580 31
15082 302 921 56
15083 302 955 26
15084 302 106 5
15085 302 670 17
15086 302 946 53
15087 302 138 81
15088 302 777 27
15089 302 975 38
15090 302 261 81
15091 302 59 73
15092 302 48 29
15093 302 666 48
15094 302 165 59
15095 302 343 100
15096 302 798 79
15097 302 385 81
15098 302 823 98
15099 302 838 20
15100 302 97 73
15101 302 708 38
15102 302 734 93
15103 302 30 59
15104 302 894 74
15105 302 528 39
15106 302 607 34
15107 302 826 89
15108 302 522 95
15109 302 391 83
15110 302 504 14
15111 302 87 80
15112 302 383 29
15113 302 83 88
15114 302 325 27
15115 302 327 32
15116 302 815 6
15117 302 67 9
15118 302 45 99
15119 302 732 5
15120 302 663 31
15121 302 665 72
15122 302 32 82
15123 302 216 32
15124 302 480 15
15125 302 344 10
15126 302 371 31
15127 302 561 4
15128 302 650 55
15129 303 531 12
15130 303 572 99
15131 303 230 1
15132 303 802 9
15133 303 269 20
15134 303 199 94
15135 303 819 76
15136 303 427 98
15137 303 488 9
15138 303 299 20
15139 303 592 70
15140 303 598 63
15141 303 240 15
15142 303 464 3
15143 303 907 20
15144 303 566 10
15145 303 571 55
15146 303 158 13
15147 303 740 81
15148 303 232 19
15149 303 773 46
15150 303 108 10
15151 303 732 52
15152 303 999 56
15153 303 407 1
15154 303 59 34
15155 303 760 35
15156 303 369 12
15157 303 283 28
15158 303 479 11
15159 303 811 57
15160 303 524 69
15161 303 830 56
15162 303 187 65
15163 303 859 2
15164 303 851 16
15165 303 352 37
15166 303 227 71
15167 303 877 78
15168 303 18 92
15169 303 680 5
15170 303 365 98
15171 303 975 23
15172 303 960 78
15173 303 60 16
15174 303 535 41
15175 303 642 46
15176 303 650 56
15177 303 456 74
15178 303 574 31
15179 303 843 48
15180 304 700 85
15181 304 933 92
15182 304 320 23
15183 304 611 70
15184 304 179 50
15185 304 876 20
15186 304 977 94
15187 304 71 61
15188 304 37 46
15189 304 270 66
15190 304 640 38
15191 304 443 98
15192 304 408 44
15193 304 69 13
15194 304 931 18
15195 304 146 87
15196 304 371 39
15197 304 135 83
15198 304 886 47
15199 304 795 46
15200 304 849 47
15201 304 626 17
15202 304 788 85
15203 304 908 21
15204 304 110 29
15205 304 851 40
15206 304 880 2
15207 304 108 24
15208 304 649 87
15209 304 531 38
15210 304 306 7
15211 304 995 94
15212 304 946 77
15213 304 745 16
15214 304 980 26
15215 304 167 26
15216 304 543 52
15217 304 213 12
15218 304 701 98
15219 304 605 45
15220 304 614 64
15221 304 613 72
15222 304 567 79
15223 304 134 66
15224 304 192 54
15225 305 486 36
15226 305 17 35
15227 305 139 9
15228 305 148 90
15229 305 705 49
15230 305 972 81
15231 305 725 94
15232 305 987 90
15233 305 783 51
15234 305 779 57
15235 305 365 77
15236 305 898 73
15237 305 398 30
15238 305 336 30
15239 305 201 97
15240 305 61 49
15241 305 121 17
15242 305 142 46
15243 305 377 70
15244 305 739 5
15245 305 913 9
15246 305 57 29
15247 305 236 98
15248 305 375 88
15249 305 118 17
15250 305 393 62
15251 305 218 68
15252 305 687 21
15253 305 964 89
15254 305 907 100
15255 305 210 42
15256 305 673 24
15257 305 747 47
15258 305 489 34
15259 305 691 62
15260 305 821 88
15261 305 662 78
15262 306 228 27
15263 306 736 97
15264 306 430 31
15265 306 123 47
15266 306 672 55
15267 306 583 13
15268 306 754 11
15269 306 7 23
15270 306 796 62
15271 306 362 82
15272 306 68 60
15273 306 970 54
15274 306 749 74
15275 306 542 75
15276 306 603 68
15277 306 688 89
15278 306 9 47
15279 306 370 19
15280 306 844 79
15281 306 460 27
15282 306 591 51
15283 306 920 41
15284 306 223 57
15285 306 523 91
15286 306 566 52
15287 306 982 66
15288 306 92 48
15289 306 451 96
15290 306 766 66
15291 306 682 33
15292 306 834 9
15293 306 166 13
15294 306 905 51
15295 306 544 58
15296 306 503 14
15297 306 761 64
15298 306 286 48
15299 306 247 19
15300 306 961 91
15301 306 734 98
15302 306 654 71
15303 306 839 85
15304 306 721 27
15305 306 637 75
15306 307 167 37
15307 307 614 79
15308 307 515 91
15309 307 400 42
15310 307 527 54
15311 307 830 63
15312 307 926 55
15313 307 2 72
15314 307 621 45
15315 307 383 65
15316 307 940 23
15317 307 956 25
15318 307 294 78
15319 307 779 71
15320 307 631 53
15321 307 137 36
15322 307 802 88
15323 307 392 46
15324 307 133 92
15325 307 671 39
15326 307 211 61
15327 307 65 65
15328 307 189 48
15329 307 206 43
15330 307 710 63
15331 307 866 45
15332 307 41 24
15333 307 491 33
15334 307 558 42
15335 307 27 76
15336 307 265 29
15337 307 753 79
15338 307 840 100
15339 307 919 82
15340 307 643 70
15341 307 701 9
15342 307 389 38
15343 307 449 99
15344 307 362 87
15345 307 542 15
15346 307 607 49
15347 307 810 60
15348 307 492 62
15349 307 17 36
15350 307 126 47
15351 307 151 5
15352 307 44 63
15353 307 159 37
15354 307 744 58
15355 308 634 44
15356 308 552 18
15357 308 325 16
15358 308 293 23
15359 308 610 20
15360 308 98 36
15361 308 735 68
15362 308 695 36
15363 308 83 26
15364 308 988 23
15365 308 168 96
15366 308 932 36
15367 308 446 71
15368 308 706 59
15369 308 734 71
15370 308 299 47
15371 308 978 38
15372 308 615 41
15373 308 167 12
15374 308 80 46
15375 308 681 44
15376 308 597 99
15377 308 872 37
15378 308 940 14
15379 308 349 64
15380 308 672 56
15381 308 413 35
15382 308 205 25
15383 308 482 47
15384 308 68 3
15385 308 432 4
15386 308 774 72
15387 308 355 73
15388 308 632 67
15389 308 337 41
15390 308 913 35
15391 308 180 75
15392 308 684 2
15393 308 253 81
15394 308 210 10
15395 308 7 7
15396 308 545 66
15397 308 297 74
15398 308 532 67
15399 308 102 79
15400 308 0 24
15401 308 444 40
15402 308 268 72
15403 308 564 15
15404 308 89 81
15405 308 651 68
15406 308 186 13
15407 308 222 95
15408 308 657 74
15409 309 641 27
15410 309 994 74
15411 309 709 29
15412 309 399 18
15413 309 209 45
15414 309 515 45
15415 309 876 15
15416 309 36 99
15417 309 956 36
15418 309 848 2
15419 309 178 12
15420 309 984 91
15421 309 752 42
15422 309 177 14
15423 309 247 5
15424 309 915 91
15425 309 72 43
15426 309 938 38
15427 309 767 73
15428 309 195 3
15429 309 6 65
15430 309 494 77
15431 309 160 15
15432 309 512 31
15433 309 103 9
15434 309 787 18
15435 309 666 88
15436 309 671 38
15437 309 430 98
15438 309 945 78
15439 309 796 61
15440 309 232 70
15441 309 871 71
15442 309 98 68
15443 309 983 75
15444 309 384 47
15445 309 550 79
15446 309 435 90
15447 309 932 42
15448 309 601 94
15449 309 655 20
15450 309 716 91
15451 309 314 72
15452 309 809 48
15453 309 271 78
15454 309 375 33
15455 309 746 89
15456 309 616 49
15457 309 829 14
15458 309 294 64
15459 309 822 50
15460 309 522 9
15461 309 155 87
15462 310 82 57
15463 310 799 75
15464 310 882 54
15465 310 25 86
15466 310 702 24
15467 310 704 25
15468 310 385 18
15469 310 297 67
15470 310 720 52
15471 310 706 34
15472 310 646 100
15473 310 874 100
15474 310 958 62
15475 310 400 75
15476 310 311 29
15477 310 399 81
15478 310 163 69
15479 310 287 86
15480 310 544 66
15481 310 10 60
15482 310 571 27
15483 310 390 65
15484 310 757 84
15485 310 0 2
15486 310 979 13
15487 310 339 100
15488 310 150 29
15489 310 367 45
15490 310 911 57
15491 310 945 8
15492 310 642 68
15493 310 566 16
15494 310 402 14
15495 310 249 79
15496 310 834 42
15497 310 968 73
15498 310 334 62
15499 310 94 97
15500 310 729 43
15501 310 479 28
15502 310 524 37
15503 310 608 53
15504 310 528 17
15505 310 838 85
15506 311 826 73
15507 311 947 36
15508 311 289 98
15509 311 725 58
15510 311 888 68
15511 311 164 50
15512 311 321 12
15513 311 925 75
15514 311 659 83
15515 311 293 89
15516 311 194 37
15517 311 604 57
15518 311 742 32
15519 311 114 55
15520 311 611 11
15521 311 303 32
15522 311 615 27
15523 311 731 98
15524 311 520 85
15525 311 865 83
15526 311 923 44
15527 311 143 37
15528 311 288 58
15529 311 830 68
15530 311 447 88
15531 311 768 12
15532 311 921 38
15533 311 335 34
15534 311 739 32
15535 311 645 72
15536 311 606 97
15537 311 973 77
15538 311 564 31
15539 311 939 24
15540 311 219 27
15541 311 99 17
15542 311 963 91
15543 311 640 32
15544 311 233 77
15545 311 331 50
15546 311 146 58
15547 311 116 52
15548 311 913 64
15549 311 818 95
15550 311 630 25
15551 311 647 57
15552 311 81 39
15553 311 860 83
15554 311 184 32
15555 311 284 85
15556 311 919 49
15557 311 290 74
15558 311 390 74
15559 311 567 9
15560 311 780 48
15561 311 697 84
15562 311 799 88
15563 311 346 3
15564 311 423 27
15565 311 363 100
15566 311 827 32
15567 311 126 24
15568 311 651 74
15569 311 545 38
15570 311 879 40
15571 311 790 88
15572 311 568 36
15573 311 750 86
15574 311 103 91
15575 311 291 89
15576 311 901 50
15577 311 578 50
15578 311 791 48
15579 311 650 72
15580 311 158 3
15581 311 718 29
15582 311 89 10
15583 311 400 14
15584 312 443 45
15585 312 545 27
15586 312 905 19
15587 312 845 10
15588 312 139 39
15589 312 269 64
15590 312 392 46
15591 312 38 100
15592 312 179 86
15593 312 145 15
15594 312 867 45
15595 312 813 37
15596 312 720 69
15597 312 610 93
15598 312 41 63
15599 312 943 45
15600 312 492 47
15601 312 937 83
15602 312 261 50
15603 312 106 37
15604 312 482 100
15605 312 579 52
15606 312 334 18
15607 312 660 61
15608 312 654 9
15609 312 741 61
15610 312 54 35
15611 312 688 44
15612 312 831 87
15613 312 202 95
15614 312 21 59
15615 312 376 59
15616 312 153 35
15617 312 28 83
15618 312 646 83
15619 312 856 41
15620 312 735 84
15621 312 70 1
15622 312 529 32
15623 312 928 16
15624 312 516 36
15625 312 81 36
15626 312 858 80
15627 312 565 13
15628 313 372 42
15629 313 481 32
15630 313 694 50
15631 313 271 77
15632 313 509 98
15633 313 496 47
15634 313 295 26
15635 313 721 29
15636 313 937 85
15637 313 638 39
15638 313 592 38
15639 313 666 37
15640 313 290 90
15641 313 13 31
15642 313 221 90
15643 313 957 23
15644 313 233 54
15645 313 567 74
15646 313 572 76
15647 313 767 64
15648 313 646 36
15649 313 739 78
15650 313 652 69
15651 313 713 23
15652 313 753 75
15653 313 510 28
15654 313 822 11
15655 313 525 12
15656 313 414 28
15657 313 54 99
15658 313 114 13
15659 313 833 84
15660 313 388 22
15661 313 620 92
15662 313 179 54
15663 313 810 3
15664 313 821 66
15665 313 500 36
15666 313 16 41
15667 313 907 32
15668 313 600 42
15669 313 364 18
15670 313 864 87
15671 313 513 40
15672 313 635 54
15673 313 277 89
15674 313 467 3
15675 313 617 60
15676 313 246 70
15677 314 924 70
15678 314 12 67
15679 314 762 28
15680 314 632 56
15681 314 119 50
15682 314 262 90
15683 314 311 77
15684 314 51 52
15685 314 843 54
15686 314 976 23
15687 314 955 11
15688 314 882 51
15689 314 49 44
15690 314 655 52
15691 314 530 73
15692 314 11 31
15693 314 38 70
15694 314 612 58
15695 314 480 59
15696 314 777 9
15697 314 708 22
15698 314 213 28
15699 314 513 87
15700 314 134 3
15701 314 982 50
15702 314 440 70
15703 314 912 17
15704 314 754 30
15705 314 70 75
15706 314 958 7
15707 314 607 38
15708 314 752 42
15709 314 585 67
15710 314 281 31
15711 314 770 66
15712 314 248 42
15713 314 169 54
15714 314 613 68
15715 314 130 12
15716 314 608 35
15717 314 689 88
15718 314 441 3
15719 314 128 97
15720 314 187 48
15721 314 531 19
15722 314 359 99
15723 314 988 39
15724 314 50 75
15725 314 831 49
15726 314 396 52
15727 314 201 7
15728 314 490 45
15729 314 990 88
15730 314 452 52
15731 314 516 10
15732 314 555 99
15733 314 901 37
15734 314 552 33
15735 314 495 76
15736 314 511 38
15737 314 558 71
15738 314 815 25
15739 314 562 15
15740 314 488 13
15741 314 463 85
15742 315 953 62
15743 315 716 84
15744 315 576 84
15745 315 497 1
15746 315 542 59
15747 315 156 32
15748 315 260 76
15749 315 742 82
15750 315 638 83
15751 315 801 52
15752 315 37 88
15753 315 660 17
15754 315 384 8
15755 315 676 73
15756 315 347 79
15757 315 261 48
15758 315 825 89
15759 315 89 63
15760 315 675 72
15761 315 767 41
15762 315 754 49
15763 315 361 74
15764 315 640 84
15765 315 942 29
15766 315 819 94
15767 315 169 56
15768 315 407 3
15769 315 646 70
15770 315 448 94
15771 315 804 38
15772 315 111 61
15773 315 319 65
15774 315 555 16
15775 315 613 79
15776 315 393 24
15777 315 595 38
15778 315 92 82
15779 315 563 2
15780 315 414 93
15781 315 807 81
15782 315 267 78
15783 315 442 43
15784 315 916 78
15785 315 136 96
15786 315 910 38
15787 315 598 88
15788 316 590 80
15789 316 258 26
15790 316 369 91
15791 316 591 41
15792 316 630 8
15793 316 697 68
15794 316 993 59
15795 316 6 92
15796 316 789 58
15797 316 117 64
15798 316 699 68
15799 316 671 80
15800 316 573 88
15801 316 636 99
15802 316 20 13
15803 316 179 68
15804 316 218 76
15805 316 747 40
15806 316 266 71
15807 316 8 87
15808 316 728 30
15809 316 241 93
15810 316 701 54
15811 316 11 26
15812 316 310 13
15813 316 984 10
15814 316 581 91
15815 316 861 61
15816 316 740 29
15817 316 711 10
15818 316 487 73
15819 316 541 47
15820 316 262 52
15821 316 515 55
15822 316 589 44
15823 316 769 67
15824 316 234 25
15825 316 67 28
15826 316 950 100
15827 316 796 53
15828 316 618 16
15829 316 49 2
15830 316 459 77
15831 316 137 81
15832 316 210 68
15833 316 659 75
15834 316 145 94
15835 316 977 97
15836 316 892 91
15837 316 430 10
15838 316 943 32
15839 316 809 32
15840 316 513 41
15841 317 9 54
15842 317 872 13
15843 317 772 80
15844 317 343 58
15845 317 904 55
15846 317 549 45
15847 317 53 72
15848 317 560 78
15849 317 886 82
15850 317 833 87
15851 317 522 13
15852 317 320 69
15853 317 659 73
15854 317 580 73
15855 317 865 25
15856 317 384 82
15857 317 21 9
15858 317 238 18
15859 317 403 17
15860 317 874 7
15861 317 430 63
15862 317 828 88
15863 317 595 58
15864 317 391 42
15865 317 65 56
15866 317 467 61
15867 317 798 62
15868 317 292 20
15869 317 708 16
15870 317 113 29
15871 317 670 36
15872 317 282 21
15873 317 592 46
15874 317 67 66
15875 317 540 23
15876 317 288 66
15877 317 815 57
15878 317 142 30
15879 317 66 71
15880 317 962 2
15881 317 857 60
15882 317 120 4
15883 317 842 60
15884 317 433 88
15885 317 253 91
15886 317 945 17
15887 317 230 98
15888 317 279 19
15889 317 413 12
15890 317 271 92
15891 317 680 43
15892 317 52 33
15893 318 729 66
15894 318 564 5
15895 318 812 100
15896 318 563 50
15897 318 259 54
15898 318 428 57
15899 318 348 71
15900 318 618 97
15901 318 581 57
15902 318 390 40
15903 318 939 84
15904 318 810 48
15905 318 240 12
15906 318 945 36
15907 318 789 1
15908 318 692 9
15909 318 876 72
15910 318 776 73
15911 318 59 65
15912 318 182 81
15913 318 322 90
15914 318 663 48
15915 318 342 25
15916 318 906 41
15917 318 328 100
15918 318 451 32
15919 318 309 28
15920 318 686 74
15921 318 937 39
15922 318 405 54
15923 318 61 37
15924 318 881 58
15925 318 932 98
15926 318 894 83
15927 318 188 62
15928 318 381 5
15929 318 705 4
15930 318 973 43
15931 318 889 34
15932 318 91 100
15933 318 950 12
15934 318 897 66
15935 318 719 43
15936 318 795 7
15937 318 762 8
15938 318 325 50
15939 318 156 59
15940 318 522 45
15941 318 530 51
15942 318 536 89
15943 318 840 93
15944 318 964 61
15945 318 490 23
15946 318 60 30
15947 318 106 53
15948 318 289 2
15949 318 653 33
15950 318 211 66
15951 318 210 10
15952 319 805 60
15953 319 342 53
15954 319 424 42
15955 319 789 65
15956 319 16 4
15957 319 337 41
15958 319 193 13
15959 319 502 70
15960 319 606 98
15961 319 534 76
15962 319 197 66
15963 319 916 7
15964 319 174 46
15965 319 305 35
15966 319 395 97
15967 319 810 45
15968 319 949 61
15969 319 941 38
15970 319 797 55
15971 319 612 5
15972 319 557 61
15973 319 521 89
15974 319 985 70
15975 319 652 95
15976 319 804 40
15977 319 724 98
15978 319 782 88
15979 319 77 70
15980 319 334 78
15981 319 451 100
15982 319 70 73
15983 319 755 77
15984 319 339 62
15985 319 487 94
15986 319 401 94
15987 319 623 71
15988 319 830 94
15989 319 561 13
15990 319 447 3
15991 319 785 35
15992 319 779 22
15993 319 621 12
15994 319 788 18
15995 319 167 57
15996 319 380 4
15997 319 749 76
15998 319 314 43
15999 319 361 92
16000 320 347 16
16001 320 594 74
16002 320 901 98
16003 320 116 43
16004 320 346 31
16005 320 505 2
16006 320 169 98
16007 320 239 77
16008 320 327 28
16009 320 286 65
16010 320 150 91
16011 320 14 13
16012 320 739 49
16013 320 754 70
16014 320 502 51
16015 320 690 43
16016 320 212 6
16017 320 487 50
16018 320 386 75
16019 320 363 42
16020 320 7 100
16021 320 74 25
16022 320 335 71
16023 320 281 15
16024 320 159 94
16025 320 541 32
16026 320 900 41
16027 320 776 100
16028 320 271 69
16029 320 290 15
16030 320 951 43
16031 320 308 9
16032 320 829 27
16033 320 992 11
16034 320 104 47
16035 320 880 11
16036 320 401 42
16037 320 504 91
16038 320 90 99
16039 320 899 80
16040 320 20 26
16041 321 256 57
16042 321 40 80
16043 321 144 94
16044 321 9 19
16045 321 114 39
16046 321 531 58
16047 321 894 74
16048 321 620 64
16049 321 888 36
16050 321 111 5
16051 321 378 89
16052 321 655 41
16053 321 988 90
16054 321 835 33
16055 321 476 25
16056 321 983 34
16057 321 495 16
16058 321 906 69
16059 321 350 78
16060 321 614 27
16061 321 119 46
16062 321 246 65
16063 321 779 10
16064 321 479 36
16065 321 11 16
16066 321 387 47
16067 321 571 57
16068 321 407 54
16069 321 59 4
16070 321 131 13
16071 321 3 58
16072 321 836 29
16073 321 384 48
16074 321 355 20
16075 321 452 29
16076 321 785 49
16077 321 537 35
16078 321 872 72
16079 321 686 25
16080 321 137 62
16081 321 202 85
16082 321 178 79
16083 321 799 85
16084 321 889 15
16085 321 515 57
16086 321 485 80
16087 321 503 67
16088 321 937 67
16089 321 784 57
16090 322 2 19
16091 322 496 58
16092 322 535 73
16093 322 596 92
16094 322 843 23
16095 322 226 70
16096 322 80 94
16097 322 404 98
16098 322 59 65
16099 322 115 4
16100 322 557 100
16101 322 391 34
16102 322 189 68
16103 322 949 14
16104 322 44 19
16105 322 493 33
16106 322 265 95
16107 322 462 45
16108 322 875 97
16109 322 583 63
16110 322 387 58
16111 322 984 76
16112 322 920 38
16113 322 782 84
16114 322 950 93
16115 322 515 80
16116 322 598 3
16117 322 701 32
16118 322 466 83
16119 322 492 64
16120 322 728 17
16121 322 373 64
16122 322 675 46
16123 322 962 72
16124 322 185 80
16125 322 336 93
16126 322 94 46
16127 322 642 50
16128 322 340 12
16129 322 330 26
16130 322 371 31
16131 322 301 14
16132 322 829 100
16133 322 140 30
16134 322 209 100
16135 322 406 35
16136 323 230 61
16137 323 393 23
16138 323 415 56
16139 323 767 69
16140 323 371 54
16141 323 658 74
16142 323 876 63
16143 323 180 12
16144 323 36 85
16145 323 458 22
16146 323 594 84
16147 323 40 39
16148 323 487 24
16149 323 197 61
16150 323 495 51
16151 323 969 59
16152 323 250 31
16153 323 814 66
16154 323 431 69
16155 323 889 33
16156 323 848 3
16157 323 859 47
16158 323 572 95
16159 323 324 17
16160 323 813 57
16161 323 815 44
16162 323 107 29
16163 323 602 12
16164 323 801 61
16165 323 932 93
16166 323 931 65
16167 323 614 47
16168 323 142 11
16169 323 363 97
16170 323 841 77
16171 323 771 38
16172 323 701 42
16173 323 626 33
16174 323 823 7
16175 323 818 41
16176 323 29 15
16177 323 922 80
16178 323 548 27
16179 323 934 20
16180 323 85 36
16181 323 287 29
16182 323 702 86
16183 323 791 19
16184 323 828 36
16185 324 937 46
16186 324 301 22
16187 324 807 53
16188 324 337 6
16189 324 852 35
16190 324 494 47
16191 324 288 14
16192 324 74 20
16193 324 307 45
16194 324 221 94
16195 324 960 88
16196 324 84 29
16197 324 680 96
16198 324 760 78
16199 324 268 43
16200 324 796 47
16201 324 226 37
16202 324 992 41
16203 324 717 78
16204 324 138 30
16205 324 943 25
16206 324 135 76
16207 324 233 19
16208 324 532 18
16209 324 287 89
16210 324 4 75
16211 324 249 85
16212 324 7 43
16213 324 653 14
16214 324 180 64
16215 324 535 88
16216 324 895 86
16217 324 314 26
16218 324 514 22
16219 324 18 16
16220 324 769 88
16221 324 267 73
16222 324 409 21
16223 324 498 71
16224 324 645 13
16225 325 809 15
16226 325 265 59
16227 325 811 30
16228 325 587 92
16229 325 175 69
16230 325 940 60
16231 325 464 64
16232 325 102 8
16233 325 126 5
16234 325 231 9
16235 325 552 55
16236 325 887 39
16237 325 354 97
16238 325 840 9
16239 325 550 14
16240 325 527 78
16241 325 797 50
16242 325 486 92
16243 325 668 52
16244 325 96 59
16245 325 367 27
16246 325 271 17
16247 325 220 26
16248 325 742 61
16249 325 964 64
16250 325 746 48
16251 325 524 9
16252 325 192 56
16253 325 625 60
16254 325 345 69
16255 325 814 87
16256 325 430 39
16257 325 423 80
16258 325 472 36
16259 325 463 91
16260 325 955 9
16261 325 72 37
16262 325 987 62
16263 325 904 31
16264 325 714 99
16265 325 928 98
16266 325 344 95
16267 325 836 68
16268 325 514 51
16269 325 830 75
16270 325 386 18
16271 325 67 41
16272 325 346 14
16273 325 788 3
16274 325 643 27
16275 325 149 99
16276 325 413 96
16277 325 818 10
16278 325 703 10
16279 325 73 47
16280 325 306 27
16281 325 923 26
16282 325 365 16
16283 325 395 1
16284 325 405 94
16285 325 610 79
16286 326 674 29
16287 326 588 76
16288 326 63 100
16289 326 943 41
16290 326 856 31
16291 326 792 51
16292 326 575 20
16293 326 678 52
16294 326 906 89
16295 326 47 79
16296 326 185 97
16297 326 242 37
16298 326 580 34
16299 326 870 86
16300 326 79 17
16301 326 42 96
16302 326 50 6
16303 326 826 16
16304 326 239 89
16305 326 638 79
16306 326 485 60
16307 326 114 41
16308 326 321 49
16309 326 849 26
16310 326 342 6
16311 326 736 91
16312 326 914 70
16313 326 80 45
16314 326 477 38
16315 326 676 60
16316 326 258 25
16317 326 333 71
16318 326 337 55
16319 326 136 20
16320 326 72 84
16321 326 260 59
16322 326 700 81
16323 326 45 64
16324 326 312 100
16325 326 709 89
16326 326 107 44
16327 326 33 49
16328 326 966 88
16329 326 878 68
16330 326 596 78
16331 326 157 42
16332 326 772 83
16333 326 652 18
16334 326 807 98
16335 326 592 74
16336 326 422 28
16337 327 53 63
16338 327 418 91
16339 327 75 60
16340 327 673 47
16341 327 567 39
16342 327 386 7
16343 327 432 62
16344 327 417 57
16345 327 39 31
16346 327 395 28
16347 327 242 64
16348 327 313 37
16349 327 882 32
16350 327 613 99
16351 327 98 86
16352 327 319 60
16353 327 649 11
16354 327 759 19
16355 327 376 21
16356 327 398 37
16357 327 180 96
16358 327 834 76
16359 327 388 89
16360 327 128 22
16361 327 923 84
16362 327 330 65
16363 327 144 60
16364 327 950 6
16365 327 489 36
16366 327 394 34
16367 327 255 58
16368 327 844 19
16369 327 487 89
16370 327 850 60
16371 327 566 13
16372 327 824 52
16373 327 433 74
16374 327 965 45
16375 328 514 52
16376 328 896 89
16377 328 817 43
16378 328 335 65
16379 328 662 70
16380 328 2 53
16381 328 156 42
16382 328 313 99
16383 328 642 28
16384 328 406 44
16385 328 837 75
16386 328 859 18
16387 328 979 45
16388 328 437 59
16389 328 340 61
16390 328 581 88
16391 328 498 22
16392 328 309 26
16393 328 998 2
16394 328 988 32
16395 328 145 91
16396 328 44 16
16397 328 863 50
16398 328 749 15
16399 328 974 12
16400 328 926 69
16401 328 866 97
16402 328 300 40
16403 328 755 29
16404 328 67 28
16405 328 297 31
16406 328 373 22
16407 328 337 15
16408 328 671 58
16409 328 25 43
16410 328 78 3
16411 328 719 10
16412 328 378 65
16413 328 512 35
16414 328 797 99
16415 328 181 37
16416 328 137 7
16417 328 74 57
16418 328 685 46
16419 328 218 4
16420 328 786 93
16421 328 484 40
16422 328 651 54
16423 328 895 57
16424 328 259 54
16425 328 519 37
16426 328 421 89
16427 328 177 93
16428 328 122 80
16429 328 612 69
16430 329 44 35
16431 329 245 98
16432 329 770 66
16433 329 848 48
16434 329 852 14
16435 329 144 11
16436 329 392 63
16437 329 978 2
16438 329 704 11
16439 329 322 36
16440 329 20 88
16441 329 673 65
16442 329 830 24
16443 329 470 52
16444 329 17 23
16445 329 590 4
16446 329 849 24
16447 329 829 39
16448 329 940 82
16449 329 838 17
16450 329 129 66
16451 329 693 14
16452 329 278 46
16453 329 415 8
16454 329 330 100
16455 329 808 37
16456 329 577 40
16457 329 334 63
16458 329 21 31
16459 329 452 30
16460 329 189 1
16461 329 363 84
16462 329 124 72
16463 329 122 95
16464 329 132 7
16465 329 887 39
16466 329 651 93
16467 329 241 8
16468 329 835 25
16469 329 269 71
16470 329 382 44
16471 329 885 28
16472 329 445 48
16473 329 474 17
16474 329 610 87
16475 329 277 98
16476 329 690 10
16477 329 666 81
16478 329 225 94
16479 329 936 23
16480 329 681 69
16481 329 606 90
16482 329 812 92
16483 330 107 61
16484 330 895 44
16485 330 630 15
16486 330 418 59
16487 330 528 44
16488 330 441 88
16489 330 590 21
16490 330 325 44
16491 330 439 81
16492 330 220 16
16493 330 431 46
16494 330 96 63
16495 330 74 87
16496 330 392 56
16497 330 677 8
16498 330 836 58
16499 330 930 66
16500 330 902 1
16501 330 918 92
16502 330 410 87
16503 330 342 80
16504 330 223 40
16505 330 171 12
16506 330 721 14
16507 330 515 86
16508 330 561 70
16509 330 601 82
16510 330 546 4
16511 330 688 53
16512 330 24 30
16513 330 1 45
16514 330 143 26
16515 330 868 65
16516 330 578 44
16517 330 139 19
16518 330 732 59
16519 330 847 84
16520 330 251 96
16521 330 980 21
16522 330 99 64
16523 330 755 96
16524 330 750 28
16525 330 871 95
16526 330 743 4
16527 330 950 60
16528 330 720 38
16529 331 234 96
16530 331 563 30
16531 331 549 89
16532 331 958 7
16533 331 847 98
16534 331 928 42
16535 331 978 30
16536 331 720 29
16537 331 502 43
16538 331 239 83
16539 331 781 90
16540 331 463 21
16541 331 180 55
16542 331 73 31
16543 331 409 10
16544 331 919 83
16545 331 19 72
16546 331 521 40
16547 331 500 55
16548 331 177 75
16549 331 754 12
16550 331 593 64
16551 331 498 92
16552 331 855 93
16553 331 361 95
16554 331 262 18
16555 331 154 65
16556 331 107 12
16557 331 58 94
16558 331 362 60
16559 331 68 87
16560 331 320 73
16561 331 159 78
16562 331 837 4
16563 331 1 93
16564 331 962 85
16565 331 789 84
16566 331 757 73
16567 331 872 82
16568 331 728 81
16569 331 711 42
16570 331 990 18
16571 332 58 32
16572 332 95 100
16573 332 665 94
16574 332 652 30
16575 332 152 59
16576 332 401 74
16577 332 5 65
16578 332 269 93
16579 332 662 97
16580 332 185 43
16581 332 951 50
16582 332 595 48
16583 332 75 24
16584 332 168 13
16585 332 641 15
16586 332 812 70
16587 332 444 59
16588 332 919 70
16589 332 841 88
16590 332 966 2
16591 332 441 33
16592 332 568 22
16593 332 63 68
16594 332 685 38
16595 332 32 75
16596 332 961 95
16597 332 468 32
16598 332 497 28
16599 332 995 77
16600 332 150 30
16601 332 851 29
16602 332 367 80
16603 332 976 86
16604 332 395 23
16605 332 435 85
16606 332 358 42
16607 332 17 98
16608 332 109 57
16609 332 23 37
16610 332 546 79
16611 332 731 45
16612 333 467 73
16613 333 138 79
16614 333 668 41
16615 333 502 23
16616 333 89 17
16617 333 710 77
16618 333 691 32
16619 333 189 91
16620 333 625 87
16621 333 146 89
16622 333 304 78
16623 333 43 45
16624 333 521 90
16625 333 810 68
16626 333 439 45
16627 333 893 99
16628 333 241 81
16629 333 226 25
16630 333 76 93
16631 333 470 1
16632 333 596 7
16633 333 925 37
16634 333 926 47
16635 333 574 52
16636 333 212 43
16637 333 517 16
16638 333 283 76
16639 333 605 49
16640 333 931 14
16641 333 44 100
16642 333 865 47
16643 333 330 86
16644 333 433 61
16645 333 224 84
16646 333 540 92
16647 333 820 38
16648 333 962 99
16649 333 513 9
16650 333 349 85
16651 333 545 29
16652 333 473 81
16653 333 648 63
16654 333 194 23
16655 333 840 16
16656 333 646 57
16657 333 421 42
16658 333 972 78
16659 333 252 49
16660 333 542 43
16661 333 80 37
16662 333 271 69
16663 333 362 96
16664 333 15 8
16665 333 171 81
16666 333 800 85
16667 333 432 13
16668 333 112 26
16669 333 600 47
16670 334 598 36
16671 334 385 52
16672 334 69 76
16673 334 73 6
16674 334 381 16
16675 334 95 54
16676 334 59 23
16677 334 825 61
16678 334 44 35
16679 334 743 85
16680 334 769 49
16681 334 232 17
16682 334 43 52
16683 334 860 12
16684 334 25 60
16685 334 865 35
16686 334 857 56
16687 334 246 39
16688 334 844 7
16689 334 178 56
16690 334 213 38
16691 334 307 18
16692 334 151 62
16693 334 946 22
16694 334 523 23
16695 334 464 75
16696 334 430 39
16697 334 375 11
16698 334 772 52
16699 334 794 66
16700 334 931 71
16701 334 422 23
16702 334 563 13
16703 334 952 79
16704 334 34 15
16705 334 822 87
16706 334 555 7
16707 334 242 3
16708 334 665 45
16709 334 965 70
16710 334 599 8
16711 334 953 29
16712 334 342 4
16713 334 72 59
16714 334 674 88
16715 334 255 47
16716 335 563 1
16717 335 615 84
16718 335 608 86
16719 335 817 11
16720 335 230 25
16721 335 402 100
16722 335 350 10
16723 335 470 17
16724 335 991 30
16725 335 378 40
16726 335 594 37
16727 335 956 22
16728 335 967 59
16729 335 767 19
16730 335 63 48
16731 335 451 84
16732 335 827 1
16733 335 906 66
16734 335 835 43
16735 335 868 67
16736 335 963 24
16737 335 336 12
16738 335 174 52
16739 335 322 88
16740 335 802 7
16741 335 845 64
16742 335 58 1
16743 335 510 50
16744 335 698 59
16745 335 206 37
16746 335 323 72
16747 335 840 20
16748 335 764 86
16749 335 576 99
16750 335 531 10
16751 335 996 77
16752 335 690 70
16753 335 800 21
16754 335 731 14
16755 335 303 88
16756 335 410 26
16757 335 496 10
16758 335 656 74
16759 335 847 49
16760 335 950 55
16761 335 669 100
16762 335 720 8
16763 335 897 96
16764 335 407 86
16765 335 121 39
16766 335 243 74
16767 335 629 27
16768 335 554 76
16769 336 120 22
16770 336 75 30
16771 336 539 10
16772 336 717 42
16773 336 481 27
16774 336 670 38
16775 336 382 98
16776 336 49 8
16777 336 526 75
16778 336 292 86
16779 336 914 69
16780 336 683 16
16781 336 707 6
16782 336 891 96
16783 336 571 76
16784 336 398 67
16785 336 728 53
16786 336 844 40
16787 336 194 9
16788 336 503 42
16789 336 446 48
16790 336 719 84
16791 336 624 17
16792 336 69 97
16793 336 508 91
16794 336 638 80
16795 336 807 81
16796 336 730 79
16797 336 44 61
16798 336 654 19
16799 336 369 35
16800 336 321 65
16801 336 276 15
16802 336 574 55
16803 336 394 7
16804 336 340 29
16805 336 465 23
16806 336 754 97
16807 336 447 7
16808 336 431 41
16809 336 399 99
16810 336 433 97
16811 336 455 58
16812 336 269 79
16813 336 197 36
16814 336 808 41
16815 336 877 69
16816 336 552 49
16817 336 184 88
16818 336 642 60
16819 337 832 41
16820 337 881 69
16821 337 442 79
16822 337 530 9
16823 337 915 90
16824 337 923 25
16825 337 27 55
16826 337 909 1
16827 337 101 16
16828 337 332 96
16829 337 618 40
16830 337 166 76
16831 337 239 84
16832 337 632 64
16833 337 924 63
16834 337 859 12
16835 337 459 32
16836 337 129 72
16837 337 727 47
16838 337 588 48
16839 337 219 64
16840 337 39 27
16841 337 930 43
16842 337 617 99
16843 337 697 34
16844 337 124 94
16845 337 140 65
16846 337 912 4
16847 337 655 22
16848 337 153 28
16849 337 866 53
16850 337 674 65
16851 337 891 76
16852 337 668 20
16853 337 149 69
16854 337 450 27
16855 337 0 24
16856 337 30 36
16857 337 461 92
16858 337 576 76
16859 337 996 39
16860 337 190 38
16861 337 627 27
16862 337 584 57
16863 337 700 7
16864 337 463 27
16865 337 438 17
16866 337 226 63
16867 337 286 74
16868 337 437 76
16869 337 669 11
16870 337 516 79
16871 337 176 44
16872 337 698 74
16873 337 520 83
16874 337 126 13
16875 337 846 48
16876 338 257 7
16877 338 919 76
16878 338 658 13
16879 338 97 71
16880 338 205 82
16881 338 318 27
16882 338 621 57
16883 338 773 57
16884 338 644 11
16885 338 973 45
16886 338 344 5
16887 338 934 44
16888 338 699 93
16889 338 569 35
16890 338 745 73
16891 338 194 76
16892 338 19 63
16893 338 98 83
16894 338 321 77
16895 338 31 46
16896 338 239 18
16897 338 572 83
16898 338 634 73
16899 338 123 21
16900 338 392 53
16901 338 718 40
16902 338 329 59
16903 338 709 1
16904 338 847 26
16905 338 429 52
16906 338 306 21
16907 338 694 52
16908 338 178 87
16909 338 364 91
16910 338 935 59
16911 338 464 30
16912 338 172 15
16913 338 537 53
16914 338 499 50
16915 338 653 52
16916 338 832 56
16917 338 784 85
16918 338 781 12
16919 338 528 17
16920 338 390 43
16921 338 235 71
16922 338 662 22
16923 338 649 21
16924 338 862 69
16925 338 888 7
16926 338 983 87
16927 338 91 22
16928 338 632 53
16929 339 599 33
16930 339 286 21
16931 339 480 54
16932 339 266 79
16933 339 112 42
16934 339 490 98
16935 339 310 79
16936 339 999 32
16937 339 414 93
16938 339 972 16
16939 339 307 4
16940 339 690 28
16941 339 767 52
16942 339 294 21
16943 339 132 68
16944 339 816 9
16945 339 727 32
16946 339 562 65
16947 339 337 30
16948 339 664 1
16949 339 203 22
16950 339 693 51
16951 339 179 22
16952 339 23 63
16953 339 624 50
16954 339 447 22
16955 339 452 37
16956 339 357 21
16957 339 854 54
16958 339 954 56
16959 339 472 54
16960 339 83 36
16961 339 327 25
16962 339 545 63
16963 339 387 16
16964 339 512 18
16965 339 477 100
16966 339 610 81
16967 339 838 40
16968 339 762 97
16969 339 779 39
16970 339 2 74
16971 339 470 19
16972 339 743 90
16973 339 141 44
16974 339 464 20
16975 339 204 27
16976 339 824 1
16977 339 788 28
16978 339 823 71
16979 339 124 15
16980 339 608 77
16981 339 583 27
16982 339 45 38
16983 339 649 32
16984 339 377 28
16985 339 308 71
16986 339 570 97
16987 339 832 22
16988 340 53 42
16989 340 269 94
16990 340 966 28
16991 340 434 68
16992 340 803 52
16993 340 480 18
16994 340 962 48
16995 340 61 38
16996 340 213 25
16997 340 450 4
16998 340 265 56
16999 340 724 53
17000 340 510 7
17001 340 167 20
17002 340 908 10
17003 340 820 76
17004 340 723 79
17005 340 989 97
17006 340 447 57
17007 340 540 17
17008 340 71 27
17009 340 791 42
17010 340 407 94
17011 340 128 49
17012 340 207 100
17013 340 868 47
17014 340 634 11
17015 340 516 34
17016 340 145 74
17017 340 999 25
17018 340 329 7
17019 340 975 92
17020 340 653 46
17021 340 796 35
17022 340 924 84
17023 340 1 92
17024 340 772 90
17025 340 537 15
17026 340 515 60
17027 340 2 37
17028 340 995 78
17029 340 730 86
17030 340 291 55
17031 340 144 99
17032 340 569 68
17033 340 713 41
17034 340 159 14
17035 340 68 91
17036 340 55 10
17037 340 477 66
17038 340 806 54
17039 340 717 23
17040 340 5 20
17041 340 584 16
17042 340 583 13
17043 340 736 64
17044 340 744 69
17045 340 943 70
17046 340 158 57
17047 340 414 75
17048 340 364 9
17049 341 57 30
17050 341 388 73
17051 341 691 14
17052 341 464 13
17053 341 922 40
17054 341 488 62
17055 341 34 70
17056 341 232 12
17057 341 52 82
17058 341 719 46
17059 341 864 11
17060 341 282 75
17061 341 153 56
17062 341 952 96
17063 341 360 30
17064 341 772 32
17065 341 328 72
17066 341 548 26
17067 341 916 75
17068 341 939 30
17069 341 679 5
17070 341 289 18
17071 341 562 39
17072 341 758 2
17073 341 377 71
17074 341 268 32
17075 341 251 50
17076 341 899 72
17077 341 8 47
17078 341 785 8
17079 341 151 45
17080 341 200 18
17081 341 856 39
17082 341 79 13
17083 341 732 11
17084 341 627 14
17085 341 949 22
17086 341 589 6
17087 341 14 60
17088 341 198 29
17089 341 713 7
17090 341 143 90
17091 341 450 82
17092 341 638 52
17093 341 380 34
17094 341 395 36
17095 341 528 60
17096 341 855 86
17097 341 167 84
17098 341 977 79
17099 342 804 36
17100 342 733 1
17101 342 264 47
17102 342 68 73
17103 342 794 77
17104 342 136 75
17105 342 316 59
17106 342 949 83
17107 342 307 68
17108 342 655 89
17109 342 588 96
17110 342 630 56
17111 342 874 94
17112 342 799 77
17113 342 559 29
17114 342 13 90
17115 342 243 24
17116 342 227 63
17117 342 564 89
17118 342 178 16
17119 342 154 45
17120 342 217 69
17121 342 9 30
17122 342 134 64
17123 342 824 74
17124 342 905 13
17125 342 820 21
17126 342 921 16
17127 342 470 29
17128 342 720 52
17129 342 496 94
17130 342 801 70
17131 342 975 59
17132 342 558 26
17133 342 219 93
17134 343 728 62
17135 343 663 44
17136 343 745 24
17137 343 325 92
17138 343 313 60
17139 343 701 82
17140 343 941 15
17141 343 567 58
17142 343 656 51
17143 343 775 84
17144 343 409 28
17145 343 505 71
17146 343 633 8
17147 343 542 39
17148 343 226 18
17149 343 717 33
17150 343 696 36
17151 343 80 42
17152 343 824 89
17153 343 227 15
17154 343 589 53
17155 343 713 16
17156 343 306 93
17157 343 292 47
17158 343 412 96
17159 343 803 22
17160 343 979 88
17161 343 746 87
17162 343 763 36
17163 343 516 20
17164 343 892 43
17165 343 573 18
17166 343 835 48
17167 343 379 76
17168 343 436 81
17169 343 684 95
17170 343 413 71
17171 343 983 67
17172 343 11 58
17173 343 221 8
17174 343 164 49
17175 343 856 44
17176 343 935 28
17177 343 538 17
17178 343 642 40
17179 343 39 4
17180 343 280 19
17181 343 604 76
17182 343 888 25
17183 343 997 13
17184 343 792 40
17185 343 760 39
17186 343 113 9
17187 343 906 15
17188 343 954 35
17189 343 478 12
17190 344 697 76
17191 344 881 12
17192 344 504 88
17193 344 387 78
17194 344 857 55
17195 344 801 28
17196 344 560 9
17197 344 981 37
17198 344 535 99
17199 344 965 30
17200 344 797 52
17201 344 439 92
17202 344 492 96
17203 344 292 44
17204 344 615 63
17205 344 88 49
17206 344 277 59
17207 344 687 55
17208 344 650 94
17209 344 508 63
17210 344 330 95
17211 344 711 86
17212 344 272 78
17213 344 267 14
17214 344 25 71
17215 344 510 7
17216 344 658 26
17217 344 591 69
17218 344 444 17
17219 344 356 41
17220 344 460 93
17221 344 515 100
17222 344 450 52
17223 344 955 70
17224 344 904 37
17225 344 404 24
17226 344 64 36
17227 344 748 57
17228 344 903 98
17229 344 877 74
17230 344 537 57
17231 344 968 40
17232 344 507 86
17233 344 305 56
17234 344 110 25
17235 344 254 43
17236 344 28 40
17237 344 434 10
17238 344 832 99
17239 344 802 42
17240 344 625 74
17241 344 661 17
17242 344 910 79
17243 344 830 86
17244 344 707 8
17245 344 279 44
17246 344 977 57
17247 345 131 17
17248 345 855 54
17249 345 945 27
17250 345 156 97
17251 345 951 58
17252 345 651 11
17253 345 159 10
17254 345 402 52
17255 345 853 71
17256 345 712 80
17257 345 226 75
17258 345 361 23
17259 345 270 9
17260 345 176 70
17261 345 638 85
17262 345 180 10
17263 345 305 41
17264 345 469 2
17265 345 259 35
17266 345 789 14
17267 345 65 45
17268 345 977 85
17269 345 444 61
17270 345 741 12
17271 345 57 71
17272 345 439 61
17273 345 6 79
17274 345 185 41
17275 345 359 68
17276 345 55 16
17277 345 390 49
17278 345 955 41
17279 345 671 79
17280 345 590 30
17281 345 764 93
17282 345 625 55
17283 345 283 95
17284 345 258 7
17285 345 972 2
17286 345 107 17
17287 345 511 3
17288 345 248 64
17289 345 656 12
17290 345 315 63
17291 345 707 84
17292 345 425 82
17293 345 385 16
17294 345 781 30
17295 345 327 22
17296 345 50 2
17297 345 975 58
17298 345 71 40
17299 345 424 19
17300 345 337 55
17301 345 496 47
17302 346 48 49
17303 346 489 100
17304 346 953 69
17305 346 733 32
17306 346 849 63
17307 346 131 88
17308 346 567 59
17309 346 3 31
17310 346 438 86
17311 346 266 53
17312 346 576 37
17313 346 242 22
17314 346 44 80
17315 346 588 80
17316 346 627 16
17317 346 819 50
17318 346 301 51
17319 346 527 90
17320 346 920 3
17321 346 766 48
17322 346 947 98
17323 346 332 50
17324 346 702 66
17325 346 199 12
17326 346 286 75
17327 346 241 95
17328 346 245 68
17329 346 625 66
17330 346 412 18
17331 346 520 68
17332 346 777 94
17333 346 229 48
17334 346 868 86
17335 346 136 49
17336 346 103 34
17337 346 196 24
17338 346 311 90
17339 346 854 66
17340 346 683 3
17341 346 653 86
17342 346 98 55
17343 346 943 24
17344 346 833 7
17345 346 955 7
17346 346 818 60
17347 346 200 60
17348 346 188 28
17349 346 390 86
17350 346 443 37
17351 346 837 95
17352 346 195 73
17353 346 939 100
17354 346 465 27
17355 346 800 16
17356 347 886 76
17357 347 980 62
17358 347 153 22
17359 347 728 85
17360 347 436 62
17361 347 749 85
17362 347 108 62
17363 347 95 81
17364 347 341 45
17365 347 657 32
17366 347 585 17
17367 347 934 22
17368 347 41 10
17369 347 518 100
17370 347 984 66
17371 347 48 54
17372 347 75 24
17373 347 224 24
17374 347 294 87
17375 347 531 28
17376 347 682 54
17377 347 489 10
17378 347 801 95
17379 347 956 15
17380 347 766 40
17381 347 739 81
17382 347 837 95
17383 347 796 78
17384 347 632 95
17385 347 221 46
17386 347 104 71
17387 347 776 30
17388 347 862 5
17389 347 441 2
17390 347 877 4
17391 347 409 26
17392 347 415 86
17393 347 391 91
17394 347 222 41
17395 347 60 72
17396 347 550 69
17397 347 164 32
17398 347 30 98
17399 347 975 83
17400 347 629 45
17401 347 693 68
17402 347 307 71
17403 347 438 99
17404 347 832 80
17405 347 710 29
17406 348 665 78
17407 348 692 74
17408 348 963 29
17409 348 760 43
17410 348 939 54
17411 348 108 29
17412 348 617 61
17413 348 212 91
17414 348 55 70
17415 348 620 88
17416 348 76 38
17417 348 631 13
17418 348 621 19
17419 348 821 14
17420 348 581 9
17421 348 655 14
17422 348 982 80
17423 348 42 67
17424 348 162 57
17425 348 420 6
17426 348 157 1
17427 348 566 60
17428 348 122 51
17429 348 519 64
17430 348 918 20
17431 348 782 8
17432 348 647 5
17433 348 845 86
17434 348 217 55
17435 348 149 14
17436 348 838 19
17437 348 877 90
17438 348 958 97
17439 348 852 54
17440 348 649 65
17441 348 254 63
17442 348 622 2
17443 348 126 78
17444 348 325 62
17445 348 853 77
17446 348 151 61
17447 348 624 57
17448 348 363 32
17449 348 357 40
17450 348 828 38
17451 349 612 15
17452 349 422 83
17453 349 66 62
17454 349 322 18
17455 349 339 24
17456 349 913 78
17457 349 835 89
17458 349 883 3
17459 349 233 89
17460 349 722 32
17461 349 636 3
17462 349 793 91
17463 349 153 83
17464 349 3 83
17465 349 889 19
17466 349 809 55
17467 349 654 82
17468 349 28 67
17469 349 754 33
17470 349 229 28
17471 349 257 34
17472 349 811 81
17473 349 626 36
17474 349 157 81
17475 349 623 29
17476 349 662 6
17477 349 513 12
17478 349 486 93
17479 349 74 95
17480 349 413 63
17481 349 356 19
17482 349 556 78
17483 349 740 53
17484 349 210 95
17485 349 910 40
17486 349 311 32
17487 349 425 74
17488 349 657 35
17489 349 611 31
17490 349 269 68
17491 349 174 5
17492 349 463 48
17493 349 65 73
17494 349 958 42
17495 349 963 68
17496 349 567 61
17497 349 978 99
17498 349 635 43
17499 349 573 44
17500 350 532 18
17501 350 872 48
17502 350 665 15
17503 350 609 95
17504 350 791 37
17505 350 473 81
17506 350 932 51
17507 350 116 16
17508 350 418 76
17509 350 661 22
17510 350 452 39
17511 350 424 87
17512 350 789 42
17513 350 249 34
17514 350 253 88
17515 350 817 25
17516 350 103 22
17517 350 594 34
17518 350 232 4
17519 350 650 19
17520 350 840 93
17521 350 204 22
17522 350 169 31
17523 350 241 98
17524 350 97 84
17525 350 7 67
17526 350 443 89
17527 350 107 18
17528 350 337 58
17529 350 267 26
17530 350 610 82
17531 350 814 76
17532 350 339 16
17533 350 822 58
17534 350 735 69
17535 350 317 31
17536 350 889 15
17537 350 75 26
17538 350 753 57
17539 350 575 84
17540 350 95 30
17541 350 522 19
17542 350 703 8
17543 350 632 25
17544 350 12 43
17545 350 189 64
17546 350 240 87
17547 350 617 95
17548 350 422 69
17549 350 409 46
17550 350 659 7
17551 350 581 15
17552 350 100 81
17553 351 845 22
17554 351 491 73
17555 351 540 80
17556 351 844 90
17557 351 456 4
17558 351 59 70
17559 351 364 49
17560 351 207 24
17561 351 441 2
17562 351 404 16
17563 351 972 6
17564 351 154 2
17565 351 62 47
17566 351 128 30
17567 351 161 71
17568 351 190 29
17569 351 31 89
17570 351 450 76
17571 351 475 45
17572 351 255 18
17573 351 505 72
17574 351 110 18
17575 351 811 4
17576 351 93 4
17577 351 602 10
17578 351 157 21
17579 351 692 20
17580 351 240 60
17581 351 111 7
17582 351 773 15
17583 351 28 91
17584 351 439 78
17585 351 317 77
17586 351 175 47
17587 351 667 53
17588 351 63 91
17589 351 269 72
17590 351 265 56
17591 351 645 12
17592 351 225 75
17593 351 550 39
17594 351 700 93
17595 351 719 50
17596 351 588 60
17597 351 891 9
17598 351 604 12
17599 351 165 90
17600 351 632 61
17601 351 178 25
17602 351 881 18
17603 351 784 82
17604 351 898 10
17605 351 38 100
17606 351 293 24
17607 351 820 43
17608 351 789 20
17609 351 599 31
17610 352 597 5
17611 352 339 5
17612 352 511 28
17613 352 75 76
17614 352 561 60
17615 352 54 45
17616 352 984 34
17617 352 578 29
17618 352 806 7
17619 352 194 64
17620 352 525 87
17621 352 487 67
17622 352 441 25
17623 352 101 44
17624 352 425 5
17625 352 72 32
17626 352 170 27
17627 352 386 6
17628 352 44 32
17629 352 684 97
17630 352 251 29
17631 352 833 99
17632 352 920 9
17633 352 653 83
17634 352 732 48
17635 352 643 89
17636 352 82 89
17637 352 389 24
17638 352 981 15
17639 352 614 21
17640 352 325 57
17641 352 231 23
17642 352 519 25
17643 352 207 49
17644 352 125 5
17645 352 105 17
17646 352 793 45
17647 352 128 29
17648 352 92 98
17649 352 570 83
17650 353 554 20
17651 353 455 61
17652 353 174 25
17653 353 71 96
17654 353 104 33
17655 353 414 38
17656 353 859 74
17657 353 629 25
17658 353 148 58
17659 353 906 88
17660 353 112 10
17661 353 236 55
17662 353 320 85
17663 353 450 75
17664 353 949 18
17665 353 293 8
17666 353 953 19
17667 353 881 45
17668 353 743 54
17669 353 421 55
17670 353 822 21
17671 353 527 9
17672 353 569 65
17673 353 402 90
17674 353 385 66
17675 353 242 56
17676 353 784 25
17677 353 674 21
17678 353 558 99
17679 353 301 55
17680 353 407 17
17681 353 136 10
17682 353 484 71
17683 353 170 14
17684 353 441 1
17685 353 487 99
17686 353 447 6
17687 353 570 78
17688 353 420 81
17689 353 11 10
17690 353 424 93
17691 353 508 87
17692 353 168 59
17693 353 867 3
17694 353 583 37
17695 353 489 67
17696 353 795 91
17697 353 665 79
17698 353 431 40
17699 353 878 84
17700 353 638 6
17701 353 476 62
17702 353 99 5
17703 353 942 95
17704 353 908 3
17705 353 693 95
17706 353 273 55
17707 353 309 67
17708 353 18 32
17709 353 909 28
17710 353 165 33
17711 353 800 57
17712 353 714 76
17713 353 673 69
17714 354 114 47
17715 354 560 23
17716 354 703 36
17717 354 27 16
17718 354 744 9
17719 354 872 17
17720 354 394 32
17721 354 409 44
17722 354 471 74
17723 354 807 19
17724 354 567 23
17725 354 264 8
17726 354 118 63
17727 354 838 9
17728 354 634 70
17729 354 496 65
17730 354 982 95
17731 354 573 27
17732 354 549 37
17733 354 148 48
17734 354 417 39
17735 354 97 60
17736 354 813 61
17737 354 854 42
17738 354 987 29
17739 354 855 65
17740 354 231 49
17741 354 682 26
17742 354 763 30
17743 354 602 6
17744 354 19 1
17745 354 305 45
17746 354 557 45
17747 354 920 86
17748 354 612 55
17749 354 446 52
17750 354 309 60
17751 354 298 29
17752 354 129 19
17753 354 700 96
17754 354 637 52
17755 354 450 83
17756 354 269 30
17757 354 297 15
17758 354 804 75
17759 354 553 27
17760 354 290 99
17761 354 435 78
17762 354 164 42
17763 354 737 39
17764 354 717 74
17765 354 296 31
17766 354 873 47
17767 354 883 21
17768 355 259 7
17769 355 43 90
17770 355 632 39
17771 355 807 39
17772 355 76 78
17773 355 157 11
17774 355 506 51
17775 355 80 86
17776 355 91 74
17777 355 536 13
17778 355 323 31
17779 355 963 83
17780 355 2 52
17781 355 262 82
17782 355 153 81
17783 355 611 12
17784 355 249 98
17785 355 748 99
17786 355 622 97
17787 355 192 25
17788 355 480 9
17789 355 626 55
17790 355 859 40
17791 355 56 36
17792 355 756 25
17793 355 496 43
17794 355 53 78
17795 355 51 62
17796 355 127 32
17797 355 25 63
17798 355 532 36
17799 355 961 18
17800 355 939 91
17801 355 244 67
17802 355 493 38
17803 355 795 30
17804 355 603 27
17805 355 722 12
17806 355 646 49
17807 355 504 27
17808 355 986 84
17809 355 467 26
17810 355 588 20
17811 355 609 82
17812 355 377 18
17813 356 384 34
17814 356 428 88
17815 356 902 51
17816 356 787 9
17817 356 342 37
17818 356 855 37
17819 356 596 60
17820 356 757 28
17821 356 259 97
17822 356 745 8
17823 356 829 66
17824 356 481 56
17825 356 474 56
17826 356 854 50
17827 356 354 7
17828 356 191 73
17829 356 648 91
17830 356 944 70
17831 356 291 92
17832 356 62 87
17833 356 652 67
17834 356 969 14
17835 356 357 82
17836 356 689 29
17837 356 862 42
17838 356 434 69
17839 356 411 59
17840 356 473 90
17841 356 95 14
17842 356 68 10
17843 356 665 8
17844 356 472 25
17845 356 727 98
17846 356 373 47
17847 356 658 45
17848 356 817 30
17849 356 761 91
17850 356 165 18
17851 356 207 45
17852 356 872 7
17853 356 4 81
17854 356 517 99
17855 356 147 20
17856 356 937 6
17857 356 476 81
17858 356 192 82
17859 356 674 84
17860 356 793 90
17861 356 541 25
17862 356 224 10
17863 356 103 25
17864 356 248 29
17865 356 871 15
17866 356 102 80
17867 356 792 79
17868 356 811 63
17869 356 632 14
17870 357 900 46
17871 357 922 9
17872 357 71 44
17873 357 716 97
17874 357 538 41
17875 357 309 59
17876 357 376 94
17877 357 542 77
17878 357 993 56
17879 357 935 35
17880 357 354 94
17881 357 173 88
17882 357 929 69
17883 357 619 60
17884 357 324 37
17885 357 800 32
17886 357 241 83
17887 357 340 48
17888 357 640 83
17889 357 306 16
17890 357 367 37
17891 357 139 81
17892 357 781 95
17893 357 247 72
17894 357 108 73
17895 357 621 85
17896 357 1 52
17897 357 705 79
17898 357 881 38
17899 357 305 28
17900 357 591 93
17901 357 120 14
17902 357 571 9
17903 357 222 77
17904 357 522 11
17905 357 623 81
17906 357 646 69
17907 357 892 30
17908 357 185 76
17909 357 323 61
17910 357 81 36
17911 357 124 27
17912 357 129 79
17913 357 85 36
17914 357 908 15
17915 357 236 28
17916 357 318 37
17917 357 766 54
17918 358 813 80
17919 358 807 90
17920 358 540 15
17921 358 439 42
17922 358 428 12
17923 358 451 61
17924 358 544 76
17925 358 814 19
17926 358 933 64
17927 358 460 36
17928 358 380 23
17929 358 409 61
17930 358 615 68
17931 358 417 45
17932 358 184 36
17933 358 461 3
17934 358 872 97
17935 358 755 89
17936 358 381 95
17937 358 442 62
17938 358 680 51
17939 358 774 96
17940 358 915 36
17941 358 50 52
17942 358 242 2
17943 358 187 57
17944 358 467 80
17945 358 156 18
17946 358 838 30
17947 358 971 1
17948 358 355 82
17949 359 607 31
17950 359 649 24
17951 359 398 33
17952 359 202 28
17953 359 473 29
17954 359 311 86
17955 359 438 90
17956 359 255 37
17957 359 251 30
17958 359 785 71
17959 359 459 8
17960 359 48 20
17961 359 167 26
17962 359 364 26
17963 359 636 78
17964 359 859 56
17965 359 248 96
17966 359 115 40
17967 359 437 15
17968 359 345 45
17969 359 822 83
17970 359 507 79
17971 359 394 58
17972 359 630 6
17973 359 558 42
17974 359 970 16
17975 359 802 40
17976 359 38 13
17977 359 500 62
17978 359 307 7
17979 359 231 19
17980 359 235 12
17981 359 368 97
17982 359 836 6
17983 359 650 98
17984 359 267 67
17985 359 542 82
17986 359 637 42
17987 359 620 18
17988 359 602 50
17989 359 559 59
17990 359 287 88
17991 359 869 84
17992 359 549 81
17993 359 81 34
17994 359 206 25
17995 359 610 6
17996 359 393 85
17997 359 164 77
17998 359 396 58
17999 359 389 84
18000 359 406 35
18001 359 283 6
18002 359 351 32
18003 359 390 82
18004 359 534 28
18005 359 462 63
18006 359 133 78
18007 359 192 69
18008 359 567 11
18009 360 338 54
18010 360 705 84
18011 360 501 52
18012 360 290 20
18013 360 461 81
18014 360 659 82
18015 360 855 31
18016 360 641 43
18017 360 563 92
18018 360 882 52
18019 360 674 69
18020 360 289 62
18021 360 144 47
18022 360 35 59
18023 360 151 76
18024 360 273 59
18025 360 801 26
18026 360 326 8
18027 360 84 82
18028 360 24 76
18029 360 698 56
18030 360 533 79
18031 360 518 2
18032 360 982 7
18033 360 978 23
18034 360 560 95
18035 360 542 71
18036 360 403 91
18037 360 12 39
18038 360 192 42
18039 360 224 66
18040 360 161 41
18041 360 391 91
18042 360 924 96
18043 360 625 62
18044 360 348 75
18045 360 49 92
18046 360 679 87
18047 360 710 56
18048 360 55 76
18049 360 836 92
18050 360 782 30
18051 361 293 55
18052 361 699 59
18053 361 140 28
18054 361 830 11
18055 361 517 3
18056 361 636 15
18057 361 745 34
18058 361 258 37
18059 361 373 50
18060 361 296 60
18061 361 495 9
18062 361 927 69
18063 361 718 72
18064 361 616 68
18065 361 457 52
18066 361 564 57
18067 361 651 43
18068 361 553 88
18069 361 639 67
18070 361 411 60
18071 361 441 20
18072 361 617 65
18073 361 163 66
18074 361 909 31
18075 361 720 75
18076 361 64 64
18077 361 552 91
18078 361 660 92
18079 361 199 97
18080 361 416 69
18081 361 761 90
18082 361 859 88
18083 361 224 39
18084 361 537 59
18085 361 325 58
18086 361 475 11
18087 361 439 26
18088 361 747 32
18089 361 213 5
18090 361 323 39
18091 361 722 99
18092 361 805 64
18093 361 623 87
18094 362 437 75
18095 362 665 40
18096 362 30 22
18097 362 191 33
18098 362 922 27
18099 362 796 50
18100 362 239 6
18101 362 879 7
18102 362 596 49
18103 362 866 51
18104 362 148 88
18105 362 3 81
18106 362 578 49
18107 362 69 26
18108 362 212 89
18109 362 691 40
18110 362 897 41
18111 362 864 23
18112 362 883 32
18113 362 878 57
18114 362 391 94
18115 362 151 65
18116 362 457 89
18117 362 948 12
18118 362 81 44
18119 362 635 45
18120 362 726 66
18121 362 491 32
18122 362 19 20
18123 362 380 86
18124 362 714 17
18125 362 294 90
18126 362 820 10
18127 362 969 12
18128 362 593 58
18129 362 881 89
18130 362 358 50
18131 362 896 26
18132 362 792 42
18133 362 64 60
18134 362 628 56
18135 362 78 14
18136 362 632 56
18137 362 515 20
18138 362 438 16
18139 362 161 88
18140 362 183 9
18141 362 855 41
18142 362 394 28
18143 362 697 87
18144 362 986 27
18145 362 275 60
18146 362 104 42
18147 362 582 87
18148 363 912 38
18149 363 253 69
18150 363 19 81
18151 363 681 48
18152 363 519 65
18153 363 642 12
18154 363 828 15
18155 363 948 16
18156 363 983 6
18157 363 721 65
18158 363 358 61
18159 363 729 37
18160 363 913 32
18161 363 632 74
18162 363 943 79
18163 363 586 94
18164 363 596 32
18165 363 85 75
18166 363 396 11
18167 363 64 9
18168 363 568 59
18169 363 225 76
18170 363 261 14
18171 363 29 28
18172 363 592 43
18173 363 163 99
18174 363 793 27
18175 363 956 85
18176 363 350 81
18177 363 416 73
18178 363 749 73
18179 363 886 94
18180 363 421 68
18181 363 658 35
18182 363 461 40
18183 363 407 22
18184 363 314 39
18185 363 169 33
18186 363 205 69
18187 363 263 40
18188 363 829 35
18189 363 67 69
18190 363 914 54
18191 363 955 100
18192 363 492 21
18193 363 334 74
18194 363 465 59
18195 363 816 59
18196 363 932 28
18197 363 620 18
18198 363 132 88
18199 363 403 50
18200 363 500 94
18201 363 547 100
18202 364 952 37
18203 364 930 3
18204 364 448 73
18205 364 803 8
18206 364 307 88
18207 364 572 93
18208 364 22 25
18209 364 546 17
18210 364 653 23
18211 364 210 52
18212 364 918 69
18213 364 673 23
18214 364 115 48
18215 364 23 74
18216 364 276 40
18217 364 507 94
18218 364 316 92
18219 364 350 92
18220 364 862 32
18221 364 613 12
18222 364 326 45
18223 364 858 14
18224 364 389 40
18225 364 633 71
18226 364 531 31
18227 364 929 17
18228 364 976 45
18229 364 101 3
18230 364 705 71
18231 364 81 63
18232 364 961 50
18233 364 917 1
18234 364 291 20
18235 364 605 54
18236 364 599 12
18237 364 990 52
18238 364 111 83
18239 364 347 30
18240 364 314 59
18241 364 228 53
18242 364 136 59
18243 364 396 39
18244 364 484 90
18245 364 655 96
18246 364 853 31
18247 364 679 3
18248 364 148 46
18249 365 447 20
18250 365 74 86
18251 365 409 98
18252 365 529 78
18253 365 809 13
18254 365 926 100
18255 365 63 12
18256 365 630 1
18257 365 478 2
18258 365 787 22
18259 365 556 73
18260 365 203 46
18261 365 153 9
18262 365 143 56
18263 365 162 46
18264 365 280 31
18265 365 205 52
18266 365 956 1
18267 365 872 57
18268 365 492 79
18269 365 763 52
18270 365 641 33
18271 365 157 4
18272 365 841 1
18273 365 545 20
18274 365 568 67
18275 365 755 11
18276 365 665 46
18277 365 307 47
18278 365 25 15
18279 365 653 5
18280 365 390 84
18281 365 161 11
18282 365 134 98
18283 365 515 67
18284 365 464 79
18285 365 757 50
18286 365 384 91
18287 365 292 95
18288 365 1 76
18289 365 141 16
18290 365 930 41
18291 365 707 19
18292 365 846 50
18293 365 789 32
18294 365 561 5
18295 365 973 52
18296 365 485 17
18297 365 274 79
18298 365 107 44
18299 365 780 33
18300 365 698 34
18301 365 606 21
18302 365 97 45
18303 365 938 87
18304 366 643 88
18305 366 639 20
18306 366 103 14
18307 366 165 96
18308 366 896 37
18309 366 602 77
18310 366 890 90
18311 366 1 91
18312 366 93 49
18313 366 999 61
18314 366 880 50
18315 366 852 67
18316 366 547 34
18317 366 883 16
18318 366 315 85
18319 366 642 41
18320 366 522 15
18321 366 418 97
18322 366 538 69
18323 366 986 4
18324 366 755 68
18325 366 836 33
18326 366 678 99
18327 366 704 54
18328 366 520 67
18329 366 106 44
18330 366 479 15
18331 366 63 38
18332 366 753 47
18333 366 793 70
18334 366 384 33
18335 366 963 73
18336 366 471 36
18337 366 662 98
18338 366 741 48
18339 366 299 18
18340 366 487 57
18341 366 115 22
18342 366 661 74
18343 366 343 87
18344 366 827 10
18345 366 971 73
18346 366 962 98
18347 366 655 78
18348 366 111 98
18349 366 801 73
18350 366 708 9
18351 366 362 59
18352 366 897 93
18353 366 437 46
18354 366 278 85
18355 366 659 39
18356 366 108 75
18357 367 330 60
18358 367 900 45
18359 367 137 96
18360 367 714 80
18361 367 746 45
18362 367 495 5
18363 367 692 68
18364 367 805 11
18365 367 153 24
18366 367 880 27
18367 367 210 62
18368 367 716 21
18369 367 465 100
18370 367 111 68
18371 367 616 91
18372 367 237 18
18373 367 873 45
18374 367 791 53
18375 367 860 15
18376 367 30 27
18377 367 835 85
18378 367 480 11
18379 367 676 9
18380 367 920 64
18381 367 623 59
18382 367 510 65
18383 367 23 61
18384 367 747 36
18385 367 99 9
18386 367 741 63
18387 367 323 70
18388 367 53 26
18389 367 527 71
18390 367 620 69
18391 367 322 5
18392 367 699 70
18393 367 697 25
18394 367 543 66
18395 367 723 58
18396 367 674 2
18397 367 438 5
18398 367 250 69
18399 367 624 83
18400 367 960 44
18401 367 540 73
18402 367 340 61
18403 367 215 84
18404 367 600 37
18405 367 31 39
18406 367 529 65
18407 367 667 87
18408 367 957 85
18409 367 426 100
18410 367 207 77
18411 367 999 14
18412 367 157 39
18413 367 859 34
18414 368 306 67
18415 368 247 26
18416 368 40 9
18417 368 452 66
18418 368 944 3
18419 368 431 35
18420 368 183 71
18421 368 67 10
18422 368 665 96
18423 368 764 26
18424 368 523 75
18425 368 898 28
18426 368 129 22
18427 368 17 47
18428 368 834 89
18429 368 793 5
18430 368 753 11
18431 368 964 43
18432 368 776 6
18433 368 973 74
18434 368 57 59
18435 368 901 71
18436 368 127 70
18437 368 748 89
18438 368 3 55
18439 368 619 60
18440 368 492 75
18441 368 199 21
18442 368 990 12
18443 368 843 15
18444 368 814 35
18445 368 126 35
18446 368 788 24
18447 368 400 78
18448 368 536 70
18449 368 464 45
18450 368 577 81
18451 368 348 86
18452 368 470 95
18453 368 268 88
18454 368 393 85
18455 368 514 89
18456 368 738 59
18457 368 484 24
18458 368 801 88
18459 368 656 78
18460 368 14 98
18461 368 108 98
18462 368 666 53
18463 368 270 3
18464 368 920 67
18465 368 830 47
18466 368 386 18
18467 368 366 16
18468 368 402 22
18469 368 441 44
18470 368 1 73
18471 368 426 73
18472 368 744 11
18473 368 889 58
18474 368 443 78
18475 368 741 40
18476 368 144 38
18477 368 321 92
18478 368 244 35
18479 368 504 70
18480 368 604 44
18481 369 823 35
18482 369 879 27
18483 369 772 73
18484 369 96 98
18485 369 404 84
18486 369 505 97
18487 369 414 36
18488 369 2 31
18489 369 337 43
18490 369 35 69
18491 369 335 4
18492 369 602 19
18493 369 558 43
18494 369 818 67
18495 369 804 19
18496 369 407 42
18497 369 165 66
18498 369 418 80
18499 369 36 87
18500 369 594 3
18501 369 387 45
18502 369 517 69
18503 369 565 12
18504 369 378 32
18505 369 303 35
18506 369 584 8
18507 369 609 33
18508 369 444 82
18509 369 881 52
18510 369 445 27
18511 369 924 21
18512 369 867 65
18513 369 224 36
18514 369 945 41
18515 369 116 30
18516 369 291 76
18517 369 349 83
18518 369 646 21
18519 369 840 97
18520 369 669 100
18521 369 462 22
18522 369 403 87
18523 369 432 84
18524 369 367 61
18525 369 297 97
18526 369 394 12
18527 369 807 9
18528 369 635 6
18529 369 708 91
18530 369 18 50
18531 369 668 10
18532 369 990 72
18533 370 575 21
18534 370 347 86
18535 370 730 9
18536 370 674 68
18537 370 503 18
18538 370 664 78
18539 370 532 4
18540 370 704 28
18541 370 670 62
18542 370 188 78
18543 370 213 99
18544 370 590 84
18545 370 103 39
18546 370 627 71
18547 370 293 7
18548 370 952 43
18549 370 679 32
18550 370 56 8
18551 370 343 48
18552 370 482 81
18553 370 698 46
18554 370 368 35
18555 370 815 16
18556 370 971 12
18557 370 687 68
18558 370 914 54
18559 370 521 28
18560 370 399 98
18561 370 998 20
18562 370 13 65
18563 370 523 21
18564 370 508 98
18565 370 438 47
18566 370 130 20
18567 370 361 74
18568 370 724 24
18569 370 136 33
18570 370 544 92
18571 370 907 22
18572 370 775 33
18573 370 570 74
18574 370 923 40
18575 370 133 46
18576 370 901 69
18577 370 501 83
18578 370 878 67
18579 370 926 98
18580 371 326 23
18581 371 87 95
18582 371 166 73
18583 371 704 81
18584 371 936 80
18585 371 502 8
18586 371 304 9
18587 371 717 47
18588 371 752 35
18589 371 62 26
18590 371 978 56
18591 371 31 54
18592 371 775 9
18593 371 244 70
18594 371 537 5
18595 371 990 6
18596 371 125 12
18597 371 276 64
18598 371 422 95
18599 371 332 2
18600 371 649 11
18601 371 708 63
18602 371 762 98
18603 371 249 3
18604 371 525 28
18605 371 699 37
18606 371 163 9
18607 371 330 57
18608 371 645 83
18609 371 608 91
18610 371 386 58
18611 371 846 82
18612 371 678 76
18613 371 493 57
18614 371 196 43
18615 371 286 76
18616 371 208 1
18617 371 204 37
18618 371 691 75
18619 371 864 77
18620 371 376 9
18621 371 136 75
18622 371 229 30
18623 371 975 65
18624 371 566 88
18625 371 202 69
18626 371 607 27
18627 372 847 90
18628 372 249 45
18629 372 987 87
18630 372 629 75
18631 372 335 36
18632 372 563 7
18633 372 348 47
18634 372 201 38
18635 372 256 60
18636 372 788 69
18637 372 914 98
18638 372 502 85
18639 372 183 80
18640 372 634 72
18641 372 41 15
18642 372 936 76
18643 372 969 83
18644 372 824 8
18645 372 626 97
18646 372 404 85
18647 372 340 65
18648 372 394 43
18649 372 416 38
18650 372 217 51
18651 372 659 30
18652 372 93 79
18653 372 485 99
18654 372 353 59
18655 372 971 27
18656 372 166 1
18657 372 160 88
18658 372 838 14
18659 372 830 95
18660 372 290 42
18661 372 633 93
18662 372 763 94
18663 372 564 44
18664 372 540 67
18665 372 744 18
18666 372 619 60
18667 372 442 87
18668 372 977 81
18669 372 252 1
18670 372 962 16
18671 372 851 83
18672 372 631 56
18673 372 893 91
18674 372 136 5
18675 372 316 90
18676 372 801 38
18677 372 660 24
18678 372 71 96
18679 372 457 95
18680 372 319 32
18681 372 111 13
18682 373 758 84
18683 373 534 11
18684 373 800 28
18685 373 658 30
18686 373 919 18
18687 373 272 54
18688 373 991 22
18689 373 733 28
18690 373 868 97
18691 373 13 25
18692 373 751 96
18693 373 267 81
18694 373 946 58
18695 373 924 86
18696 373 66 1
18697 373 626 7
18698 373 849 88
18699 373 720 89
18700 373 697 37
18701 373 544 41
18702 373 727 46
18703 373 424 58
18704 373 514 94
18705 373 210 46
18706 373 293 73
18707 373 348 96
18708 373 622 67
18709 373 543 97
18710 373 496 1
18711 373 788 69
18712 373 597 56
18713 373 167 99
18714 373 717 39
18715 373 93 59
18716 373 828 19
18717 373 82 8
18718 373 536 39
18719 373 349 69
18720 373 948 84
18721 373 977 36
18722 373 57 68
18723 373 434 8
18724 373 390 95
18725 373 493 53
18726 373 871 100
18727 373 174 74
18728 373 595 49
18729 373 405 19
18730 373 179 16
18731 373 281 54
18732 373 88 4
18733 373 449 58
18734 373 246 84
18735 373 41 56
18736 373 27 37
18737 373 329 55
18738 373 474 88
18739 373 798 20
18740 373 113 10
18741 373 923 19
18742 374 2 99
18743 374 478 2
18744 374 124 55
18745 374 856 48
18746 374 727 1
18747 374 682 4
18748 374 301 38
18749 374 500 65
18750 374 632 31
18751 374 369 87
18752 374 88 28
18753 374 788 28
18754 374 446 75
18755 374 867 36
18756 374 378 90
18757 374 786 53
18758 374 222 35
18759 374 316 47
18760 374 110 76
18761 374 941 42
18762 374 148 53
18763 374 147 70
18764 374 41 17
18765 374 898 35
18766 374 838 69
18767 374 227 61
18768 374 845 30
18769 374 992 3
18770 374 363 74
18771 374 476 6
18772 374 988 16
18773 374 653 14
18774 374 670 96
18775 374 53 43
18776 374 249 31
18777 374 357 71
18778 374 128 74
18779 374 610 100
18780 374 892 23
18781 374 717 61
18782 374 38 93
18783 374 551 69
18784 374 114 76
18785 374 492 89
18786 374 928 45
18787 374 842 86
18788 374 888 23
18789 375 92 12
18790 375 833 23
18791 375 78 77
18792 375 196 34
18793 375 649 21
18794 375 569 29
18795 375 640 86
18796 375 677 74
18797 375 871 76
18798 375 893 64
18799 375 478 37
18800 375 556 33
18801 375 837 23
18802 375 421 16
18803 375 993 74
18804 375 503 27
18805 375 731 93
18806 375 70 9
18807 375 450 38
18808 375 792 45
18809 375 186 30
18810 375 304 7
18811 375 541 72
18812 375 358 18
18813 375 542 79
18814 375 437 80
18815 375 521 4
18816 375 284 67
18817 375 168 83
18818 375 695 78
18819 375 665 64
18820 375 969 1
18821 375 817 80
18822 375 193 78
18823 375 318 15
18824 375 857 7
18825 375 36 28
18826 375 416 80
18827 375 439 67
18828 375 236 23
18829 375 682 37
18830 375 702 75
18831 375 468 34
18832 375 590 67
18833 375 854 7
18834 375 600 22
18835 375 202 92
18836 375 322 94
18837 376 935 53
18838 376 944 34
18839 376 773 66
18840 376 12 90
18841 376 980 9
18842 376 631 24
18843 376 929 30
18844 376 810 40
18845 376 766 80
18846 376 416 7
18847 376 907 37
18848 376 786 48
18849 376 582 78
18850 376 796 58
18851 376 136 64
18852 376 600 95
18853 376 40 46
18854 376 424 85
18855 376 797 44
18856 376 250 85
18857 376 701 81
18858 376 520 13
18859 376 532 38
18860 376 385 10
18861 376 589 24
18862 376 754 25
18863 376 15 31
18864 376 422 76
18865 376 702 85
18866 376 607 50
18867 376 312 3
18868 376 428 35
18869 376 66 71
18870 376 214 4
18871 376 641 12
18872 376 392 99
18873 376 960 38
18874 376 697 50
18875 376 956 83
18876 376 255 81
18877 376 41 94
18878 376 270 71
18879 376 782 50
18880 376 22 50
18881 376 783 87
18882 376 235 87
18883 376 336 78
18884 376 84 14
18885 376 219 8
18886 376 576 2
18887 376 676 4
18888 376 677 22
18889 376 971 32
18890 376 29 2
18891 376 811 48
18892 376 807 10
18893 376 780 76
18894 376 239 84
18895 376 580 37
18896 376 25 100
18897 376 703 60
18898 376 360 92
18899 377 334 52
18900 377 6 42
18901 377 798 65
18902 377 699 51
18903 377 494 39
18904 377 940 37
18905 377 806 5
18906 377 836 73
18907 377 701 63
18908 377 264 8
18909 377 992 17
18910 377 721 72
18911 377 371 16
18912 377 22 5
18913 377 316 62
18914 377 658 33
18915 377 109 9
18916 377 782 65
18917 377 385 79
18918 377 41 45
18919 377 294 6
18920 377 955 24
18921 377 923 56
18922 377 118 95
18923 377 853 27
18924 377 841 2
18925 377 113 8
18926 377 611 57
18927 377 968 76
18928 377 555 85
18929 377 482 71
18930 377 404 89
18931 377 120 40
18932 377 737 61
18933 377 89 5
18934 377 582 28
18935 377 596 58
18936 377 359 71
18937 377 758 41
18938 377 917 97
18939 377 819 75
18940 377 335 64
18941 377 643 18
18942 377 481 93
18943 377 458 84
18944 377 253 1
18945 377 365 30
18946 377 997 73
18947 377 533 4
18948 377 749 45
18949 377 863 44
18950 377 685 44
18951 377 3 35
18952 377 792 22
18953 377 676 87
18954 377 476 81
18955 377 553 62
18956 377 908 43
18957 378 651 46
18958 378 537 25
18959 378 764 20
18960 378 313 2
18961 378 429 85
18962 378 891 23
18963 378 896 67
18964 378 13 64
18965 378 484 2
18966 378 597 7
18967 378 913 98
18968 378 137 91
18969 378 551 60
18970 378 616 65
18971 378 729 59
18972 378 826 7
18973 378 769 94
18974 378 908 97
18975 378 121 94
18976 378 592 79
18977 378 990 63
18978 378 198 42
18979 378 541 84
18980 378 372 48
18981 378 21 29
18982 378 955 32
18983 378 814 27
18984 378 456 93
18985 378 923 77
18986 378 623 74
18987 378 343 83
18988 378 868 44
18989 378 300 99
18990 378 965 79
18991 378 41 23
18992 378 347 28
18993 378 870 91
18994 378 711 1
18995 378 646 59
18996 378 533 20
18997 378 993 79
18998 378 887 17
18999 378 631 17
19000 379 689 49
19001 379 420 18
19002 379 741 53
19003 379 658 41
19004 379 825 79
19005 379 650 20
19006 379 94 30
19007 379 681 23
19008 379 992 62
19009 379 561 83
19010 379 177 69
19011 379 712 75
19012 379 293 31
19013 379 135 25
19014 379 193 12
19015 379 640 73
19016 379 255 31
19017 379 908 47
19018 379 949 29
19019 379 507 70
19020 379 647 71
19021 379 743 27
19022 379 416 81
19023 379 500 53
19024 379 715 39
19025 379 239 94
19026 379 836 22
19027 379 408 95
19028 379 208 32
19029 379 981 30
19030 379 3 32
19031 379 203 35
19032 379 611 27
19033 379 663 4
19034 379 106 84
19035 379 837 6
19036 379 476 98
19037 379 528 95
19038 379 130 73
19039 379 833 37
19040 379 417 12
19041 379 551 86
19042 379 510 4
19043 379 487 49
19044 380 608 98
19045 380 649 59
19046 380 287 11
19047 380 841 46
19048 380 526 35
19049 380 737 56
19050 380 142 89
19051 380 773 11
19052 380 62 55
19053 380 791 99
19054 380 423 90
19055 380 5 35
19056 380 824 51
19057 380 227 56
19058 380 859 70
19059 380 357 57
19060 380 504 44
19061 380 28 94
19062 380 995 68
19063 380 275 87
19064 380 397 39
19065 380 764 18
19066 380 499 29
19067 380 196 24
19068 380 349 48
19069 380 292 28
19070 380 116 55
19071 380 600 80
19072 380 124 50
19073 380 553 16
19074 380 327 100
19075 380 598 26
19076 380 6 58
19077 380 492 19
19078 380 313 23
19079 380 366 57
19080 380 549 98
19081 380 846 4
19082 380 404 33
19083 380 709 48
19084 380 943 19
19085 380 521 66
19086 380 949 18
19087 380 965 83
19088 380 382 87
19089 380 67 78
19090 380 974 50
19091 380 358 79
19092 381 943 24
19093 381 62 20
19094 381 594 81
19095 381 134 82
19096 381 821 100
19097 381 767 61
19098 381 342 79
19099 381 839 96
19100 381 195 74
19101 381 486 8
19102 381 864 74
19103 381 812 91
19104 381 334 79
19105 381 114 77
19106 381 398 5
19107 381 281 89
19108 381 285 61
19109 381 290 99
19110 381 739 91
19111 381 386 98
19112 381 998 33
19113 381 918 66
19114 381 959 99
19115 381 567 92
19116 381 541 15
19117 381 177 62
19118 381 231 79
19119 381 640 33
19120 381 658 97
19121 381 333 23
19122 381 111 3
19123 381 544 52
19124 381 785 34
19125 381 508 76
19126 381 133 6
19127 381 504 35
19128 381 641 70
19129 381 279 56
19130 381 781 4
19131 381 636 2
19132 381 10 84
19133 381 657 100
19134 381 326 47
19135 381 434 71
19136 381 3 54
19137 381 716 2
19138 381 514 11
19139 381 851 56
19140 381 972 63
19141 381 774 90
19142 381 377 34
19143 381 331 55
19144 382 141 15
19145 382 711 78
19146 382 408 91
19147 382 643 100
19148 382 353 66
19149 382 583 26
19150 382 208 47
19151 382 406 66
19152 382 700 68
19153 382 275 17
19154 382 381 63
19155 382 548 73
19156 382 564 7
19157 382 854 21
19158 382 177 86
19159 382 471 10
19160 382 567 61
19161 382 300 67
19162 382 311 87
19163 382 81 65
19164 382 847 20
19165 382 489 44
19166 382 430 86
19167 382 117 21
19168 382 240 34
19169 382 828 73
19170 382 526 90
19171 382 542 82
19172 382 918 61
19173 382 899 28
19174 382 891 24
19175 382 989 14
19176 382 44 77
19177 382 620 28
19178 382 698 49
19179 382 443 74
19180 382 121 7
19181 382 742 74
19182 382 923 98
19183 382 628 59
19184 382 341 58
19185 382 798 38
19186 382 9 81
19187 382 633 52
19188 382 91 82
19189 382 172 76
19190 382 823 67
19191 382 215 29
19192 382 334 25
19193 382 82 9
19194 382 886 65
19195 382 28 25
19196 382 811 38
19197 382 969 27
19198 383 111 9
19199 383 499 65
19200 383 907 52
19201 383 955 47
19202 383 174 73
19203 383 545 21
19204 383 579 19
19205 383 900 87
19206 383 820 53
19207 383 343 52
19208 383 144 28
19209 383 768 33
19210 383 951 9
19211 383 20 96
19212 383 166 63
19213 383 693 23
19214 383 226 15
19215 383 717 85
19216 383 597 72
19217 383 843 74
19218 383 725 2
19219 383 334 81
19220 383 296 89
19221 383 13 77
19222 383 750 58
19223 383 301 20
19224 383 657 38
19225 383 922 97
19226 383 309 56
19227 383 147 7
19228 383 510 1
19229 383 924 91
19230 383 130 24
19231 383 842 72
19232 383 661 28
19233 383 808 26
19234 383 769 46
19235 383 593 90
19236 383 629 94
19237 383 767 70
19238 383 489 13
19239 383 441 20
19240 383 448 100
19241 383 168 30
19242 383 359 95
19243 383 369 25
19244 383 638 15
19245 383 184 19
19246 383 583 30
19247 383 952 24
19248 383 573 66
19249 383 330 93
19250 383 73 93
19251 384 170 20
19252 384 943 23
19253 384 615 39
19254 384 278 51
19255 384 997 2
19256 384 147 3
19257 384 693 26
19258 384 203 90
19259 384 740 25
19260 384 996 99
19261 384 504 84
19262 384 374 41
19263 384 237 6
19264 384 790 96
19265 384 60 28
19266 384 64 16
19267 384 51 74
19268 384 179 27
19269 384 5 47
19270 384 470 84
19271 384 793 34
19272 384 702 37
19273 384 142 88
19274 384 116 68
19275 384 133 36
19276 384 401 67
19277 384 850 86
19278 384 71 55
19279 384 981 95
19280 384 713 90
19281 384 479 40
19282 384 783 87
19283 384 54 32
19284 384 584 43
19285 384 434 12
19286 384 780 30
19287 384 656 86
19288 384 608 43
19289 384 661 49
19290 384 643 45
19291 384 371 25
19292 384 905 62
19293 384 20 21
19294 384 350 16
19295 384 753 9
19296 384 605 49
19297 384 317 29
19298 384 926 26
19299 385 240 10
19300 385 471 17
19301 385 593 73
19302 385 849 99
19303 385 95 18
19304 385 217 31
19305 385 177 57
19306 385 72 67
19307 385 611 64
19308 385 97 2
19309 385 478 93
19310 385 771 54
19311 385 739 4
19312 385 323 76
19313 385 900 66
19314 385 913 49
19315 385 738 35
19316 385 970 91
19317 385 992 50
19318 385 980 47
19319 385 465 22
19320 385 6 72
19321 385 541 18
19322 385 286 69
19323 385 636 86
19324 385 516 1
19325 385 446 98
19326 385 911 7
19327 385 305 99
19328 385 297 30
19329 385 867 14
19330 385 100 38
19331 385 696 83
19332 385 756 70
19333 385 346 21
19334 385 52 75
19335 385 329 26
19336 385 681 76
19337 385 198 57
19338 385 815 31
19339 385 416 98
19340 385 287 34
19341 385 268 40
19342 385 931 84
19343 385 496 52
19344 385 356 66
19345 385 590 93
19346 385 951 2
19347 385 626 9
19348 385 540 29
19349 385 506 86
19350 385 887 21
19351 385 307 86
19352 385 897 98
19353 385 904 85
19354 385 117 58
19355 385 18 78
19356 385 156 80
19357 385 490 56
19358 385 215 16
19359 385 76 25
19360 386 522 56
19361 386 57 9
19362 386 930 94
19363 386 288 62
19364 386 762 88
19365 386 140 23
19366 386 504 92
19367 386 369 53
19368 386 128 33
19369 386 769 11
19370 386 381 30
19371 386 953 49
19372 386 213 30
19373 386 292 98
19374 386 305 84
19375 386 783 66
19376 386 169 34
19377 386 44 86
19378 386 421 69
19379 386 611 59
19380 386 676 1
19381 386 997 36
19382 386 293 98
19383 386 123 16
19384 386 671 28
19385 386 38 78
19386 386 897 10
19387 386 896 33
19388 386 141 40
19389 386 41 57
19390 386 846 80
19391 386 730 46
19392 386 448 1
19393 386 560 32
19394 386 901 26
19395 386 548 46
19396 386 146 52
19397 386 102 35
19398 386 969 87
19399 386 559 31
19400 386 523 38
19401 386 933 36
19402 386 538 99
19403 386 8 35
19404 386 928 14
19405 386 191 38
19406 386 905 27
19407 386 569 85
19408 387 49 21
19409 387 552 92
19410 387 53 35
19411 387 739 78
19412 387 40 39
19413 387 495 92
19414 387 194 85
19415 387 199 21
19416 387 158 94
19417 387 411 93
19418 387 432 35
19419 387 375 28
19420 387 187 13
19421 387 140 19
19422 387 520 76
19423 387 578 72
19424 387 932 81
19425 387 341 57
19426 387 39 11
19427 387 167 62
19428 387 447 67
19429 387 866 92
19430 387 523 50
19431 387 515 43
19432 387 384 43
19433 387 398 2
19434 387 943 75
19435 387 343 90
19436 387 203 5
19437 387 753 78
19438 387 318 39
19439 387 315 74
19440 387 326 40
19441 387 744 21
19442 387 983 14
19443 387 309 83
19444 387 107 2
19445 387 430 16
19446 387 76 7
19447 387 732 66
19448 387 265 73
19449 387 154 69
19450 387 280 51
19451 387 948 84
19452 387 834 22
19453 387 100 69
19454 387 554 31
19455 387 544 31
19456 387 366 58
19457 387 797 28
19458 387 666 76
19459 387 766 82
19460 388 792 100
19461 388 601 46
19462 388 670 21
19463 388 76 42
19464 388 384 44
19465 388 741 29
19466 388 639 31
19467 388 203 34
19468 388 957 62
19469 388 26 58
19470 388 627 41
19471 388 109 57
19472 388 59 97
19473 388 990 42
19474 388 370 29
19475 388 678 35
19476 388 687 65
19477 388 683 54
19478 388 237 57
19479 388 655 14
19480 388 247 22
19481 388 626 72
19482 388 103 75
19483 388 603 52
19484 388 719 56
19485 388 110 43
19486 388 434 89
19487 388 183 87
19488 388 459 42
19489 388 251 66
19490 388 847 91
19491 388 859 7
19492 388 542 27
19493 388 656 67
19494 388 428 85
19495 388 261 43
19496 388 619 60
19497 388 880 21
19498 388 157 14
19499 388 416 3
19500 388 152 20
19501 388 419 92
19502 388 145 65
19503 388 146 72
19504 388 8 83
19505 388 729 44
19506 388 915 77
19507 388 482 34
19508 388 893 57
19509 388 447 37
19510 388 643 62
19511 388 965 20
19512 388 888 26
19513 388 677 55
19514 388 161 83
19515 388 838 18
19516 388 795 48
19517 388 787 86
19518 388 833 47
19519 388 538 61
19520 388 973 83
19521 389 798 44
19522 389 95 93
19523 389 329 8
19524 389 485 14
19525 389 227 45
19526 389 23 39
19527 389 132 80
19528 389 287 72
19529 389 603 77
19530 389 759 48
19531 389 40 83
19532 389 398 22
19533 389 208 20
19534 389 764 98
19535 389 610 94
19536 389 89 3
19537 389 34 49
19538 389 708 42
19539 389 311 13
19540 389 187 78
19541 389 721 21
19542 389 565 8
19543 389 613 29
19544 389 313 58
19545 389 730 99
19546 389 130 13
19547 389 98 15
19548 389 179 31
19549 389 767 26
19550 389 836 67
19551 389 911 59
19552 389 806 24
19553 389 309 57
19554 389 606 55
19555 389 688 15
19556 389 336 4
19557 389 493 49
19558 389 246 56
19559 389 962 58
19560 389 859 28
19561 389 395 25
19562 389 518 39
19563 389 235 34
19564 389 115 55
19565 389 25 97
19566 389 812 49
19567 389 160 4
19568 389 736 12
19569 389 90 46
19570 389 574 95
19571 389 809 56
19572 389 58 78
19573 389 960 12
19574 389 438 31
19575 389 676 71
19576 389 348 6
19577 389 586 95
19578 389 5 3
19579 389 657 21
19580 390 845 17
19581 390 912 47
19582 390 764 27
19583 390 458 39
19584 390 401 70
19585 390 459 67
19586 390 499 33
19587 390 644 57
19588 390 818 47
19589 390 22 95
19590 390 105 72
19591 390 686 14
19592 390 770 100
19593 390 736 83
19594 390 114 66
19595 390 664 46
19596 390 625 67
19597 390 48 93
19598 390 47 36
19599 390 356 57
19600 390 713 98
19601 390 424 85
19602 390 96 6
19603 390 141 38
19604 390 116 64
19605 390 910 26
19606 390 411 63
19607 390 551 100
19608 390 330 68
19609 390 780 26
19610 390 670 12
19611 390 716 6
19612 390 443 39
19613 390 246 66
19614 390 24 1
19615 390 341 85
19616 390 526 53
19617 390 834 53
19618 390 309 31
19619 390 445 80
19620 390 486 12
19621 390 425 9
19622 390 64 91
19623 390 197 74
19624 390 931 75
19625 390 539 42
19626 390 171 87
19627 390 830 75
19628 390 949 72
19629 390 844 67
19630 390 369 23
19631 390 989 17
19632 390 560 23
19633 390 241 74
19634 391 59 57
19635 391 224 59
19636 391 591 87
19637 391 657 1
19638 391 958 14
19639 391 44 70
19640 391 486 98
19641 391 4 86
19642 391 658 8
19643 391 793 13
19644 391 463 68
19645 391 505 62
19646 391 82 79
19647 391 328 80
19648 391 496 36
19649 391 697 74
19650 391 581 75
19651 391 597 51
19652 391 305 5
19653 391 945 91
19654 391 13 80
19655 391 722 47
19656 391 876 37
19657 391 536 54
19658 391 765 15
19659 391 37 45
19660 391 623 33
19661 391 176 72
19662 391 810 1
19663 391 960 76
19664 391 753 41
19665 391 720 27
19666 391 365 42
19667 391 242 59
19668 391 472 37
19669 391 399 17
19670 391 676 12
19671 391 270 74
19672 391 481 32
19673 391 415 11
19674 392 98 74
19675 392 590 27
19676 392 979 76
19677 392 228 78
19678 392 195 40
19679 392 506 59
19680 392 245 39
19681 392 512 85
19682 392 472 68
19683 392 21 73
19684 392 722 52
19685 392 700 64
19686 392 150 53
19687 392 153 70
19688 392 378 2
19689 392 618 60
19690 392 610 40
19691 392 224 9
19692 392 156 10
19693 392 25 30
19694 392 441 21
19695 392 674 73
19696 392 695 53
19697 392 764 48
19698 392 708 87
19699 392 191 11
19700 392 200 52
19701 392 343 100
19702 392 396 19
19703 392 171 4
19704 392 943 69
19705 392 407 47
19706 392 909 81
19707 392 901 10
19708 392 222 86
19709 392 188 46
19710 392 415 73
19711 392 560 35
19712 392 168 61
19713 392 470 75
19714 392 838 27
19715 392 430 59
19716 392 349 37
19717 392 44 57
19718 392 999 87
19719 393 726 41
19720 393 470 58
19721 393 586 57
19722 393 833 41
19723 393 703 26
19724 393 638 36
19725 393 4 8
19726 393 164 83
19727 393 314 97
19728 393 433 32
19729 393 182 99
19730 393 409 26
19731 393 472 24
19732 393 253 47
19733 393 737 26
19734 393 246 28
19735 393 194 62
19736 393 732 69
19737 393 897 64
19738 393 695 7
19739 393 285 71
19740 393 875 10
19741 393 298 95
19742 393 510 18
19743 393 539 48
19744 393 1 99
19745 393 524 39
19746 393 99 83
19747 393 767 93
19748 393 467 67
19749 393 68 77
19750 393 435 35
19751 393 925 24
19752 393 933 33
19753 393 332 7
19754 393 747 8
19755 393 392 14
19756 393 599 99
19757 393 71 66
19758 393 560 68
19759 393 380 15
19760 393 120 51
19761 393 427 73
19762 393 160 70
19763 393 150 100
19764 393 87 52
19765 393 421 50
19766 393 585 92
19767 393 704 68
19768 393 842 37
19769 393 948 66
19770 393 460 4
19771 393 835 50
19772 393 893 22
19773 393 971 91
19774 393 352 14
19775 394 604 63
19776 394 635 58
19777 394 129 69
19778 394 47 19
19779 394 425 97
19780 394 802 38
19781 394 506 29
19782 394 919 25
19783 394 147 48
19784 394 495 5
19785 394 11 24
19786 394 537 37
19787 394 347 46
19788 394 795 65
19789 394 14 9
19790 394 198 34
19791 394 562 46
19792 394 436 48
19793 394 37 52
19794 394 533 10
19795 394 419 18
19796 394 214 5
19797 394 70 53
19798 394 243 66
19799 394 799 93
19800 394 211 92
19801 394 73 46
19802 394 766 10
19803 394 238 70
19804 394 634 47
19805 394 851 53
19806 394 804 29
19807 394 534 2
19808 394 961 75
19809 394 270 82
19810 394 780 67
19811 394 104 61
19812 394 777 86
19813 394 357 88
19814 394 891 51
19815 394 991 19
19816 394 457 28
19817 394 440 77
19818 394 969 91
19819 394 657 5
19820 394 998 77
19821 394 316 6
19822 394 50 45
19823 394 142 66
19824 395 750 17
19825 395 137 37
19826 395 524 56
19827 395 680 1
19828 395 821 41
19829 395 304 64
19830 395 71 96
19831 395 716 29
19832 395 150 65
19833 395 761 23
19834 395 290 47
19835 395 340 73
19836 395 97 6
19837 395 733 81
19838 395 497 54
19839 395 984 73
19840 395 578 20
19841 395 924 11
19842 395 256 5
19843 395 435 77
19844 395 178 82
19845 395 671 70
19846 395 689 58
19847 395 282 45
19848 395 389 56
19849 395 802 72
19850 395 788 3
19851 395 128 51
19852 395 30 70
19853 395 839 48
19854 395 252 75
19855 395 250 71
19856 395 177 39
19857 395 228 88
19858 395 125 76
19859 395 378 19
19860 395 266 39
19861 395 662 3
19862 395 390 99
19863 395 367 98
19864 395 885 11
19865 395 267 34
19866 395 475 96
19867 395 797 73
19868 395 458 47
19869 395 91 22
19870 396 166 50
19871 396 403 90
19872 396 193 77
19873 396 267 83
19874 396 674 96
19875 396 940 93
19876 396 618 43
19877 396 836 57
19878 396 112 53
19879 396 335 69
19880 396 684 93
19881 396 320 60
19882 396 356 87
19883 396 260 36
19884 396 624 58
19885 396 925 26
19886 396 236 90
19887 396 232 93
19888 396 900 85
19889 396 375 56
19890 396 469 28
19891 396 518 37
19892 396 373 73
19893 396 945 12
19894 396 873 19
19895 396 617 93
19896 396 876 56
19897 396 385 18
19898 396 718 1
19899 396 32 71
19900 396 19 66
19901 396 556 44
19902 396 771 74
19903 396 865 25
19904 396 705 65
19905 396 325 31
19906 396 845 19
19907 396 222 75
19908 396 106 51
19909 396 766 5
19910 396 601 96
19911 396 915 10
19912 396 777 52
19913 396 527 66
19914 397 420 59
19915 397 788 13
19916 397 114 96
19917 397 744 71
19918 397 859 52
19919 397 528 23
19920 397 361 46
19921 397 497 54
19922 397 246 35
19923 397 372 38
19924 397 186 92
19925 397 69 78
19926 397 621 92
19927 397 578 6
19928 397 204 54
19929 397 985 40
19930 397 238 97
19931 397 395 53
19932 397 286 30
19933 397 303 10
19934 397 132 39
19935 397 695 61
19936 397 488 90
19937 397 350 58
19938 397 250 82
19939 397 840 63
19940 397 292 30
19941 397 868 46
19942 397 640 28
19943 397 460 53
19944 397 996 77
19945 397 743 9
19946 397 920 40
19947 397 403 73
19948 397 315 55
19949 397 153 58
19950 397 500 62
19951 397 427 74
19952 397 913 65
19953 397 17 73
19954 397 78 87
19955 397 823 95
19956 397 687 13
19957 397 367 48
19958 397 477 23
19959 397 118 98
19960 397 846 66
19961 397 874 24
19962 397 256 6
19963 398 747 50
19964 398 516 52
19965 398 25 53
19966 398 643 17
19967 398 118 25
19968 398 425 54
19969 398 447 18
19970 398 874 79
19971 398 707 87
19972 398 690 70
19973 398 462 11
19974 398 556 86
19975 398 211 57
19976 398 694 7
19977 398 632 26
19978 398 524 98
19979 398 714 45
19980 398 983 83
19981 398 112 65
19982 398 622 27
19983 398 295 14
19984 398 32 89
19985 398 145 58
19986 398 121 22
19987 398 940 17
19988 398 23 3
19989 398 199 27
19990 398 264 47
19991 398 369 2
19992 398 959 1
19993 398 741 68
19994 398 653 59
19995 398 402 52
19996 398 649 91
19997 398 776 12
19998 398 521 82
19999 398 502 89
20000 398 314 49
20001 398 362 15
20002 398 860 76
20003 398 721 17
20004 398 15 58
20005 398 790 80
20006 398 722 46
20007 398 165 15
20008 399 475 23
20009 399 839 80
20010 399 294 14
20011 399 127 1
20012 399 832 18
20013 399 55 67
20014 399 356 9
20015 399 320 26
20016 399 809 11
20017 399 231 37
20018 399 950 54
20019 399 493 81
20020 399 291 99
20021 399 468 75
20022 399 45 88
20023 399 581 68
20024 399 239 95
20025 399 728 39
20026 399 270 57
20027 399 15 72
20028 399 836 29
20029 399 459 14
20030 399 146 12
20031 399 121 35
20032 399 261 19
20033 399 488 91
20034 399 851 90
20035 399 675 44
20036 399 52 7
20037 399 923 43
20038 399 757 76
20039 399 6 58
20040 399 482 78
20041 399 750 25
20042 399 927 22
20043 399 381 28
20044 399 259 13
20045 399 500 86
20046 399 321 34
20047 399 932 14
20048 399 449 22
20049 399 283 59
20050 399 133 69
20051 399 298 86
20052 399 422 66
20053 399 390 44
20054 399 896 47
20055 399 378 39
20056 399 683 92
20057 399 885 40
20058 399 858 41
20059 399 797 68
20060 399 947 62
20061 399 180 43
20062 399 773 28
20063 399 526 31
20064 399 513 24
20065 400 476 29
20066 400 984 61
20067 400 872 60
20068 400 310 71
20069 400 159 60
20070 400 955 34
20071 400 331 50
20072 400 516 91
20073 400 783 69
20074 400 854 38
20075 400 483 85
20076 400 219 20
20077 400 970 46
20078 400 415 41
20079 400 36 32
20080 400 470 30
20081 400 876 13
20082 400 641 98
20083 400 194 91
20084 400 881 7
20085 400 90 19
20086 400 8 59
20087 400 714 99
20088 400 978 89
20089 400 576 84
20090 400 826 9
20091 400 157 9
20092 400 241 52
20093 400 405 75
20094 400 850 49
20095 400 617 69
20096 400 308 77
20097 400 531 55
20098 400 925 46
20099 400 279 48
20100 400 859 13
20101 400 430 68
20102 400 181 76
20103 400 475 66
20104 400 125 71
20105 401 749 12
20106 401 380 36
20107 401 959 19
20108 401 290 60
20109 401 722 100
20110 401 294 99
20111 401 695 19
20112 401 369 61
20113 401 857 10
20114 401 176 43
20115 401 572 79
20116 401 921 38
20117 401 514 77
20118 401 534 7
20119 401 438 24
20120 401 463 79
20121 401 714 72
20122 401 683 87
20123 401 774 2
20124 401 373 17
20125 401 964 75
20126 401 995 85
20127 401 86 17
20128 401 516 51
20129 401 237 53
20130 401 420 40
20131 401 403 65
20132 401 899 16
20133 401 378 98
20134 401 526 17
20135 401 145 55
20136 401 679 70
20137 401 926 3
20138 401 284 97
20139 401 384 56
20140 401 928 92
20141 401 391 68
20142 401 271 26
20143 401 272 91
20144 401 641 74
20145 401 456 65
20146 401 894 24
20147 401 640 63
20148 401 887 66
20149 401 136 34
20150 401 166 10
20151 401 712 46
20152 401 778 68
20153 401 655 48
20154 402 171 46
20155 402 673 48
20156 402 513 52
20157 402 178 6
20158 402 641 39
20159 402 530 15
20160 402 25 38
20161 402 783 29
20162 402 259 53
20163 402 255 93
20164 402 293 55
20165 402 550 100
20166 402 316 69
20167 402 621 46
20168 402 345 1
20169 402 566 91
20170 402 159 3
20171 402 324 91
20172 402 939 54
20173 402 323 73
20174 402 809 96
20175 402 754 54
20176 402 635 58
20177 402 41 3
20178 402 44 4
20179 402 841 32
20180 402 819 98
20181 402 602 7
20182 402 9 12
20183 402 604 42
20184 402 469 16
20185 402 124 85
20186 402 677 50
20187 402 648 45
20188 402 456 25
20189 402 33 45
20190 402 737 77
20191 402 96 68
20192 402 536 69
20193 402 486 86
20194 402 132 44
20195 402 3 97
20196 402 18 47
20197 403 177 51
20198 403 864 63
20199 403 455 41
20200 403 529 28
20201 403 132 5
20202 403 804 31
20203 403 759 62
20204 403 337 5
20205 403 129 17
20206 403 802 9
20207 403 397 81
20208 403 828 11
20209 403 499 83
20210 403 226 38
20211 403 385 5
20212 403 193 87
20213 403 981 22
20214 403 415 68
20215 403 27 13
20216 403 937 27
20217 403 706 14
20218 403 858 90
20219 403 873 87
20220 403 141 72
20221 403 392 54
20222 403 914 9
20223 403 595 55
20224 403 689 6
20225 403 412 86
20226 403 989 13
20227 403 69 30
20228 403 934 83
20229 403 839 66
20230 403 398 39
20231 403 163 44
20232 403 457 78
20233 403 488 98
20234 403 846 75
20235 403 820 53
20236 403 33 6
20237 403 625 63
20238 403 292 57
20239 403 611 12
20240 403 124 2
20241 403 272 37
20242 403 347 72
20243 403 71 92
20244 403 32 92
20245 403 171 15
20246 403 353 12
20247 403 349 35
20248 403 365 39
20249 403 344 62
20250 403 324 80
20251 403 246 39
20252 403 81 42
20253 403 478 17
20254 403 814 12
20255 403 466 53
20256 404 284 98
20257 404 181 80
20258 404 744 73
20259 404 982 6
20260 404 541 87
20261 404 199 75
20262 404 392 92
20263 404 501 48
20264 404 11 41
20265 404 965 31
20266 404 637 59
20267 404 718 36
20268 404 600 9
20269 404 363 91
20270 404 782 21
20271 404 36 79
20272 404 276 91
20273 404 485 44
20274 404 908 67
20275 404 749 42
20276 404 448 89
20277 404 887 68
20278 404 967 72
20279 404 459 92
20280 404 666 21
20281 404 423 24
20282 404 46 75
20283 404 81 40
20284 404 837 96
20285 404 777 82
20286 404 955 9
20287 404 77 90
20288 404 599 95
20289 404 752 19
20290 404 705 87
20291 404 870 51
20292 404 720 91
20293 404 494 23
20294 404 462 50
20295 404 257 77
20296 404 400 4
20297 404 31 4
20298 404 779 35
20299 404 673 10
20300 404 977 80
20301 404 574 79
20302 404 285 17
20303 404 56 48
20304 404 671 35
20305 404 115 3
20306 405 608 84
20307 405 771 31
20308 405 144 50
20309 405 513 55
20310 405 274 30
20311 405 429 19
20312 405 832 73
20313 405 806 30
20314 405 271 28
20315 405 586 51
20316 405 725 31
20317 405 542 31
20318 405 499 65
20319 405 330 19
20320 405 937 47
20321 405 432 58
20322 405 216 16
20323 405 791 72
20324 405 747 79
20325 405 404 12
20326 405 618 44
20327 405 310 83
20328 405 346 69
20329 405 883 37
20330 405 965 54
20331 405 700 87
20332 405 990 36
20333 405 646 53
20334 405 411 98
20335 405 656 97
20336 405 763 87
20337 405 694 12
20338 405 374 47
20339 405 650 14
20340 405 493 45
20341 405 996 17
20342 405 693 31
20343 405 115 5
20344 405 154 50
20345 405 701 98
20346 405 714 93
20347 405 300 31
20348 405 103 57
20349 405 605 93
20350 405 591 26
20351 405 839 53
20352 405 562 39
20353 406 101 78
20354 406 652 72
20355 406 159 5
20356 406 883 76
20357 406 572 27
20358 406 680 53
20359 406 981 22
20360 406 950 80
20361 406 740 96
20362 406 441 85
20363 406 591 96
20364 406 610 57
20365 406 87 29
20366 406 428 98
20367 406 18 15
20368 406 917 7
20369 406 559 65
20370 406 673 44
20371 406 458 4
20372 406 337 26
20373 406 945 59
20374 406 322 26
20375 406 966 83
20376 406 631 68
20377 406 172 20
20378 406 317 62
20379 406 762 48
20380 406 491 74
20381 406 938 61
20382 406 808 91
20383 406 778 16
20384 406 344 3
20385 406 696 75
20386 406 454 94
20387 406 423 23
20388 406 386 66
20389 406 861 83
20390 406 780 62
20391 406 224 33
20392 406 914 71
20393 406 381 91
20394 406 124 1
20395 406 700 68
20396 406 268 15
20397 406 815 78
20398 406 248 35
20399 406 459 23
20400 406 307 25
20401 406 869 66
20402 406 790 42
20403 406 493 57
20404 406 308 55
20405 407 745 70
20406 407 843 14
20407 407 630 38
20408 407 443 79
20409 407 972 78
20410 407 487 12
20411 407 400 50
20412 407 444 4
20413 407 265 31
20414 407 654 90
20415 407 207 29
20416 407 696 38
20417 407 92 87
20418 407 54 38
20419 407 692 48
20420 407 636 52
20421 407 421 54
20422 407 583 4
20423 407 676 6
20424 407 565 40
20425 407 254 36
20426 407 252 4
20427 407 753 72
20428 407 877 73
20429 407 250 1
20430 407 700 90
20431 407 773 14
20432 407 725 35
20433 407 886 25
20434 407 322 39
20435 407 825 95
20436 407 899 59
20437 407 768 95
20438 407 169 92
20439 407 493 50
20440 407 29 57
20441 407 747 18
20442 407 943 53
20443 407 896 64
20444 407 607 25
20445 407 510 79
20446 407 998 22
20447 407 175 76
20448 407 755 82
20449 407 689 61
20450 407 159 87
20451 407 567 16
20452 407 210 46
20453 407 893 47
20454 407 309 66
20455 407 938 25
20456 407 103 41
20457 408 19 94
20458 408 923 82
20459 408 985 8
20460 408 522 63
20461 408 777 11
20462 408 9 98
20463 408 252 49
20464 408 959 92
20465 408 73 78
20466 408 30 32
20467 408 993 58
20468 408 242 38
20469 408 243 94
20470 408 571 20
20471 408 631 96
20472 408 842 98
20473 408 794 54
20474 408 69 15
20475 408 370 55
20476 408 626 48
20477 408 307 6
20478 408 15 78
20479 408 161 16
20480 408 197 8
20481 408 454 50
20482 408 364 22
20483 408 544 5
20484 408 486 18
20485 408 255 17
20486 408 932 85
20487 408 935 1
20488 408 772 80
20489 408 493 57
20490 408 941 69
20491 408 386 88
20492 408 755 32
20493 408 266 87
20494 408 578 68
20495 408 360 37
20496 408 367 70
20497 408 496 22
20498 408 342 71
20499 408 376 89
20500 408 254 17
20501 408 648 84
20502 408 94 100
20503 408 946 83
20504 408 608 61
20505 408 265 39
20506 408 21 90
20507 408 659 80
20508 408 138 35
20509 408 422 68
20510 408 228 59
20511 408 806 1
20512 408 216 92
20513 408 139 97
20514 408 223 81
20515 408 931 46
20516 408 16 28
20517 408 2 86
20518 408 712 4
20519 408 317 89
20520 408 186 22
20521 409 55 51
20522 409 694 52
20523 409 27 29
20524 409 30 55
20525 409 590 39
20526 409 800 98
20527 409 176 98
20528 409 571 32
20529 409 459 15
20530 409 700 71
20531 409 975 9
20532 409 403 70
20533 409 886 76
20534 409 871 91
20535 409 663 88
20536 409 953 9
20537 409 102 2
20538 409 725 37
20539 409 490 47
20540 409 257 13
20541 409 413 28
20542 409 406 19
20543 409 589 27
20544 409 653 10
20545 409 654 85
20546 409 183 80
20547 409 603 92
20548 409 688 100
20549 409 947 13
20550 409 465 87
20551 409 299 85
20552 409 69 40
20553 409 114 91
20554 409 297 96
20555 409 327 57
20556 409 141 8
20557 409 238 74
20558 409 321 15
20559 409 335 67
20560 409 4 7
20561 409 415 88
20562 409 383 40
20563 409 628 57
20564 409 854 38
20565 409 840 65
20566 409 746 28
20567 409 946 43
20568 409 968 68
20569 409 390 23
20570 409 611 3
20571 409 181 6
20572 410 483 99
20573 410 977 25
20574 410 726 40
20575 410 467 5
20576 410 45 85
20577 410 538 39
20578 410 987 7
20579 410 693 97
20580 410 296 100
20581 410 840 7
20582 410 110 85
20583 410 322 35
20584 410 122 75
20585 410 507 86
20586 410 559 54
20587 410 956 81
20588 410 900 65
20589 410 961 94
20590 410 833 95
20591 410 564 28
20592 410 65 2
20593 410 4 85
20594 410 749 31
20595 410 465 38
20596 410 593 13
20597 410 877 96
20598 410 172 43
20599 410 635 43
20600 410 678 44
20601 410 624 68
20602 410 909 7
20603 410 724 61
20604 410 917 64
20605 410 700 43
20606 410 907 39
20607 410 17 71
20608 410 290 46
20609 410 654 92
20610 410 931 22
20611 410 393 62
20612 410 796 55
20613 410 986 23
20614 410 330 64
20615 411 333 87
20616 411 821 92
20617 411 803 30
20618 411 838 1
20619 411 512 3
20620 411 191 39
20621 411 216 67
20622 411 766 3
20623 411 149 13
20624 411 544 6
20625 411 601 27
20626 411 458 81
20627 411 563 82
20628 411 185 5
20629 411 513 49
20630 411 374 57
20631 411 594 100
20632 411 611 10
20633 411 279 19
20634 411 925 24
20635 411 207 76
20636 411 598 29
20637 411 940 87
20638 411 267 93
20639 411 380 11
20640 411 665 35
20641 411 410 6
20642 411 545 27
20643 411 21 84
20644 411 318 59
20645 411 150 84
20646 411 495 39
20647 411 832 43
20648 411 64 87
20649 411 394 57
20650 411 533 22
20651 411 296 31
20652 411 203 80
20653 411 426 39
20654 411 739 21
20655 411 22 16
20656 411 572 37
20657 411 114 24
20658 411 571 41
20659 411 386 32
20660 411 471 98
20661 411 29 65
20662 411 102 74
20663 411 967 43
20664 411 806 5
20665 411 118 92
20666 411 254 54
20667 411 387 48
20668 412 639 19
20669 412 477 62
20670 412 66 49
20671 412 508 89
20672 412 891 91
20673 412 764 30
20674 412 48 68
20675 412 35 85
20676 412 945 60
20677 412 802 18
20678 412 949 36
20679 412 807 93
20680 412 127 22
20681 412 620 68
20682 412 660 21
20683 412 309 83
20684 412 83 76
20685 412 61 46
20686 412 536 59
20687 412 230 75
20688 412 368 63
20689 412 297 39
20690 412 478 31
20691 412 306 66
20692 412 360 40
20693 412 40 48
20694 412 26 19
20695 412 145 48
20696 412 531 58
20697 412 316 2
20698 412 962 61
20699 412 573 13
20700 412 773 82
20701 412 618 22
20702 412 750 89
20703 412 989 97
20704 412 220 68
20705 412 507 67
20706 412 701 26
20707 412 443 1
20708 412 819 68
20709 412 307 15
20710 412 249 93
20711 412 456 65
20712 412 484 13
20713 412 246 34
20714 413 662 16
20715 413 364 45
20716 413 782 92
20717 413 306 80
20718 413 196 25
20719 413 302 28
20720 413 118 87
20721 413 142 76
20722 413 360 11
20723 413 804 86
20724 413 909 50
20725 413 370 62
20726 413 178 54
20727 413 836 31
20728 413 524 32
20729 413 25 55
20730 413 96 100
20731 413 602 46
20732 413 820 13
20733 413 24 7
20734 413 513 90
20735 413 325 14
20736 413 492 34
20737 413 435 38
20738 413 594 89
20739 413 724 82
20740 413 368 20
20741 413 667 69
20742 413 565 43
20743 413 672 39
20744 413 389 5
20745 413 329 14
20746 413 767 46
20747 413 355 77
20748 413 851 67
20749 413 533 37
20750 413 123 17
20751 413 774 21
20752 413 404 16
20753 413 282 49
20754 413 871 63
20755 413 856 39
20756 413 251 32
20757 413 154 15
20758 413 713 73
20759 413 660 48
20760 413 982 52
20761 413 769 17
20762 413 475 2
20763 413 544 58
20764 413 208 1
20765 413 682 99
20766 413 954 82
20767 413 31 70
20768 414 712 93
20769 414 733 21
20770 414 708 37
20771 414 282 76
20772 414 376 67
20773 414 769 68
20774 414 347 15
20775 414 182 14
20776 414 635 43
20777 414 972 57
20778 414 952 25
20779 414 90 47
20780 414 489 66
20781 414 149 66
20782 414 293 45
20783 414 427 71
20784 414 550 57
20785 414 622 11
20786 414 360 18
20787 414 563 94
20788 414 224 96
20789 414 637 59
20790 414 657 99
20791 414 612 98
20792 414 234 70
20793 414 984 94
20794 414 154 94
20795 414 308 64
20796 414 848 89
20797 414 605 20
20798 414 420 74
20799 414 94 53
20800 414 817 85
20801 414 751 57
20802 414 106 33
20803 414 161 73
20804 414 588 41
20805 414 654 59
20806 414 275 24
20807 414 949 78
20808 414 459 75
20809 414 689 90
20810 415 268 27
20811 415 196 34
20812 415 807 47
20813 415 3 74
20814 415 433 45
20815 415 856 6
20816 415 384 52
20817 415 408 21
20818 415 569 36
20819 415 207 28
20820 415 10 85
20821 415 937 18
20822 415 998 35
20823 415 958 56
20824 415 573 50
20825 415 361 49
20826 415 378 62
20827 415 576 91
20828 415 252 53
20829 415 282 39
20830 415 707 85
20831 415 752 42
20832 415 618 63
20833 415 712 7
20834 415 56 39
20835 415 730 52
20836 415 632 97
20837 415 171 89
20838 415 924 69
20839 415 210 73
20840 415 803 70
20841 415 560 9
20842 415 30 74
20843 415 861 45
20844 415 318 64
20845 415 660 3
20846 415 962 12
20847 415 977 3
20848 415 289 32
20849 415 993 34
20850 415 200 72
20851 415 702 31
20852 415 307 61
20853 415 173 24
20854 415 395 23
20855 415 144 23
20856 415 267 60
20857 416 687 7
20858 416 102 63
20859 416 475 33
20860 416 779 23
20861 416 559 61
20862 416 989 64
20863 416 364 13
20864 416 138 74
20865 416 668 24
20866 416 264 64
20867 416 577 73
20868 416 257 79
20869 416 63 42
20870 416 726 51
20871 416 583 29
20872 416 644 98
20873 416 763 87
20874 416 679 80
20875 416 476 92
20876 416 482 28
20877 416 107 15
20878 416 707 17
20879 416 657 83
20880 416 224 54
20881 416 471 91
20882 416 759 77
20883 416 585 42
20884 416 173 25
20885 416 800 53
20886 416 973 81
20887 416 239 86
20888 416 983 79
20889 416 26 85
20890 416 56 19
20891 416 103 29
20892 416 186 89
20893 416 794 97
20894 416 589 95
20895 416 515 100
20896 416 422 18
20897 416 704 95
20898 416 981 79
20899 416 820 68
20900 416 346 91
20901 417 931 53
20902 417 754 20
20903 417 813 2
20904 417 447 30
20905 417 405 80
20906 417 165 77
20907 417 624 54
20908 417 933 84
20909 417 683 56
20910 417 203 62
20911 417 186 18
20912 417 383 32
20913 417 814 50
20914 417 554 93
20915 417 702 89
20916 417 752 45
20917 417 257 49
20918 417 371 44
20919 417 410 45
20920 417 959 36
20921 417 115 47
20922 417 309 49
20923 417 889 47
20924 417 301 7
20925 417 634 58
20926 417 374 44
20927 417 238 60
20928 417 922 88
20929 417 949 78
20930 417 626 69
20931 417 434 99
20932 417 87 11
20933 417 939 77
20934 417 282 1
20935 417 0 83
20936 417 23 72
20937 417 441 28
20938 417 178 91
20939 417 606 80
20940 417 231 81
20941 417 233 99
20942 417 711 13
20943 417 899 74
20944 417 131 20
20945 417 201 61
20946 417 696 14
20947 418 780 69
20948 418 452 18
20949 418 442 39
20950 418 481 26
20951 418 982 66
20952 418 943 67
20953 418 658 40
20954 418 569 64
20955 418 380 68
20956 418 383 59
20957 418 767 93
20958 418 751 42
20959 418 367 90
20960 418 104 66
20961 418 371 5
20962 418 467 65
20963 418 79 73
20964 418 995 70
20965 418 364 97
20966 418 850 54
20967 418 648 95
20968 418 891 49
20969 418 391 51
20970 418 456 33
20971 418 483 63
20972 418 963 6
20973 418 681 16
20974 418 813 53
20975 418 527 5
20976 418 233 17
20977 418 638 48
20978 418 984 33
20979 418 246 69
20980 418 907 49
20981 418 187 18
20982 418 857 73
20983 418 306 52
20984 418 555 70
20985 418 113 79
20986 418 866 89
20987 418 274 1
20988 418 972 2
20989 418 594 42
20990 418 880 24
20991 418 20 36
20992 418 821 58
20993 418 690 81
20994 418 416 48
20995 418 85 99
20996 418 25 91
20997 418 727 57
20998 418 599 80
20999 418 826 87
21000 418 80 75
21001 419 711 7
21002 419 431 92
21003 419 317 41
21004 419 14 80
21005 419 49 94
21006 419 701 39
21007 419 650 32
21008 419 661 77
21009 419 70 27
21010 419 26 90
21011 419 684 91
21012 419 100 74
21013 419 106 34
21014 419 611 47
21015 419 554 8
21016 419 589 64
21017 419 601 80
21018 419 168 83
21019 419 879 46
21020 419 567 5
21021 419 977 3
21022 419 507 64
21023 419 290 48
21024 419 992 13
21025 419 421 47
21026 419 874 87
21027 419 422 96
21028 419 304 2
21029 419 896 55
21030 419 105 8
21031 419 614 72
21032 419 907 57
21033 419 24 90
21034 419 579 6
21035 419 318 45
21036 419 27 96
21037 419 461 100
21038 419 207 75
21039 419 738 21
21040 419 962 28
21041 419 797 39
21042 419 901 99
21043 419 778 55
21044 419 588 88
21045 419 871 58
21046 419 262 51
21047 419 129 74
21048 419 924 16
21049 419 319 45
21050 419 403 45
21051 420 287 90
21052 420 913 22
21053 420 63 89
21054 420 855 96
21055 420 826 54
21056 420 24 26
21057 420 120 23
21058 420 446 38
21059 420 800 68
21060 420 629 63
21061 420 252 71
21062 420 973 76
21063 420 387 52
21064 420 309 99
21065 420 787 69
21066 420 767 45
21067 420 81 20
21068 420 220 44
21069 420 929 37
21070 420 843 12
21071 420 585 98
21072 420 186 8
21073 420 906 65
21074 420 572 6
21075 420 368 78
21076 420 374 42
21077 420 670 57
21078 420 142 97
21079 420 676 77
21080 420 202 50
21081 420 242 78
21082 420 101 36
21083 420 385 25
21084 420 598 16
21085 420 496 88
21086 420 357 10
21087 420 16 24
21088 420 54 95
21089 420 795 89
21090 420 215 70
21091 420 399 56
21092 420 625 49
21093 420 129 44
21094 420 77 24
21095 420 33 52
21096 420 540 45
21097 420 225 70
21098 420 839 4
21099 420 594 57
21100 420 712 62
21101 420 184 95
21102 420 981 93
21103 420 294 56
21104 420 830 20
21105 420 684 10
21106 420 556 76
21107 420 429 57
21108 420 977 83
21109 420 804 23
21110 420 267 15
21111 420 561 2
21112 420 352 4
21113 420 412 68
21114 421 532 77
21115 421 181 35
21116 421 175 5
21117 421 725 64
21118 421 1 74
21119 421 747 27
21120 421 523 95
21121 421 766 46
21122 421 965 87
21123 421 280 20
21124 421 249 3
21125 421 808 97
21126 421 664 90
21127 421 765 37
21128 421 314 94
21129 421 600 3
21130 421 219 27
21131 421 182 85
21132 421 231 78
21133 421 699 1
21134 421 986 98
21135 421 378 90
21136 421 889 12
21137 421 284 86
21138 421 609 100
21139 421 38 36
21140 421 693 84
21141 421 123 5
21142 421 286 95
21143 421 946 32
21144 421 244 34
21145 421 944 48
21146 421 341 63
21147 421 714 15
21148 421 989 32
21149 421 767 52
21150 421 976 65
21151 421 340 52
21152 421 758 76
21153 421 166 50
21154 421 373 83
21155 421 950 48
21156 421 91 30
21157 421 787 40
21158 421 124 63
21159 421 276 32
21160 421 555 31
21161 421 161 9
21162 422 409 63
21163 422 868 53
21164 422 334 17
21165 422 175 28
21166 422 941 26
21167 422 439 99
21168 422 56 41
21169 422 926 33
21170 422 53 67
21171 422 528 15
21172 422 666 20
21173 422 815 7
21174 422 473 5
21175 422 987 10
21176 422 778 39
21177 422 73 79
21178 422 579 92
21179 422 543 10
21180 422 492 8
21181 422 425 11
21182 422 474 13
21183 422 922 81
21184 422 403 58
21185 422 280 30
21186 422 117 74
21187 422 952 76
21188 422 645 8
21189 422 0 50
21190 422 549 72
21191 422 119 10
21192 422 498 97
21193 422 935 78
21194 422 959 17
21195 422 665 34
21196 422 11 85
21197 422 764 60
21198 422 151 2
21199 422 162 65
21200 422 385 83
21201 422 90 37
21202 422 40 79
21203 422 445 41
21204 422 762 91
21205 422 414 17
21206 422 577 99
21207 422 829 88
21208 422 291 91
21209 422 805 92
21210 422 357 25
21211 423 140 85
21212 423 459 77
21213 423 970 78
21214 423 45 3
21215 423 274 75
21216 423 198 66
21217 423 737 4
21218 423 188 52
21219 423 560 89
21220 423 417 33
21221 423 637 91
21222 423 747 5
21223 423 917 70
21224 423 12 83
21225 423 135 84
21226 423 855 36
21227 423 987 74
21228 423 971 55
21229 423 918 11
21230 423 467 28
21231 423 355 8
21232 423 948 41
21233 423 567 58
21234 423 824 23
21235 423 170 42
21236 423 343 24
21237 423 485 57
21238 423 119 31
21239 423 578 80
21240 423 923 75
21241 423 316 2
21242 423 310 56
21243 423 534 58
21244 423 410 7
21245 423 276 48
21246 423 220 95
21247 423 721 49
21248 423 420 100
21249 423 642 37
21250 423 350 26
21251 423 617 46
21252 423 547 43
21253 423 300 63
21254 423 389 38
21255 423 528 8
21256 423 505 100
21257 423 286 91
21258 423 935 46
21259 423 38 95
21260 424 972 96
21261 424 179 56
21262 424 46 45
21263 424 641 77
21264 424 576 47
21265 424 685 61
21266 424 723 85
21267 424 448 48
21268 424 156 32
21269 424 666 68
21270 424 801 19
21271 424 244 43
21272 424 844 73
21273 424 925 17
21274 424 990 60
21275 424 633 31
21276 424 573 37
21277 424 617 64
21278 424 922 43
21279 424 858 95
21280 424 517 93
21281 424 826 64
21282 424 798 17
21283 424 769 65
21284 424 233 50
21285 424 909 98
21286 424 219 92
21287 424 157 9
21288 424 62 34
21289 424 25 12
21290 424 569 36
21291 424 523 75
21292 424 995 16
21293 424 117 84
21294 424 664 89
21295 424 459 78
21296 424 110 45
21297 424 759 89
21298 424 115 73
21299 424 709 40
21300 424 239 40
21301 424 888 54
21302 424 510 1
21303 424 283 9
21304 424 661 68
21305 424 15 30
21306 424 146 56
21307 424 98 68
21308 424 930 71
21309 424 492 32
21310 424 739 30
21311 425 238 52
21312 425 943 51
21313 425 598 33
21314 425 759 87
21315 425 66 68
21316 425 639 35
21317 425 79 76
21318 425 64 37
21319 425 141 62
21320 425 524 51
21321 425 268 66
21322 425 733 66
21323 425 769 92
21324 425 628 73
21325 425 511 6
21326 425 20 12
21327 425 94 57
21328 425 288 29
21329 425 813 69
21330 425 517 87
21331 425 389 13
21332 425 221 10
21333 425 1 77
21334 425 638 90
21335 425 625 79
21336 425 584 95
21337 425 866 62
21338 425 810 47
21339 425 99 21
21340 425 834 45
21341 425 342 15
21342 425 193 75
21343 425 124 12
21344 425 418 21
21345 425 997 21
21346 425 621 75
21347 425 243 1
21348 425 659 23
21349 425 642 64
21350 425 743 45
21351 426 621 80
21352 426 112 11
21353 426 429 46
21354 426 686 15
21355 426 439 98
21356 426 356 88
21357 426 974 37
21358 426 231 52
21359 426 613 18
21360 426 843 39
21361 426 954 73
21362 426 478 75
21363 426 465 99
21364 426 574 83
21365 426 19 62
21366 426 323 40
21367 426 113 77
21368 426 741 82
21369 426 265 93
21370 426 813 3
21371 426 929 82
21372 426 220 64
21373 426 162 2
21374 426 70 66
21375 426 990 79
21376 426 792 45
21377 426 68 32
21378 426 970 55
21379 426 206 33
21380 426 292 26
21381 426 383 51
21382 426 733 64
21383 426 427 13
21384 426 287 13
21385 426 919 73
21386 426 858 91
21387 426 593 29
21388 426 171 38
21389 426 87 15
21390 426 195 22
21391 426 665 44
21392 426 489 13
21393 426 799 52
21394 426 749 89
21395 426 636 28
21396 427 234 65
21397 427 395 76
21398 427 678 89
21399 427 544 79
21400 427 921 51
21401 427 968 36
21402 427 238 42
21403 427 40 62
21404 427 837 41
21405 427 754 48
21406 427 97 41
21407 427 539 26
21408 427 386 10
21409 427 744 12
21410 427 812 43
21411 427 889 5
21412 427 664 77
21413 427 704 18
21414 427 897 31
21415 427 946 62
21416 427 48 95
21417 427 767 31
21418 427 876 23
21419 427 215 91
21420 427 469 77
21421 427 310 16
21422 427 605 93
21423 427 689 8
21424 427 355 53
21425 427 874 34
21426 427 202 13
21427 427 30 90
21428 427 909 56
21429 427 362 38
21430 427 753 61
21431 427 42 93
21432 427 806 55
21433 427 924 75
21434 428 421 42
21435 428 487 35
21436 428 939 19
21437 428 732 34
21438 428 972 13
21439 428 534 45
21440 428 89 38
21441 428 763 79
21442 428 901 91
21443 428 218 45
21444 428 16 59
21445 428 827 66
21446 428 143 98
21447 428 904 38
21448 428 646 52
21449 428 602 98
21450 428 246 22
21451 428 273 18
21452 428 420 58
21453 428 317 70
21454 428 927 61
21455 428 898 53
21456 428 268 34
21457 428 587 69
21458 428 294 41
21459 428 493 63
21460 428 902 33
21461 428 200 69
21462 428 635 97
21463 428 814 41
21464 428 73 51
21465 428 78 61
21466 428 663 95
21467 428 329 25
21468 428 851 37
21469 428 184 97
21470 428 751 99
21471 428 267 82
21472 428 709 61
21473 428 122 49
21474 428 954 49
21475 428 209 65
21476 428 3 86
21477 428 796 40
21478 428 609 52
21479 428 546 72
21480 428 57 4
21481 428 857 93
21482 428 652 44
21483 428 983 2
21484 428 995 96
21485 428 419 71
21486 428 120 37
21487 428 368 77
21488 428 568 59
21489 428 55 97
21490 428 940 34
21491 428 913 18
21492 428 443 18
21493 429 736 63
21494 429 938 27
21495 429 327 35
21496 429 876 64
21497 429 653 91
21498 429 216 100
21499 429 652 45
21500 429 886 81
21501 429 869 55
21502 429 409 41
21503 429 425 1
21504 429 104 79
21505 429 208 53
21506 429 768 6
21507 429 744 55
21508 429 833 76
21509 429 335 18
21510 429 219 60
21511 429 808 25
21512 429 192 44
21513 429 209 24
21514 429 183 47
21515 429 391 34
21516 429 620 16
21517 429 171 60
21518 429 229 10
21519 429 803 99
21520 429 905 39
21521 429 477 29
21522 429 820 39
21523 429 337 45
21524 429 988 94
21525 429 362 62
21526 429 689 58
21527 429 611 19
21528 429 465 88
21529 429 801 38
21530 429 918 13
21531 429 450 69
21532 429 43 94
21533 429 943 81
21534 429 663 18
21535 429 187 11
21536 429 433 69
21537 429 993 7
21538 429 368 60
21539 429 878 55
21540 429 493 26
21541 429 646 90
21542 429 995 31
21543 429 591 68
21544 429 487 56
21545 429 180 16
21546 429 309 66
21547 430 448 81
21548 430 320 9
21549 430 402 84
21550 430 390 67
21551 430 643 92
21552 430 42 56
21553 430 88 6
21554 430 259 12
21555 430 667 9
21556 430 457 20
21557 430 406 64
21558 430 39 19
21559 430 852 91
21560 430 66 24
21561 430 272 24
21562 430 625 79
21563 430 744 20
21564 430 80 59
21565 430 607 97
21566 430 509 29
21567 430 642 5
21568 430 652 68
21569 430 484 76
21570 430 173 51
21571 430 552 37
21572 430 171 11
21573 430 404 85
21574 430 887 1
21575 430 310 6
21576 430 951 81
21577 430 558 62
21578 430 447 16
21579 430 945 47
21580 430 254 56
21581 430 766 9
21582 430 192 92
21583 430 537 31
21584 430 323 20
21585 430 880 4
21586 430 256 72
21587 430 764 79
21588 430 166 30
21589 430 169 35
21590 430 264 20
21591 430 867 39
21592 430 19 39
21593 430 771 83
21594 430 11 76
21595 431 869 56
21596 431 546 78
21597 431 350 2
21598 431 411 39
21599 431 340 29
21600 431 830 82
21601 431 290 38
21602 431 996 71
21603 431 18 29
21604 431 0 56
21605 431 326 1
21606 431 995 72
21607 431 972 13
21608 431 10 63
21609 431 749 93
21610 431 274 41
21611 431 568 94
21612 431 623 74
21613 431 177 78
21614 431 919 28
21615 431 415 56
21616 431 773 55
21617 431 827 19
21618 431 567 91
21619 431 412 95
21620 431 410 26
21621 431 780 96
21622 431 891 87
21623 431 712 81
21624 431 283 73
21625 431 601 58
21626 431 614 28
21627 431 242 81
21628 431 656 96
21629 431 445 35
21630 431 885 9
21631 431 163 25
21632 431 475 41
21633 431 738 85
21634 431 143 40
21635 431 23 34
21636 431 894 58
21637 431 168 68
21638 431 807 9
21639 431 135 39
21640 431 485 24
21641 431 285 28
21642 431 264 28
21643 431 359 73
21644 431 524 52
21645 431 451 19
21646 431 532 48
21647 431 628 63
21648 431 833 61
21649 432 952 24
21650 432 174 35
21651 432 404 88
21652 432 198 64
21653 432 644 83
21654 432 498 17
21655 432 613 64
21656 432 82 76
21657 432 763 79
21658 432 896 88
21659 432 610 75
21660 432 79 58
21661 432 169 100
21662 432 548 77
21663 432 537 36
21664 432 659 87
21665 432 397 37
21666 432 779 96
21667 432 619 54
21668 432 365 76
21669 432 530 39
21670 432 521 44
21671 432 492 47
21672 432 565 85
21673 432 554 95
21674 432 584 21
21675 432 213 43
21676 432 852 39
21677 432 769 73
21678 432 241 83
21679 432 341 24
21680 432 605 70
21681 432 710 25
21682 432 899 69
21683 432 345 80
21684 432 130 77
21685 432 976 54
21686 432 829 57
21687 432 10 40
21688 432 687 32
21689 432 482 43
21690 432 483 61
21691 432 709 71
21692 432 518 83
21693 432 424 75
21694 432 576 56
21695 432 872 31
21696 432 700 99
21697 432 235 36
21698 432 752 30
21699 432 796 32
21700 432 301 15
21701 432 953 87
21702 433 812 5
21703 433 274 37
21704 433 660 67
21705 433 577 29
21706 433 351 1
21707 433 341 62
21708 433 722 45
21709 433 697 13
21710 433 743 94
21711 433 133 42
21712 433 290 35
21713 433 199 59
21714 433 549 99
21715 433 816 31
21716 433 937 24
21717 433 297 40
21718 433 687 61
21719 433 181 45
21720 433 717 73
21721 433 898 30
21722 433 840 65
21723 433 455 42
21724 433 805 96
21725 433 593 74
21726 433 376 2
21727 433 537 33
21728 433 646 39
21729 433 798 26
21730 433 186 20
21731 433 402 13
21732 433 385 7
21733 433 810 8
21734 433 291 75
21735 433 196 13
21736 433 666 17
21737 433 600 87
21738 433 813 37
21739 433 187 38
21740 433 893 3
21741 433 299 67
21742 433 515 73
21743 433 251 93
21744 433 584 42
21745 433 216 73
21746 433 997 17
21747 433 568 15
21748 433 159 28
21749 433 839 55
21750 433 39 37
21751 433 169 54
21752 433 281 3
21753 433 461 22
21754 433 364 83
21755 433 567 90
21756 433 155 40
21757 433 738 84
21758 433 319 31
21759 434 440 53
21760 434 551 21
21761 434 326 50
21762 434 218 82
21763 434 355 14
21764 434 889 83
21765 434 914 2
21766 434 741 15
21767 434 492 33
21768 434 23 85
21769 434 362 4
21770 434 412 89
21771 434 965 87
21772 434 391 59
21773 434 435 9
21774 434 538 54
21775 434 902 91
21776 434 536 93
21777 434 105 37
21778 434 48 25
21779 434 65 73
21780 434 897 100
21781 434 605 70
21782 434 91 68
21783 434 869 96
21784 434 44 37
21785 434 80 90
21786 434 53 72
21787 434 870 71
21788 434 34 68
21789 434 76 74
21790 434 693 65
21791 434 749 24
21792 434 215 7
21793 434 771 84
21794 434 593 2
21795 434 908 96
21796 434 834 46
21797 434 933 87
21798 434 431 57
21799 434 266 44
21800 434 499 66
21801 434 336 92
21802 434 885 50
21803 434 7 38
21804 434 746 50
21805 434 673 66
21806 434 81 80
21807 434 164 4
21808 434 588 52
21809 434 333 16
21810 434 225 60
21811 434 26 78
21812 434 12 33
21813 434 117 96
21814 434 297 49
21815 434 47 99
21816 434 767 88
21817 435 645 90
21818 435 141 12
21819 435 785 12
21820 435 534 87
21821 435 450 29
21822 435 430 57
21823 435 682 89
21824 435 960 2
21825 435 521 73
21826 435 537 100
21827 435 65 89
21828 435 458 64
21829 435 849 46
21830 435 109 67
21831 435 771 95
21832 435 377 47
21833 435 532 19
21834 435 949 77
21835 435 888 28
21836 435 765 86
21837 435 591 96
21838 435 691 16
21839 435 852 27
21840 435 872 69
21841 435 815 5
21842 435 685 45
21843 435 327 84
21844 435 611 88
21845 435 634 20
21846 435 42 84
21847 435 988 67
21848 435 976 89
21849 435 44 92
21850 435 97 11
21851 435 938 96
21852 435 76 87
21853 435 826 100
21854 435 781 49
21855 435 203 91
21856 435 431 82
21857 435 260 27
21858 435 183 22
21859 435 133 100
21860 435 578 76
21861 435 714 68
21862 435 830 33
21863 435 480 2
21864 435 69 61
21865 435 410 14
21866 435 101 43
21867 435 702 28
21868 435 402 21
21869 435 809 28
21870 435 840 76
21871 435 72 55
21872 435 284 55
21873 435 616 31
21874 435 219 39
21875 435 47 83
21876 435 999 32
21877 435 991 57
21878 435 266 36
21879 436 567 11
21880 436 439 10
21881 436 723 16
21882 436 776 98
21883 436 691 67
21884 436 366 41
21885 436 536 74
21886 436 615 95
21887 436 324 89
21888 436 753 90
21889 436 920 81
21890 436 154 84
21891 436 825 36
21892 436 384 3
21893 436 379 7
21894 436 26 43
21895 436 839 81
21896 436 576 88
21897 436 908 32
21898 436 285 33
21899 436 81 58
21900 436 862 81
21901 436 233 26
21902 436 878 87
21903 436 429 21
21904 436 914 39
21905 436 636 46
21906 436 805 10
21907 436 707 32
21908 436 629 32
21909 436 816 43
21910 436 813 88
21911 436 245 14
21912 436 954 70
21913 436 109 75
21914 436 296 94
21915 436 33 25
21916 436 476 81
21917 436 682 64
21918 436 690 73
21919 436 489 14
21920 436 19 74
21921 436 290 19
21922 436 325 15
21923 436 696 40
21924 436 829 68
21925 436 75 36
21926 436 232 5
21927 437 470 57
21928 437 136 81
21929 437 360 85
21930 437 518 77
21931 437 730 17
21932 437 535 28
21933 437 46 7
21934 437 716 90
21935 437 478 90
21936 437 905 69
21937 437 881 39
21938 437 322 43
21939 437 573 13
21940 437 336 46
21941 437 101 86
21942 437 296 10
21943 437 852 91
21944 437 760 16
21945 437 380 48
21946 437 577 76
21947 437 130 57
21948 437 604 1
21949 437 464 85
21950 437 544 76
21951 437 539 6
21952 437 487 80
21953 437 118 18
21954 437 957 44
21955 437 266 100
21956 437 793 64
21957 437 400 41
21958 437 566 73
21959 437 434 27
21960 437 381 17
21961 437 54 42
21962 437 269 81
21963 437 248 82
21964 437 486 52
21965 437 528 1
21966 437 47 72
21967 437 300 94
21968 437 674 56
21969 437 388 10
21970 437 507 83
21971 437 350 23
21972 437 224 78
21973 437 891 64
21974 437 718 20
21975 437 425 46
21976 437 641 15
21977 437 304 14
21978 437 681 84
21979 437 362 45
21980 437 290 94
21981 437 684 47
21982 438 369 24
21983 438 57 36
21984 438 810 19
21985 438 891 54
21986 438 667 2
21987 438 307 80
21988 438 433 72
21989 438 814 57
21990 438 366 1
21991 438 691 84
21992 438 987 55
21993 438 342 72
21994 438 990 2
21995 438 522 60
21996 438 966 66
21997 438 229 91
21998 438 199 84
21999 438 150 19
22000 438 552 9
22001 438 429 82
22002 438 97 86
22003 438 164 41
22004 438 466 18
22005 438 539 28
22006 438 809 58
22007 438 29 59
22008 438 403 69
22009 438 15 12
22010 438 46 24
22011 438 298 73
22012 438 591 54
22013 438 44 36
22014 438 453 6
22015 438 943 70
22016 438 203 47
22017 438 61 11
22018 438 660 1
22019 438 670 51
22020 438 885 21
22021 438 395 93
22022 438 254 94
22023 438 437 46
22024 438 776 1
22025 438 48 37
22026 438 903 16
22027 438 818 91
22028 438 415 7
22029 439 489 15
22030 439 290 39
22031 439 183 98
22032 439 599 51
22033 439 565 2
22034 439 460 41
22035 439 786 26
22036 439 323 72
22037 439 20 3
22038 439 284 51
22039 439 987 53
22040 439 407 81
22041 439 728 31
22042 439 259 85
22043 439 431 2
22044 439 16 64
22045 439 747 23
22046 439 484 50
22047 439 799 48
22048 439 865 15
22049 439 647 27
22050 439 328 35
22051 439 883 33
22052 439 77 21
22053 439 853 19
22054 439 386 43
22055 439 428 11
22056 439 173 47
22057 439 773 67
22058 439 73 86
22059 439 321 72
22060 439 99 32
22061 439 873 35
22062 439 429 32
22063 439 631 46
22064 439 895 61
22065 439 819 57
22066 439 718 30
22067 439 681 33
22068 439 741 28
22069 439 106 7
22070 439 627 7
22071 439 74 53
22072 439 243 59
22073 439 62 14
22074 439 207 98
22075 439 61 52
22076 439 844 43
22077 439 7 95
22078 439 984 74
22079 439 891 87
22080 439 373 61
22081 439 890 35
22082 439 588 52
22083 439 181 92
22084 439 901 29
22085 439 390 68
22086 439 862 92
22087 439 438 32
22088 440 348 39
22089 440 653 35
22090 440 512 81
22091 440 393 72
22092 440 497 83
22093 440 160 64
22094 440 775 53
22095 440 12 54
22096 440 220 35
22097 440 884 33
22098 440 57 30
22099 440 975 72
22100 440 674 98
22101 440 127 73
22102 440 243 39
22103 440 660 96
22104 440 811 13
22105 440 98 31
22106 440 171 47
22107 440 771 71
22108 440 375 61
22109 440 574 13
22110 440 950 26
22111 440 181 71
22112 440 858 52
22113 440 830 26
22114 440 398 40
22115 440 159 20
22116 440 623 31
22117 440 247 45
22118 440 333 29
22119 440 245 55
22120 440 743 22
22121 440 120 46
22122 440 363 49
22123 440 518 76
22124 440 238 86
22125 440 451 87
22126 440 570 67
22127 440 388 78
22128 440 798 29
22129 440 153 72
22130 440 258 38
22131 440 230 97
22132 440 908 100
22133 440 658 89
22134 440 683 6
22135 440 855 81
22136 440 716 44
22137 440 89 47
22138 440 445 9
22139 440 834 99
22140 440 33 53
22141 440 867 30
22142 440 672 43
22143 440 699 92
22144 440 582 93
22145 440 642 39
22146 441 313 51
22147 441 510 19
22148 441 141 27
22149 441 210 83
22150 441 882 62
22151 441 856 41
22152 441 76 52
22153 441 912 76
22154 441 522 96
22155 441 991 51
22156 441 910 92
22157 441 99 70
22158 441 365 76
22159 441 139 20
22160 441 373 11
22161 441 946 25
22162 441 740 1
22163 441 237 15
22164 441 511 72
22165 441 322 83
22166 441 130 65
22167 441 168 22
22168 441 202 26
22169 441 520 26
22170 441 81 60
22171 441 187 98
22172 441 745 95
22173 441 186 89
22174 441 528 37
22175 441 111 99
22176 441 644 22
22177 441 180 85
22178 441 652 30
22179 441 756 90
22180 441 100 3
22181 441 309 24
22182 441 596 63
22183 441 3 62
22184 441 308 91
22185 441 591 17
22186 441 816 34
22187 441 208 31
22188 441 455 30
22189 441 821 10
22190 441 992 57
22191 441 463 85
22192 441 691 36
22193 441 541 31
22194 441 752 57
22195 441 576 20
22196 441 2 88
22197 441 717 83
22198 441 300 47
22199 441 405 74
22200 441 370 32
22201 441 973 59
22202 441 14 80
22203 442 370 10
22204 442 24 22
22205 442 424 94
22206 442 879 67
22207 442 942 100
22208 442 112 51
22209 442 765 3
22210 442 60 31
22211 442 78 91
22212 442 870 49
22213 442 582 75
22214 442 145 34
22215 442 30 51
22216 442 899 35
22217 442 417 19
22218 442 143 27
22219 442 857 5
22220 442 289 37
22221 442 603 99
22222 442 601 82
22223 442 845 21
22224 442 317 33
22225 442 716 27
22226 442 487 50
22227 442 749 68
22228 442 280 57
22229 442 802 28
22230 442 183 63
22231 442 267 87
22232 442 782 11
22233 442 25 73
22234 442 178 61
22235 442 239 90
22236 442 637 64
22237 442 490 38
22238 442 350 15
22239 442 357 40
22240 442 150 29
22241 442 199 57
22242 442 911 59
22243 442 340 98
22244 442 491 96
22245 442 981 11
22246 442 422 37
22247 442 605 45
22248 442 761 63
22249 442 448 21
22250 442 81 64
22251 442 353 21
22252 442 995 98
22253 442 812 48
22254 442 302 2
22255 443 560 36
22256 443 197 83
22257 443 300 84
22258 443 235 66
22259 443 187 67
22260 443 887 83
22261 443 402 30
22262 443 615 17
22263 443 292 25
22264 443 329 89
22265 443 881 89
22266 443 128 67
22267 443 834 13
22268 443 613 2
22269 443 524 36
22270 443 722 41
22271 443 217 54
22272 443 944 65
22273 443 89 40
22274 443 525 82
22275 443 110 80
22276 443 788 10
22277 443 622 73
22278 443 675 65
22279 443 252 3
22280 443 499 8
22281 443 3 62
22282 443 810 94
22283 443 57 87
22284 443 137 73
22285 443 311 74
22286 443 491 3
22287 443 802 8
22288 443 320 11
22289 443 175 41
22290 443 586 94
22291 443 913 30
22292 443 69 84
22293 443 712 31
22294 443 632 18
22295 443 620 75
22296 443 667 39
22297 443 345 58
22298 443 304 70
22299 443 965 11
22300 443 457 65
22301 443 357 25
22302 443 28 50
22303 443 498 28
22304 443 905 86
22305 444 381 96
22306 444 73 91
22307 444 550 79
22308 444 274 84
22309 444 830 24
22310 444 363 46
22311 444 461 73
22312 444 189 89
22313 444 425 89
22314 444 522 99
22315 444 448 99
22316 444 101 73
22317 444 538 45
22318 444 814 77
22319 444 696 83
22320 444 865 18
22321 444 89 67
22322 444 262 37
22323 444 357 87
22324 444 467 3
22325 444 585 13
22326 444 979 78
22327 444 961 20
22328 444 679 63
22329 444 704 82
22330 444 886 71
22331 444 641 64
22332 444 613 81
22333 444 110 40
22334 444 236 3
22335 444 728 13
22336 444 418 87
22337 444 944 10
22338 444 523 83
22339 444 65 91
22340 444 574 88
22341 444 86 46
22342 444 231 56
22343 444 706 67
22344 444 832 59
22345 444 556 19
22346 444 669 51
22347 444 145 31
22348 444 451 63
22349 444 140 70
22350 445 270 94
22351 445 712 88
22352 445 870 2
22353 445 140 11
22354 445 970 39
22355 445 789 56
22356 445 565 6
22357 445 765 41
22358 445 901 46
22359 445 961 17
22360 445 669 100
22361 445 476 14
22362 445 161 71
22363 445 145 2
22364 445 127 90
22365 445 589 58
22366 445 420 42
22367 445 781 45
22368 445 671 14
22369 445 311 8
22370 445 969 20
22371 445 687 25
22372 445 635 46
22373 445 227 72
22374 445 375 37
22375 445 75 4
22376 445 294 49
22377 445 629 96
22378 445 52 34
22379 445 637 37
22380 445 713 21
22381 445 115 6
22382 445 441 8
22383 445 326 75
22384 445 464 94
22385 445 195 87
22386 445 806 67
22387 445 948 57
22388 445 667 76
22389 445 616 39
22390 445 625 80
22391 445 248 44
22392 445 587 96
22393 445 966 33
22394 445 91 18
22395 445 157 19
22396 445 752 95
22397 445 885 49
22398 446 721 55
22399 446 671 37
22400 446 500 54
22401 446 156 66
22402 446 589 20
22403 446 22 90
22404 446 966 95
22405 446 834 21
22406 446 552 42
22407 446 871 37
22408 446 573 46
22409 446 165 15
22410 446 643 1
22411 446 252 18
22412 446 92 15
22413 446 128 32
22414 446 96 42
22415 446 411 44
22416 446 627 39
22417 446 893 56
22418 446 923 79
22419 446 83 17
22420 446 199 18
22421 446 764 49
22422 446 805 28
22423 446 376 28
22424 446 280 35
22425 446 16 92
22426 446 200 53
22427 446 337 64
22428 446 585 6
22429 446 782 31
22430 446 602 73
22431 446 166 20
22432 446 336 53
22433 446 658 75
22434 446 133 6
22435 446 820 32
22436 446 738 29
22437 446 311 64
22438 446 51 77
22439 446 758 59
22440 446 4 20
22441 446 787 8
22442 446 60 3
22443 446 957 80
22444 446 99 1
22445 446 220 65
22446 446 140 89
22447 446 158 25
22448 446 594 28
22449 446 289 36
22450 446 783 54
22451 446 690 20
22452 447 808 43
22453 447 826 98
22454 447 172 63
22455 447 642 71
22456 447 961 98
22457 447 65 34
22458 447 796 71
22459 447 157 58
22460 447 534 22
22461 447 53 85
22462 447 245 30
22463 447 935 94
22464 447 265 37
22465 447 962 53
22466 447 31 15
22467 447 188 61
22468 447 486 20
22469 447 713 90
22470 447 41 39
22471 447 406 55
22472 447 422 95
22473 447 314 34
22474 447 247 30
22475 447 856 60
22476 447 435 25
22477 447 346 25
22478 447 937 36
22479 447 57 88
22480 447 452 91
22481 447 504 100
22482 447 941 24
22483 447 392 99
22484 447 930 43
22485 447 343 67
22486 447 357 25
22487 447 284 58
22488 447 414 75
22489 447 955 95
22490 447 712 36
22491 447 857 39
22492 447 335 98
22493 447 493 64
22494 447 443 90
22495 447 542 34
22496 447 876 7
22497 447 423 59
22498 447 104 59
22499 448 309 20
22500 448 341 30
22501 448 905 87
22502 448 254 48
22503 448 752 91
22504 448 800 74
22505 448 124 69
22506 448 590 27
22507 448 195 91
22508 448 592 40
22509 448 972 27
22510 448 389 82
22511 448 760 98
22512 448 635 24
22513 448 175 27
22514 448 684 66
22515 448 473 55
22516 448 695 32
22517 448 388 72
22518 448 373 48
22519 448 349 23
22520 448 634 9
22521 448 392 77
22522 448 967 69
22523 448 296 24
22524 448 177 37
22525 448 112 66
22526 448 379 39
22527 448 0 49
22528 448 975 74
22529 448 516 11
22530 448 743 14
22531 448 232 73
22532 448 302 33
22533 448 319 61
22534 448 421 6
22535 448 393 34
22536 448 155 31
22537 448 788 27
22538 448 966 91
22539 448 765 3
22540 448 118 40
22541 449 870 81
22542 449 41 67
22543 449 581 32
22544 449 684 41
22545 449 248 94
22546 449 845 13
22547 449 19 87
22548 449 189 12
22549 449 554 1
22550 449 194 8
22551 449 368 40
22552 449 655 9
22553 449 814 4
22554 449 885 78
22555 449 705 57
22556 449 801 15
22557 449 982 38
22558 449 881 58
22559 449 832 31
22560 449 329 3
22561 449 689 71
22562 449 39 94
22563 449 299 33
22564 449 817 75
22565 449 134 79
22566 449 141 82
22567 449 596 87
22568 449 612 25
22569 449 773 91
22570 449 635 41
22571 449 630 7
22572 449 303 62
22573 449 722 6
22574 449 521 23
22575 449 733 73
22576 449 204 89
22577 449 520 29
22578 449 838 41
22579 449 739 50
22580 449 600 79
22581 449 84 92
22582 449 233 71
22583 449 29 16
22584 449 260 48
22585 449 996 1
22586 449 831 68
22587 449 509 70
22588 449 249 8
22589 449 414 23
22590 449 201 69
22591 450 767 15
22592 450 207 15
22593 450 397 67
22594 450 266 10
22595 450 44 93
22596 450 437 40
22597 450 465 15
22598 450 801 36
22599 450 515 28
22600 450 4 33
22601 450 768 2
22602 450 117 94
22603 450 802 62
22604 450 353 34
22605 450 512 24
22606 450 941 98
22607 450 426 40
22608 450 771 77
22609 450 418 16
22610 450 241 6
22611 450 284 17
22612 450 403 54
22613 450 354 41
22614 450 155 96
22615 450 178 86
22616 450 677 91
22617 450 84 11
22618 450 195 77
22619 450 686 6
22620 450 736 25
22621 450 467 37
22622 450 488 33
22623 450 590 68
22624 450 68 100
22625 450 630 19
22626 450 1 88
22627 450 958 56
22628 450 105 9
22629 450 204 96
22630 450 151 98
22631 450 438 42
22632 450 794 98
22633 450 120 32
22634 450 548 27
22635 450 162 55
22636 451 360 32
22637 451 566 17
22638 451 559 9
22639 451 250 44
22640 451 50 56
22641 451 317 54
22642 451 794 35
22643 451 886 98
22644 451 155 56
22645 451 906 54
22646 451 538 52
22647 451 187 18
22648 451 180 12
22649 451 128 1
22650 451 364 14
22651 451 298 96
22652 451 267 19
22653 451 784 87
22654 451 635 16
22655 451 725 72
22656 451 774 16
22657 451 613 49
22658 451 641 85
22659 451 876 4
22660 451 264 5
22661 451 765 27
22662 451 35 17
22663 451 390 21
22664 451 281 97
22665 451 320 73
22666 451 42 36
22667 451 493 66
22668 451 716 98
22669 451 809 70
22670 451 69 27
22671 451 548 82
22672 451 523 41
22673 451 93 66
22674 451 153 7
22675 451 444 59
22676 451 122 15
22677 451 293 94
22678 451 801 60
22679 451 489 56
22680 451 963 58
22681 451 130 38
22682 451 64 54
22683 451 214 48
22684 451 979 42
22685 451 507 59
22686 451 694 32
22687 451 575 90
22688 451 897 31
22689 451 800 5
22690 451 138 95
22691 451 260 26
22692 451 262 85
22693 452 851 59
22694 452 902 5
22695 452 795 58
22696 452 301 92
22697 452 185 54
22698 452 516 97
22699 452 780 38
22700 452 170 49
22701 452 530 23
22702 452 752 50
22703 452 375 86
22704 452 218 36
22705 452 66 91
22706 452 9 41
22707 452 894 30
22708 452 212 29
22709 452 563 77
22710 452 342 39
22711 452 813 73
22712 452 774 60
22713 452 53 100
22714 452 261 93
22715 452 649 9
22716 452 386 73
22717 452 398 66
22718 452 290 44
22719 452 58 85
22720 452 235 85
22721 452 909 81
22722 452 363 14
22723 452 710 88
22724 452 949 65
22725 452 527 81
22726 452 842 76
22727 452 125 51
22728 452 905 44
22729 452 127 52
22730 452 61 98
22731 452 556 20
22732 452 777 38
22733 452 17 64
22734 452 294 89
22735 452 596 34
22736 452 814 37
22737 452 943 33
22738 452 271 56
22739 452 960 34
22740 452 730 75
22741 452 394 50
22742 452 368 66
22743 452 348 73
22744 452 919 97
22745 452 226 28
22746 452 60 99
22747 453 316 72
22748 453 669 91
22749 453 122 54
22750 453 392 2
22751 453 389 80
22752 453 23 41
22753 453 158 52
22754 453 698 80
22755 453 807 8
22756 453 791 54
22757 453 990 70
22758 453 554 34
22759 453 832 89
22760 453 530 19
22761 453 839 22
22762 453 701 83
22763 453 229 6
22764 453 487 28
22765 453 726 47
22766 453 872 78
22767 453 403 89
22768 453 225 82
22769 453 353 5
22770 453 95 44
22771 453 969 86
22772 453 472 19
22773 453 830 68
22774 453 947 87
22775 453 673 3
22776 453 953 46
22777 453 208 16
22778 453 898 80
22779 453 703 71
22780 453 282 70
22781 453 84 70
22782 453 96 84
22783 453 382 3
22784 453 153 24
22785 453 401 24
22786 453 347 37
22787 453 723 52
22788 453 598 58
22789 453 727 70
22790 453 511 55
22791 454 651 94
22792 454 175 93
22793 454 751 38
22794 454 381 38
22795 454 788 1
22796 454 947 82
22797 454 890 96
22798 454 349 40
22799 454 216 46
22800 454 515 41
22801 454 841 62
22802 454 382 42
22803 454 760 54
22804 454 817 10
22805 454 882 40
22806 454 196 56
22807 454 763 7
22808 454 372 11
22809 454 725 85
22810 454 970 32
22811 454 754 55
22812 454 453 42
22813 454 740 14
22814 454 47 23
22815 454 638 46
22816 454 457 57
22817 454 192 29
22818 454 59 71
22819 454 787 96
22820 454 184 80
22821 454 898 65
22822 454 936 11
22823 454 579 60
22824 454 34 1
22825 454 450 25
22826 454 169 12
22827 454 70 41
22828 454 479 27
22829 454 679 87
22830 454 271 37
22831 454 191 46
22832 454 780 72
22833 454 410 72
22834 454 265 62
22835 454 995 88
22836 454 806 50
22837 454 656 14
22838 454 626 54
22839 454 302 76
22840 455 133 81
22841 455 879 28
22842 455 527 70
22843 455 923 21
22844 455 234 29
22845 455 144 55
22846 455 304 34
22847 455 334 76
22848 455 46 63
22849 455 268 57
22850 455 98 82
22851 455 230 74
22852 455 108 37
22853 455 89 70
22854 455 440 24
22855 455 412 74
22856 455 554 70
22857 455 50 61
22858 455 720 42
22859 455 399 6
22860 455 138 10
22861 455 284 89
22862 455 700 23
22863 455 658 83
22864 455 633 16
22865 455 846 96
22866 455 587 9
22867 455 39 47
22868 455 607 46
22869 455 47 23
22870 455 945 16
22871 455 672 55
22872 455 936 43
22873 455 431 41
22874 455 941 33
22875 455 213 15
22876 455 15 46
22877 455 515 30
22878 455 946 21
22879 455 769 4
22880 455 55 30
22881 455 195 70
22882 455 57 92
22883 455 395 81
22884 455 83 88
22885 455 629 98
22886 455 475 53
22887 455 983 11
22888 455 780 95
22889 455 756 57
22890 456 506 53
22891 456 263 100
22892 456 202 38
22893 456 662 15
22894 456 157 29
22895 456 492 17
22896 456 878 61
22897 456 365 59
22898 456 616 96
22899 456 994 16
22900 456 367 84
22901 456 268 18
22902 456 283 51
22903 456 114 92
22904 456 77 87
22905 456 187 24
22906 456 926 99
22907 456 542 27
22908 456 169 77
22909 456 135 40
22910 456 259 71
22911 456 465 69
22912 456 716 17
22913 456 435 85
22914 456 100 5
22915 456 885 14
22916 456 285 68
22917 456 316 15
22918 456 897 5
22919 456 961 51
22920 456 160 48
22921 456 503 22
22922 456 722 15
22923 456 866 4
22924 456 939 93
22925 456 223 39
22926 456 946 20
22927 456 322 77
22928 456 822 10
22929 456 780 75
22930 456 812 56
22931 456 749 80
22932 456 260 56
22933 456 97 98
22934 456 388 12
22935 456 80 1
22936 456 991 1
22937 456 237 57
22938 456 228 67
22939 456 933 97
22940 456 779 37
22941 457 688 40
22942 457 196 37
22943 457 442 80
22944 457 114 47
22945 457 121 78
22946 457 154 44
22947 457 179 35
22948 457 116 13
22949 457 183 22
22950 457 838 92
22951 457 34 69
22952 457 723 55
22953 457 879 62
22954 457 611 67
22955 457 9 74
22956 457 386 25
22957 457 995 92
22958 457 463 50
22959 457 366 76
22960 457 538 14
22961 457 418 93
22962 457 572 86
22963 457 659 78
22964 457 117 72
22965 457 770 4
22966 457 541 74
22967 457 344 59
22968 457 561 94
22969 457 166 16
22970 457 974 87
22971 457 360 44
22972 457 965 57
22973 457 2 23
22974 457 209 75
22975 457 918 31
22976 457 525 79
22977 457 843 57
22978 457 542 36
22979 457 118 68
22980 457 989 86
22981 457 903 38
22982 457 500 66
22983 457 477 42
22984 457 313 32
22985 457 80 48
22986 457 947 58
22987 457 735 76
22988 457 814 31
22989 457 804 6
22990 457 141 56
22991 457 124 38
22992 457 57 71
22993 457 754 47
22994 457 816 47
22995 457 413 7
22996 458 307 69
22997 458 651 37
22998 458 931 24
22999 458 426 6
23000 458 34 13
23001 458 102 2
23002 458 424 91
23003 458 254 35
23004 458 296 34
23005 458 729 60
23006 458 526 11
23007 458 177 26
23008 458 901 89
23009 458 530 30
23010 458 872 21
23011 458 831 47
23012 458 989 51
23013 458 313 10
23014 458 788 80
23015 458 579 65
23016 458 257 15
23017 458 732 33
23018 458 461 25
23019 458 418 23
23020 458 614 100
23021 458 665 7
23022 458 761 78
23023 458 348 95
23024 458 360 66
23025 458 325 86
23026 458 740 61
23027 458 780 37
23028 458 309 39
23029 458 131 24
23030 458 291 46
23031 458 858 97
23032 458 106 85
23033 458 688 37
23034 458 839 13
23035 458 459 42
23036 458 705 51
23037 458 654 36
23038 458 562 51
23039 458 471 40
23040 458 241 66
23041 459 102 71
23042 459 979 55
23043 459 458 13
23044 459 436 6
23045 459 529 42
23046 459 167 54
23047 459 970 86
23048 459 267 15
23049 459 521 76
23050 459 470 33
23051 459 186 37
23052 459 866 41
23053 459 668 40
23054 459 165 53
23055 459 399 77
23056 459 824 54
23057 459 821 69
23058 459 279 25
23059 459 536 7
23060 459 537 8
23061 459 937 96
23062 459 362 17
23063 459 882 72
23064 459 138 93
23065 459 27 43
23066 459 653 98
23067 459 855 77
23068 459 99 46
23069 459 2 46
23070 459 329 72
23071 459 150 76
23072 459 663 90
23073 459 49 69
23074 459 723 38
23075 459 815 74
23076 459 872 55
23077 459 309 1
23078 459 566 22
23079 459 692 4
23080 459 501 12
23081 459 720 84
23082 459 741 34
23083 459 122 89
23084 459 440 74
23085 459 55 32
23086 459 61 97
23087 459 517 14
23088 459 901 15
23089 459 616 56
23090 459 16 43
23091 459 12 98
23092 459 461 72
23093 459 200 19
23094 459 378 73
23095 459 843 61
23096 460 21 40
23097 460 825 84
23098 460 805 98
23099 460 114 31
23100 460 501 35
23101 460 709 23
23102 460 702 99
23103 460 254 41
23104 460 734 97
23105 460 563 73
23106 460 415 96
23107 460 985 4
23108 460 538 59
23109 460 438 17
23110 460 916 6
23111 460 790 44
23112 460 549 24
23113 460 207 50
23114 460 614 23
23115 460 257 23
23116 460 929 5
23117 460 168 21
23118 460 847 52
23119 460 641 53
23120 460 754 49
23121 460 850 40
23122 460 691 22
23123 460 203 27
23124 460 503 14
23125 460 433 89
23126 460 630 81
23127 460 270 72
23128 460 581 95
23129 460 156 17
23130 460 5 93
23131 460 504 6
23132 460 129 39
23133 460 307 48
23134 460 897 31
23135 460 960 90
23136 460 704 20
23137 460 102 65
23138 460 224 1
23139 460 846 8
23140 460 20 41
23141 460 949 55
23142 460 400 1
23143 460 231 64
23144 460 801 83
23145 460 404 13
23146 460 53 57
23147 460 324 55
23148 460 272 79
23149 461 490 69
23150 461 578 16
23151 461 94 72
23152 461 971 99
23153 461 664 38
23154 461 186 83
23155 461 728 100
23156 461 721 15
23157 461 590 38
23158 461 933 71
23159 461 562 89
23160 461 800 4
23161 461 424 44
23162 461 758 84
23163 461 337 17
23164 461 767 10
23165 461 115 99
23166 461 848 100
23167 461 783 2
23168 461 727 35
23169 461 534 97
23170 461 463 85
23171 461 998 7
23172 461 118 21
23173 461 348 77
23174 461 624 77
23175 461 485 64
23176 461 954 64
23177 461 947 16
23178 461 682 5
23179 461 900 100
23180 461 553 47
23181 461 895 54
23182 461 595 32
23183 461 363 59
23184 461 530 56
23185 461 438 62
23186 461 71 57
23187 461 559 90
23188 461 104 20
23189 461 243 46
23190 461 784 51
23191 461 242 42
23192 461 795 36
23193 461 681 38
23194 461 647 23
23195 461 677 40
23196 461 379 60
23197 461 10 82
23198 461 507 100
23199 461 286 35
23200 461 453 26
23201 461 839 50
23202 461 788 24
23203 462 658 9
23204 462 292 16
23205 462 506 39
23206 462 554 8
23207 462 805 10
23208 462 34 32
23209 462 69 47
23210 462 690 100
23211 462 979 6
23212 462 83 84
23213 462 164 15
23214 462 469 62
23215 462 454 6
23216 462 406 89
23217 462 793 85
23218 462 846 80
23219 462 431 57
23220 462 965 86
23221 462 996 42
23222 462 165 28
23223 462 610 90
23224 462 918 33
23225 462 257 46
23226 462 787 16
23227 462 946 86
23228 462 881 2
23229 462 522 35
23230 462 616 43
23231 462 411 77
23232 462 435 61
23233 462 967 53
23234 462 112 42
23235 462 64 50
23236 462 122 49
23237 462 483 1
23238 462 951 61
23239 462 802 69
23240 462 313 42
23241 462 139 45
23242 462 387 40
23243 462 61 40
23244 462 933 14
23245 462 644 84
23246 462 133 29
23247 462 80 88
23248 462 345 31
23249 462 853 49
23250 462 420 50
23251 462 642 70
23252 462 460 46
23253 462 331 87
23254 462 949 69
23255 462 766 67
23256 462 341 51
23257 462 65 49
23258 463 155 38
23259 463 361 7
23260 463 42 83
23261 463 260 41
23262 463 800 31
23263 463 987 35
23264 463 630 40
23265 463 347 82
23266 463 552 85
23267 463 850 82
23268 463 187 81
23269 463 750 36
23270 463 447 3
23271 463 525 70
23272 463 280 48
23273 463 212 40
23274 463 659 37
23275 463 248 28
23276 463 269 50
23277 463 906 39
23278 463 209 78
23279 463 577 28
23280 463 301 62
23281 463 297 33
23282 463 901 53
23283 463 91 8
23284 463 36 5
23285 463 123 53
23286 463 222 23
23287 463 226 6
23288 463 150 65
23289 463 258 98
23290 463 912 42
23291 463 424 16
23292 463 491 40
23293 463 643 67
23294 463 385 63
23295 463 39 28
23296 463 634 17
23297 463 219 3
23298 463 854 15
23299 463 755 37
23300 463 610 20
23301 463 389 85
23302 463 847 80
23303 463 418 39
23304 463 334 49
23305 463 364 77
23306 463 303 44
23307 463 914 52
23308 463 300 31
23309 463 728 50
23310 463 504 36
23311 463 683 25
23312 463 467 86
23313 463 730 23
23314 464 750 21
23315 464 484 21
23316 464 884 41
23317 464 174 82
23318 464 998 2
23319 464 350 8
23320 464 366 19
23321 464 303 54
23322 464 883 27
23323 464 936 72
23324 464 225 37
23325 464 522 73
23326 464 645 15
23327 464 594 7
23328 464 536 19
23329 464 333 20
23330 464 556 70
23331 464 708 41
23332 464 191 25
23333 464 696 65
23334 464 990 100
23335 464 198 51
23336 464 600 61
23337 464 511 86
23338 464 142 43
23339 464 703 13
23340 464 67 59
23341 464 956 64
23342 464 177 5
23343 464 741 82
23344 464 960 100
23345 464 920 77
23346 464 664 67
23347 464 860 34
23348 464 482 59
23349 464 502 100
23350 464 37 98
23351 464 854 29
23352 464 240 30
23353 465 148 98
23354 465 659 95
23355 465 961 40
23356 465 574 90
23357 465 561 62
23358 465 472 54
23359 465 533 77
23360 465 370 60
23361 465 383 76
23362 465 37 28
23363 465 692 52
23364 465 653 19
23365 465 884 41
23366 465 746 23
23367 465 604 68
23368 465 895 38
23369 465 513 18
23370 465 369 13
23371 465 522 73
23372 465 437 76
23373 465 429 44
23374 465 701 66
23375 465 259 56
23376 465 599 81
23377 465 964 82
23378 465 544 4
23379 465 990 95
23380 465 836 65
23381 465 345 58
23382 465 375 52
23383 465 405 99
23384 465 397 47
23385 465 163 73
23386 465 471 71
23387 465 486 88
23388 465 565 27
23389 465 554 76
23390 465 117 4
23391 465 566 52
23392 465 210 87
23393 465 589 28
23394 465 969 72
23395 465 28 59
23396 465 627 100
23397 465 439 42
23398 465 856 87
23399 465 658 9
23400 465 541 53
23401 465 866 77
23402 465 145 56
23403 465 576 42
23404 465 401 16
23405 465 93 37
23406 465 924 64
23407 466 428 16
23408 466 755 95
23409 466 560 68
23410 466 605 65
23411 466 49 75
23412 466 725 61
23413 466 575 39
23414 466 664 40
23415 466 52 45
23416 466 695 3
23417 466 406 31
23418 466 753 24
23419 466 786 20
23420 466 840 20
23421 466 923 43
23422 466 798 19
23423 466 659 10
23424 466 550 97
23425 466 988 28
23426 466 468 1
23427 466 836 81
23428 466 824 96
23429 466 561 13
23430 466 711 93
23431 466 893 38
23432 466 394 21
23433 466 124 37
23434 466 270 36
23435 466 821 3
23436 466 571 18
23437 466 229 60
23438 466 261 98
23439 466 208 3
23440 466 832 100
23441 466 454 16
23442 466 879 64
23443 466 200 26
23444 466 612 91
23445 466 86 40
23446 466 986 50
23447 466 346 37
23448 466 894 95
23449 466 535 60
23450 466 920 73
23451 466 94 76
23452 466 531 33
23453 467 851 75
23454 467 40 65
23455 467 539 12
23456 467 720 88
23457 467 138 26
23458 467 932 78
23459 467 660 78
23460 467 937 23
23461 467 181 87
23462 467 839 19
23463 467 91 81
23464 467 154 72
23465 467 184 78
23466 467 476 69
23467 467 270 60
23468 467 945 83
23469 467 683 86
23470 467 357 10
23471 467 219 11
23472 467 7 81
23473 467 760 28
23474 467 231 10
23475 467 837 99
23476 467 389 51
23477 467 933 87
23478 467 768 92
23479 467 146 57
23480 467 106 6
23481 467 947 8
23482 467 910 94
23483 467 16 22
23484 467 896 91
23485 467 611 96
23486 467 320 37
23487 467 347 12
23488 467 322 21
23489 467 432 6
23490 467 288 27
23491 467 443 33
23492 467 238 62
23493 467 830 62
23494 467 510 51
23495 467 523 45
23496 467 393 18
23497 468 550 11
23498 468 116 100
23499 468 802 10
23500 468 695 58
23501 468 768 20
23502 468 958 67
23503 468 572 83
23504 468 907 81
23505 468 708 10
23506 468 393 59
23507 468 714 85
23508 468 65 43
23509 468 758 88
23510 468 45 87
23511 468 957 90
23512 468 143 82
23513 468 671 14
23514 468 158 73
23515 468 227 75
23516 468 522 44
23517 468 984 19
23518 468 782 71
23519 468 128 13
23520 468 615 50
23521 468 501 68
23522 468 241 78
23523 468 495 42
23524 468 52 24
23525 468 319 48
23526 468 91 13
23527 468 54 6
23528 468 467 38
23529 468 440 15
23530 468 968 66
23531 468 924 67
23532 468 111 36
23533 468 624 29
23534 468 327 32
23535 468 349 17
23536 468 903 26
23537 468 269 73
23538 468 463 93
23539 468 421 32
23540 468 242 30
23541 468 972 11
23542 468 923 57
23543 469 205 26
23544 469 217 68
23545 469 899 13
23546 469 985 85
23547 469 697 76
23548 469 221 94
23549 469 45 54
23550 469 413 55
23551 469 316 50
23552 469 879 19
23553 469 32 94
23554 469 327 64
23555 469 147 23
23556 469 755 71
23557 469 795 25
23558 469 273 54
23559 469 3 6
23560 469 580 82
23561 469 329 57
23562 469 818 6
23563 469 565 20
23564 469 547 72
23565 469 414 56
23566 469 981 51
23567 469 464 38
23568 469 994 65
23569 469 445 13
23570 469 257 34
23571 469 480 37
23572 469 149 70
23573 469 284 77
23574 469 970 75
23575 469 180 15
23576 469 813 31
23577 469 144 1
23578 469 747 33
23579 469 543 58
23580 469 881 19
23581 469 173 21
23582 469 629 98
23583 469 247 74
23584 469 82 95
23585 469 621 94
23586 469 54 87
23587 469 527 65
23588 469 664 17
23589 469 124 4
23590 469 834 95
23591 469 540 65
23592 469 624 32
23593 470 882 74
23594 470 158 85
23595 470 562 6
23596 470 296 99
23597 470 82 98
23598 470 417 27
23599 470 299 28
23600 470 118 59
23601 470 280 84
23602 470 496 42
23603 470 814 75
23604 470 838 36
23605 470 754 46
23606 470 428 97
23607 470 811 55
23608 470 309 24
23609 470 246 74
23610 470 992 55
23611 470 421 86
23612 470 698 89
23613 470 578 58
23614 470 41 81
23615 470 825 84
23616 470 619 22
23617 470 725 8
23618 470 133 78
23619 470 111 94
23620 470 672 89
23621 470 829 89
23622 470 857 94
23623 470 683 61
23624 470 359 4
23625 470 728 90
23626 470 95 43
23627 470 101 52
23628 470 854 94
23629 470 736 23
23630 470 553 86
23631 470 430 88
23632 470 657 93
23633 470 365 4
23634 470 507 65
23635 470 536 45
23636 470 315 32
23637 470 257 46
23638 470 964 76
23639 470 24 41
23640 470 143 15
23641 470 177 84
23642 471 552 99
23643 471 142 2
23644 471 997 54
23645 471 414 2
23646 471 879 66
23647 471 701 37
23648 471 623 29
23649 471 803 14
23650 471 106 11
23651 471 884 71
23652 471 808 66
23653 471 591 55
23654 471 299 8
23655 471 217 80
23656 471 593 90
23657 471 252 10
23658 471 406 45
23659 471 675 28
23660 471 496 83
23661 471 170 33
23662 471 965 25
23663 471 998 43
23664 471 609 51
23665 471 645 100
23666 471 607 57
23667 471 512 69
23668 471 830 8
23669 471 764 39
23670 471 368 84
23671 471 28 91
23672 471 603 89
23673 471 722 9
23674 471 3 86
23675 471 872 92
23676 471 929 80
23677 471 314 2
23678 471 150 71
23679 471 159 16
23680 471 10 64
23681 471 551 62
23682 471 621 62
23683 471 686 43
23684 471 634 89
23685 471 563 74
23686 471 525 59
23687 471 233 87
23688 471 540 39
23689 471 717 12
23690 471 979 91
23691 471 674 56
23692 471 477 55
23693 471 741 27
23694 471 86 14
23695 471 323 79
23696 471 700 86
23697 471 864 7
23698 471 291 47
23699 471 534 99
23700 471 298 45
23701 472 10 74
23702 472 99 39
23703 472 485 18
23704 472 370 32
23705 472 514 15
23706 472 621 56
23707 472 791 48
23708 472 589 19
23709 472 41 22
23710 472 191 43
23711 472 980 27
23712 472 35 71
23713 472 675 74
23714 472 85 6
23715 472 412 59
23716 472 140 96
23717 472 226 38
23718 472 455 77
23719 472 207 76
23720 472 376 59
23721 472 210 72
23722 472 571 45
23723 472 821 26
23724 472 915 12
23725 472 94 28
23726 472 765 86
23727 472 297 27
23728 472 95 26
23729 472 719 53
23730 472 43 26
23731 472 176 50
23732 472 413 76
23733 472 66 46
23734 472 668 71
23735 472 110 14
23736 472 231 30
23737 472 729 50
23738 473 744 37
23739 473 191 91
23740 473 140 30
23741 473 609 39
23742 473 606 60
23743 473 739 31
23744 473 386 69
23745 473 178 22
23746 473 666 57
23747 473 608 9
23748 473 551 57
23749 473 154 11
23750 473 351 52
23751 473 214 98
23752 473 642 37
23753 473 658 70
23754 473 127 95
23755 473 361 97
23756 473 20 6
23757 473 29 10
23758 473 289 71
23759 473 409 97
23760 473 937 81
23761 473 484 41
23762 473 1 84
23763 473 31 56
23764 473 141 42
23765 473 712 98
23766 473 995 58
23767 473 8 35
23768 473 638 41
23769 473 185 27
23770 473 24 15
23771 473 702 94
23772 473 970 72
23773 473 644 85
23774 473 504 80
23775 473 591 39
23776 473 502 33
23777 473 428 48
23778 473 86 93
23779 473 966 50
23780 473 503 29
23781 473 242 10
23782 473 412 39
23783 473 76 88
23784 473 967 28
23785 473 654 5
23786 473 456 23
23787 473 556 59
23788 473 160 9
23789 473 875 79
23790 474 502 65
23791 474 944 17
23792 474 516 86
23793 474 956 37
23794 474 284 73
23795 474 292 56
23796 474 738 11
23797 474 822 49
23798 474 810 60
23799 474 649 39
23800 474 141 82
23801 474 703 43
23802 474 126 18
23803 474 380 36
23804 474 58 55
23805 474 612 91
23806 474 872 66
23807 474 302 21
23808 474 320 68
23809 474 840 26
23810 474 837 38
23811 474 564 37
23812 474 205 27
23813 474 203 6
23814 474 353 58
23815 474 70 5
23816 474 920 99
23817 474 29 34
23818 474 969 30
23819 474 680 39
23820 474 458 53
23821 474 615 71
23822 474 645 72
23823 474 24 61
23824 474 232 80
23825 474 189 82
23826 474 90 27
23827 474 106 65
23828 474 589 100
23829 474 191 14
23830 474 978 87
23831 474 721 72
23832 474 461 11
23833 474 322 89
23834 474 10 41
23835 474 551 64
23836 474 957 80
23837 474 697 11
23838 474 910 53
23839 474 130 9
23840 474 125 48
23841 474 47 67
23842 474 18 57
23843 474 636 30
23844 474 995 18
23845 475 134 83
23846 475 980 23
23847 475 359 46
23848 475 944 11
23849 475 857 45
23850 475 114 23
23851 475 579 30
23852 475 774 8
23853 475 283 89
23854 475 761 66
23855 475 307 59
23856 475 787 99
23857 475 850 15
23858 475 442 70
23859 475 306 22
23860 475 950 61
23861 475 484 84
23862 475 897 22
23863 475 781 84
23864 475 790 67
23865 475 625 37
23866 475 838 5
23867 475 166 41
23868 475 274 20
23869 475 499 70
23870 475 138 72
23871 475 764 45
23872 475 769 43
23873 475 254 86
23874 475 972 19
23875 475 3 17
23876 475 730 31
23877 475 548 7
23878 475 837 67
23879 475 589 11
23880 475 348 39
23881 475 994 88
23882 475 925 66
23883 475 877 79
23884 475 126 80
23885 475 357 64
23886 475 840 61
23887 475 901 88
23888 475 292 19
23889 475 586 59
23890 475 369 19
23891 475 845 68
23892 475 354 40
23893 475 600 76
23894 475 696 72
23895 475 472 16
23896 475 424 95
23897 475 410 54
23898 475 132 95
23899 475 766 39
23900 475 107 23
23901 475 315 76
23902 475 593 93
23903 475 597 88
23904 475 547 42
23905 475 71 9
23906 476 790 35
23907 476 540 36
23908 476 686 69
23909 476 406 51
23910 476 105 58
23911 476 403 83
23912 476 344 70
23913 476 630 77
23914 476 51 72
23915 476 963 66
23916 476 872 60
23917 476 288 37
23918 476 89 23
23919 476 480 95
23920 476 907 29
23921 476 245 79
23922 476 977 76
23923 476 439 99
23924 476 555 22
23925 476 355 72
23926 476 935 42
23927 476 874 93
23928 476 673 79
23929 476 517 26
23930 476 68 19
23931 476 102 80
23932 476 954 76
23933 476 150 71
23934 476 717 16
23935 476 176 37
23936 476 880 89
23937 476 789 85
23938 476 524 90
23939 476 130 65
23940 476 282 56
23941 476 259 36
23942 476 990 41
23943 476 799 7
23944 476 111 5
23945 476 849 59
23946 476 493 53
23947 476 474 5
23948 476 759 22
23949 476 557 2
23950 476 407 30
23951 476 393 68
23952 476 443 25
23953 476 516 36
23954 477 888 26
23955 477 175 89
23956 477 290 45
23957 477 679 10
23958 477 335 31
23959 477 402 44
23960 477 745 74
23961 477 690 75
23962 477 609 74
23963 477 529 78
23964 477 425 26
23965 477 911 91
23966 477 672 41
23967 477 492 89
23968 477 154 77
23969 477 552 33
23970 477 92 90
23971 477 1 63
23972 477 437 49
23973 477 157 34
23974 477 278 78
23975 477 195 15
23976 477 181 19
23977 477 325 68
23978 477 780 12
23979 477 571 98
23980 477 76 34
23981 477 583 44
23982 477 840 84
23983 477 212 39
23984 477 828 51
23985 477 330 53
23986 477 864 50
23987 477 66 18
23988 477 55 65
23989 477 41 82
23990 477 916 80
23991 477 510 37
23992 477 998 84
23993 477 797 91
23994 477 887 60
23995 477 405 74
23996 477 298 89
23997 477 503 9
23998 477 199 22
23999 477 882 84
24000 478 577 19
24001 478 932 48
24002 478 413 37
24003 478 886 15
24004 478 620 24
24005 478 117 43
24006 478 356 18
24007 478 506 24
24008 478 115 9
24009 478 995 73
24010 478 462 17
24011 478 762 39
24012 478 643 66
24013 478 294 38
24014 478 541 37
24015 478 743 52
24016 478 941 61
24017 478 440 95
24018 478 967 56
24019 478 748 11
24020 478 937 3
24021 478 671 22
24022 478 989 32
24023 478 134 33
24024 478 735 100
24025 478 470 72
24026 478 254 6
24027 478 705 84
24028 478 393 31
24029 478 980 12
24030 478 58 62
24031 478 165 95
24032 478 353 31
24033 478 642 7
24034 478 963 63
24035 478 238 40
24036 478 515 73
24037 478 702 100
24038 478 9 51
24039 478 569 93
24040 478 329 64
24041 478 88 9
24042 478 163 98
24043 478 731 38
24044 478 139 63
24045 478 572 93
24046 478 647 59
24047 478 722 34
24048 478 275 74
24049 478 192 44
24050 478 50 1
24051 478 930 54
24052 478 590 17
24053 478 605 17
24054 479 46 88
24055 479 514 58
24056 479 155 60
24057 479 689 3
24058 479 641 19
24059 479 662 13
24060 479 910 34
24061 479 917 39
24062 479 879 36
24063 479 59 88
24064 479 684 86
24065 479 683 41
24066 479 276 85
24067 479 893 39
24068 479 676 49
24069 479 765 60
24070 479 306 62
24071 479 560 76
24072 479 193 88
24073 479 113 53
24074 479 575 45
24075 479 423 41
24076 479 352 1
24077 479 484 12
24078 479 591 97
24079 479 183 86
24080 479 739 95
24081 479 464 67
24082 479 422 56
24083 479 980 63
24084 479 941 73
24085 479 289 24
24086 479 415 12
24087 479 874 8
24088 479 322 73
24089 479 630 25
24090 479 608 14
24091 479 766 43
24092 479 225 5
24093 479 302 38
24094 479 247 97
24095 479 963 23
24096 479 937 81
24097 479 196 36
24098 479 315 86
24099 479 502 59
24100 479 175 12
24101 479 474 19
24102 479 361 36
24103 479 974 79
24104 479 799 43
24105 479 40 49
24106 479 68 6
24107 479 580 39
24108 479 885 48
24109 479 105 86
24110 479 282 37
24111 479 970 15
24112 479 581 100
24113 479 28 79
24114 479 804 79
24115 480 732 80
24116 480 666 23
24117 480 504 45
24118 480 637 15
24119 480 573 38
24120 480 227 54
24121 480 92 13
24122 480 738 12
24123 480 14 80
24124 480 985 73
24125 480 109 2
24126 480 468 46
24127 480 857 37
24128 480 412 8
24129 480 716 12
24130 480 689 2
24131 480 513 35
24132 480 783 21
24133 480 251 52
24134 480 712 7
24135 480 444 41
24136 480 618 1
24137 480 955 73
24138 480 676 1
24139 480 86 11
24140 480 972 72
24141 480 552 31
24142 480 143 33
24143 480 617 81
24144 480 567 39
24145 480 925 57
24146 480 313 50
24147 480 553 37
24148 480 171 78
24149 480 122 99
24150 480 455 31
24151 480 375 58
24152 480 755 83
24153 480 65 55
24154 480 722 69
24155 480 650 74
24156 480 535 67
24157 480 224 76
24158 480 401 28
24159 480 429 96
24160 480 204 52
24161 480 18 46
24162 480 730 4
24163 480 94 99
24164 481 473 22
24165 481 256 73
24166 481 381 42
24167 481 886 98
24168 481 833 36
24169 481 596 71
24170 481 796 92
24171 481 452 80
24172 481 884 91
24173 481 703 84
24174 481 46 54
24175 481 221 84
24176 481 144 13
24177 481 638 28
24178 481 37 24
24179 481 78 39
24180 481 259 70
24181 481 115 34
24182 481 304 61
24183 481 314 5
24184 481 865 38
24185 481 112 74
24186 481 428 71
24187 481 564 24
24188 481 305 99
24189 481 339 34
24190 481 696 36
24191 481 0 30
24192 481 664 70
24193 481 30 47
24194 481 543 13
24195 481 870 3
24196 481 110 17
24197 481 784 56
24198 481 188 40
24199 481 247 9
24200 481 661 10
24201 481 309 100
24202 481 681 42
24203 481 802 65
24204 482 966 41
24205 482 888 26
24206 482 18 49
24207 482 432 98
24208 482 570 21
24209 482 950 78
24210 482 702 21
24211 482 55 41
24212 482 285 71
24213 482 415 91
24214 482 644 13
24215 482 639 18
24216 482 378 43
24217 482 810 44
24218 482 470 60
24219 482 383 36
24220 482 734 75
24221 482 946 7
24222 482 777 45
24223 482 988 20
24224 482 878 19
24225 482 976 6
24226 482 545 100
24227 482 468 51
24228 482 897 57
24229 482 455 79
24230 482 914 92
24231 482 352 19
24232 482 142 43
24233 482 581 60
24234 482 858 53
24235 482 460 61
24236 482 513 82
24237 482 35 74
24238 482 256 41
24239 482 429 40
24240 482 803 41
24241 482 725 61
24242 482 26 74
24243 482 542 9
24244 482 292 56
24245 482 358 88
24246 482 857 77
24247 482 811 96
24248 482 841 72
24249 482 989 27
24250 482 254 46
24251 483 267 88
24252 483 15 49
24253 483 119 95
24254 483 212 31
24255 483 225 51
24256 483 138 60
24257 483 496 25
24258 483 58 34
24259 483 583 4
24260 483 134 59
24261 483 378 97
24262 483 308 37
24263 483 849 64
24264 483 543 68
24265 483 36 98
24266 483 122 43
24267 483 14 18
24268 483 827 8
24269 483 713 86
24270 483 272 52
24271 483 130 57
24272 483 278 77
24273 483 370 78
24274 483 529 91
24275 483 656 89
24276 483 848 6
24277 483 191 4
24278 483 931 76
24279 483 928 79
24280 483 794 52
24281 483 661 96
24282 483 997 19
24283 483 943 69
24284 483 234 72
24285 483 241 4
24286 483 902 66
24287 483 348 40
24288 483 637 60
24289 483 518 34
24290 483 507 76
24291 483 891 79
24292 483 619 19
24293 483 522 97
24294 483 574 94
24295 483 184 27
24296 483 976 93
24297 483 478 93
24298 483 226 33
24299 483 956 29
24300 483 620 48
24301 483 730 60
24302 483 175 97
24303 484 880 67
24304 484 560 94
24305 484 722 31
24306 484 967 78
24307 484 23 4
24308 484 604 51
24309 484 235 98
24310 484 928 32
24311 484 2 99
24312 484 536 96
24313 484 394 83
24314 484 460 22
24315 484 719 11
24316 484 736 25
24317 484 107 60
24318 484 198 89
24319 484 230 84
24320 484 95 52
24321 484 329 32
24322 484 339 21
24323 484 694 22
24324 484 614 1
24325 484 545 58
24326 484 778 97
24327 484 857 51
24328 484 784 6
24329 484 396 41
24330 484 189 71
24331 484 268 29
24332 484 828 54
24333 484 625 71
24334 484 644 63
24335 484 650 88
24336 484 850 17
24337 484 8 97
24338 484 748 54
24339 484 595 15
24340 484 360 36
24341 484 558 64
24342 484 550 90
24343 484 270 96
24344 484 816 15
24345 484 703 93
24346 484 854 28
24347 484 567 85
24348 484 104 24
24349 484 305 80
24350 484 597 8
24351 485 659 24
24352 485 662 13
24353 485 52 85
24354 485 616 84
24355 485 542 86
24356 485 593 30
24357 485 364 27
24358 485 408 30
24359 485 690 54
24360 485 929 67
24361 485 215 5
24362 485 466 23
24363 485 456 2
24364 485 464 91
24365 485 37 46
24366 485 468 76
24367 485 725 76
24368 485 530 40
24369 485 219 61
24370 485 400 19
24371 485 991 29
24372 485 282 87
24373 485 819 61
24374 485 388 34
24375 485 489 43
24376 485 990 74
24377 485 895 37
24378 485 41 15
24379 485 479 31
24380 485 856 57
24381 485 927 90
24382 485 491 75
24383 485 942 31
24384 485 537 35
24385 485 469 91
24386 485 110 20
24387 485 331 15
24388 485 656 80
24389 485 3 79
24390 485 741 58
24391 485 734 87
24392 485 905 27
24393 485 121 74
24394 485 940 61
24395 485 731 6
24396 485 565 1
24397 485 500 82
24398 485 651 48
24399 485 53 87
24400 485 95 59
24401 485 169 86
24402 486 693 10
24403 486 485 54
24404 486 53 17
24405 486 932 53
24406 486 282 38
24407 486 789 74
24408 486 433 49
24409 486 669 93
24410 486 18 25
24411 486 689 39
24412 486 746 72
24413 486 737 27
24414 486 427 34
24415 486 633 86
24416 486 184 89
24417 486 916 68
24418 486 275 86
24419 486 686 33
24420 486 837 28
24421 486 374 57
24422 486 419 72
24423 486 324 22
24424 486 918 87
24425 486 380 92
24426 486 651 32
24427 486 294 6
24428 486 50 68
24429 486 59 72
24430 486 319 2
24431 486 155 93
24432 486 407 51
24433 486 808 27
24434 486 237 97
24435 486 618 21
24436 486 565 67
24437 486 742 35
24438 486 33 1
24439 486 331 70
24440 486 146 40
24441 486 923 69
24442 486 658 32
24443 487 276 7
24444 487 897 41
24445 487 744 33
24446 487 756 16
24447 487 602 25
24448 487 142 68
24449 487 473 36
24450 487 143 49
24451 487 17 17
24452 487 643 84
24453 487 984 84
24454 487 966 10
24455 487 163 67
24456 487 129 86
24457 487 264 36
24458 487 48 47
24459 487 81 73
24460 487 244 38
24461 487 888 38
24462 487 674 35
24463 487 324 34
24464 487 755 2
24465 487 659 92
24466 487 228 12
24467 487 395 14
24468 487 599 72
24469 487 217 39
24470 487 922 43
24471 487 711 45
24472 487 704 54
24473 487 917 28
24474 487 47 88
24475 487 99 68
24476 487 357 9
24477 487 973 67
24478 487 301 94
24479 487 717 36
24480 487 57 19
24481 487 389 54
24482 487 562 41
24483 487 949 60
24484 487 31 15
24485 487 375 65
24486 487 343 81
24487 488 502 29
24488 488 234 80
24489 488 798 93
24490 488 118 62
24491 488 860 69
24492 488 425 69
24493 488 55 92
24494 488 230 72
24495 488 595 10
24496 488 537 89
24497 488 399 79
24498 488 707 49
24499 488 690 71
24500 488 288 25
24501 488 514 17
24502 488 615 5
24503 488 47 68
24504 488 299 2
24505 488 542 28
24506 488 57 100
24507 488 197 17
24508 488 75 98
24509 488 944 68
24510 488 437 92
24511 488 549 73
24512 488 891 62
24513 488 852 81
24514 488 250 55
24515 488 462 9
24516 488 880 41
24517 488 463 83
24518 488 684 87
24519 488 71 100
24520 488 474 22
24521 488 701 86
24522 488 419 6
24523 488 828 83
24524 488 861 42
24525 488 239 43
24526 488 140 25
24527 488 50 11
24528 488 901 23
24529 488 716 67
24530 488 973 98
24531 488 556 42
24532 488 158 23
24533 488 869 80
24534 488 562 76
24535 488 512 86
24536 488 430 70
24537 488 990 39
24538 488 266 95
24539 488 283 66
24540 488 130 38
24541 488 628 22
24542 488 391 55
24543 488 102 58
24544 488 93 50
24545 488 574 41
24546 489 185 50
24547 489 693 25
24548 489 107 69
24549 489 405 31
24550 489 929 68
24551 489 325 73
24552 489 787 21
24553 489 579 81
24554 489 388 83
24555 489 943 97
24556 489 34 37
24557 489 124 2
24558 489 741 41
24559 489 227 36
24560 489 668 43
24561 489 298 39
24562 489 380 87
24563 489 844 52
24564 489 862 96
24565 489 531 51
24566 489 581 1
24567 489 267 96
24568 489 915 74
24569 489 554 53
24570 489 48 14
24571 489 768 46
24572 489 813 81
24573 489 211 36
24574 489 233 35
24575 489 613 98
24576 489 354 29
24577 489 312 74
24578 489 268 40
24579 489 807 92
24580 489 630 27
24581 489 374 88
24582 489 288 74
24583 489 636 96
24584 489 655 50
24585 489 457 93
24586 489 498 25
24587 489 291 86
24588 489 598 36
24589 489 239 55
24590 489 390 29
24591 489 97 85
24592 489 28 70
24593 490 885 53
24594 490 76 9
24595 490 435 25
24596 490 28 45
24597 490 148 96
24598 490 328 2
24599 490 833 76
24600 490 666 71
24601 490 353 2
24602 490 730 87
24603 490 847 91
24604 490 967 94
24605 490 685 95
24606 490 552 89
24607 490 145 15
24608 490 407 66
24609 490 60 61
24610 490 587 98
24611 490 696 73
24612 490 27 28
24613 490 682 37
24614 490 460 99
24615 490 377 7
24616 490 195 98
24617 490 11 40
24618 490 217 57
24619 490 976 31
24620 490 623 37
24621 490 625 50
24622 490 257 4
24623 490 438 85
24624 490 302 28
24625 490 926 86
24626 490 754 25
24627 490 844 12
24628 490 486 98
24629 490 287 52
24630 490 830 81
24631 490 800 61
24632 490 917 1
24633 490 886 95
24634 490 379 69
24635 490 854 48
24636 490 7 44
24637 490 336 78
24638 490 722 85
24639 490 740 69
24640 491 121 12
24641 491 113 47
24642 491 570 11
24643 491 463 68
24644 491 206 71
24645 491 927 9
24646 491 585 66
24647 491 428 60
24648 491 808 26
24649 491 956 36
24650 491 733 2
24651 491 332 86
24652 491 421 9
24653 491 591 20
24654 491 964 65
24655 491 125 19
24656 491 59 24
24657 491 99 89
24658 491 26 36
24659 491 632 42
24660 491 667 66
24661 491 893 48
24662 491 476 20
24663 491 949 20
24664 491 86 97
24665 491 961 25
24666 491 856 4
24667 491 511 74
24668 491 707 19
24669 491 311 53
24670 491 870 79
24671 491 239 30
24672 491 624 41
24673 491 56 59
24674 491 868 53
24675 491 569 10
24676 491 692 86
24677 491 494 52
24678 491 801 51
24679 491 301 92
24680 491 198 6
24681 491 182 12
24682 491 795 30
24683 491 437 35
24684 491 169 72
24685 491 878 39
24686 491 170 50
24687 491 900 24
24688 491 234 3
24689 491 235 78
24690 491 236 19
24691 491 195 7
24692 492 647 59
24693 492 326 44
24694 492 179 92
24695 492 715 34
24696 492 620 16
24697 492 985 50
24698 492 650 89
24699 492 75 69
24700 492 553 47
24701 492 873 15
24702 492 918 87
24703 492 935 25
24704 492 870 62
24705 492 821 8
24706 492 659 76
24707 492 508 28
24708 492 217 44
24709 492 957 59
24710 492 591 39
24711 492 631 79
24712 492 731 77
24713 492 736 54
24714 492 627 34
24715 492 410 69
24716 492 586 75
24717 492 739 45
24718 492 832 25
24719 492 952 86
24720 492 743 4
24721 492 680 14
24722 492 82 87
24723 492 485 61
24724 492 954 56
24725 492 400 58
24726 492 13 68
24727 492 825 89
24728 492 318 54
24729 492 633 38
24730 492 448 40
24731 492 175 44
24732 492 506 31
24733 492 258 57
24734 492 623 11
24735 492 80 29
24736 492 719 38
24737 492 47 29
24738 492 904 74
24739 493 161 51
24740 493 652 10
24741 493 283 33
24742 493 833 43
24743 493 411 19
24744 493 220 19
24745 493 709 47
24746 493 676 10
24747 493 350 33
24748 493 923 80
24749 493 871 67
24750 493 135 41
24751 493 11 94
24752 493 649 59
24753 493 925 79
24754 493 519 12
24755 493 973 23
24756 493 117 74
24757 493 661 16
24758 493 186 62
24759 493 896 9
24760 493 305 12
24761 493 919 43
24762 493 52 48
24763 493 318 1
24764 493 738 55
24765 493 529 21
24766 493 567 43
24767 493 916 55
24768 493 538 33
24769 493 813 6
24770 493 311 75
24771 493 299 87
24772 493 574 74
24773 493 609 18
24774 493 246 59
24775 493 497 97
24776 493 806 72
24777 493 409 45
24778 493 888 79
24779 493 98 27
24780 493 962 33
24781 494 708 46
24782 494 560 60
24783 494 213 25
24784 494 817 76
24785 494 129 35
24786 494 429 65
24787 494 980 98
24788 494 766 27
24789 494 89 66
24790 494 298 49
24791 494 356 70
24792 494 303 80
24793 494 328 82
24794 494 344 21
24795 494 410 40
24796 494 543 18
24797 494 640 82
24798 494 985 69
24799 494 786 17
24800 494 194 86
24801 494 193 54
24802 494 492 21
24803 494 869 45
24804 494 290 83
24805 494 241 95
24806 494 449 75
24807 494 53 72
24808 494 425 11
24809 494 288 29
24810 494 440 73
24811 494 874 32
24812 494 438 83
24813 494 982 90
24814 494 931 4
24815 494 48 11
24816 494 223 3
24817 494 319 57
24818 494 299 76
24819 494 465 24
24820 494 10 76
24821 494 881 77
24822 494 677 74
24823 494 648 82
24824 494 353 17
24825 494 124 85
24826 494 226 5
24827 494 294 38
24828 495 747 62
24829 495 620 18
24830 495 370 56
24831 495 584 3
24832 495 559 89
24833 495 265 75
24834 495 300 89
24835 495 963 15
24836 495 9 83
24837 495 485 1
24838 495 678 78
24839 495 655 16
24840 495 864 93
24841 495 667 18
24842 495 512 42
24843 495 588 40
24844 495 337 98
24845 495 95 68
24846 495 628 17
24847 495 119 37
24848 495 634 95
24849 495 448 92
24850 495 636 9
24851 495 645 43
24852 495 715 38
24853 495 831 95
24854 495 615 41
24855 495 903 67
24856 495 893 92
24857 495 604 9
24858 495 125 68
24859 495 520 53
24860 495 250 56
24861 495 607 47
24862 495 828 46
24863 495 632 33
24864 495 167 79
24865 495 778 50
24866 495 534 57
24867 495 503 82
24868 495 311 15
24869 495 241 54
24870 495 635 82
24871 495 989 53
24872 495 182 54
24873 495 545 69
24874 495 90 36
24875 495 570 60
24876 495 441 50
24877 496 340 47
24878 496 525 76
24879 496 916 100
24880 496 77 23
24881 496 360 85
24882 496 70 99
24883 496 817 27
24884 496 686 10
24885 496 449 80
24886 496 635 78
24887 496 447 84
24888 496 416 33
24889 496 394 47
24890 496 620 26
24891 496 746 58
24892 496 898 7
24893 496 152 18
24894 496 43 100
24895 496 638 14
24896 496 352 15
24897 496 544 66
24898 496 790 87
24899 496 930 64
24900 496 267 53
24901 496 710 36
24902 496 842 2
24903 496 529 47
24904 496 557 47
24905 496 9 30
24906 496 513 49
24907 496 876 8
24908 496 261 19
24909 496 868 51
24910 496 123 16
24911 496 744 39
24912 496 784 27
24913 496 575 100
24914 496 68 16
24915 496 325 65
24916 496 342 6
24917 496 931 30
24918 496 24 85
24919 496 730 85
24920 496 51 67
24921 496 950 30
24922 496 317 10
24923 496 5 49
24924 496 780 32
24925 496 813 52
24926 496 207 65
24927 496 192 4
24928 496 54 54
24929 496 502 92
24930 496 819 57
24931 496 33 90
24932 496 12 34
24933 496 878 30
24934 497 784 46
24935 497 756 30
24936 497 770 34
24937 497 328 67
24938 497 522 43
24939 497 71 73
24940 497 809 60
24941 497 502 59
24942 497 425 84
24943 497 46 19
24944 497 643 56
24945 497 432 22
24946 497 428 33
24947 497 407 98
24948 497 906 81
24949 497 585 23
24950 497 185 66
24951 497 95 28
24952 497 870 3
24953 497 516 10
24954 497 466 30
24955 497 847 85
24956 497 317 44
24957 497 401 68
24958 497 217 78
24959 497 65 83
24960 497 99 16
24961 497 568 56
24962 497 835 99
24963 497 799 80
24964 497 437 52
24965 497 750 70
24966 497 391 16
24967 497 560 20
24968 497 894 43
24969 497 747 6
24970 497 423 92
24971 497 675 57
24972 497 897 64
24973 497 978 90
24974 497 2 11
24975 497 647 94
24976 497 347 53
24977 497 780 50
24978 497 863 7
24979 497 373 76
24980 497 28 40
24981 497 48 29
24982 497 484 45
24983 497 820 59
24984 497 579 38
24985 497 81 54
24986 497 459 60
24987 497 143 6
24988 497 403 96
24989 497 582 23
24990 497 681 57
24991 497 804 49
24992 497 294 21
24993 497 54 1
24994 498 821 11
24995 498 80 99
24996 498 576 92
24997 498 631 45
24998 498 457 40
24999 498 983 46
25000 498 347 66
25001 498 676 14
25002 498 686 39
25003 498 993 74
25004 498 756 56
25005 498 295 43
25006 498 209 78
25007 498 394 29
25008 498 133 9
25009 498 464 68
25010 498 318 3
25011 498 292 48
25012 498 936 47
25013 498 990 67
25014 498 633 46
25015 498 33 8
25016 498 330 2
25017 498 981 55
25018 498 465 92
25019 498 71 72
25020 498 232 84
25021 498 565 12
25022 498 500 65
25023 498 505 17
25024 498 945 29
25025 498 834 71
25026 498 626 97
25027 498 813 65
25028 498 564 19
25029 498 747 49
25030 498 608 95
25031 498 134 68
25032 498 846 90
25033 498 356 94
25034 498 754 72
25035 498 799 3
25036 498 725 50
25037 498 66 83
25038 498 927 70
25039 499 843 73
25040 499 876 13
25041 499 157 5
25042 499 363 77
25043 499 148 81
25044 499 886 13
25045 499 660 44
25046 499 54 24
25047 499 258 19
25048 499 86 60
25049 499 947 97
25050 499 950 11
25051 499 126 51
25052 499 970 99
25053 499 257 28
25054 499 331 47
25055 499 503 78
25056 499 568 71
25057 499 984 29
25058 499 800 46
25059 499 489 40
25060 499 385 42
25061 499 21 7
25062 499 833 60
25063 499 30 19
25064 499 55 72
25065 499 361 62
25066 499 740 69
25067 499 627 9
25068 499 574 19
25069 499 16 69
25070 499 727 73
25071 499 186 27
25072 499 302 57
25073 499 595 26
25074 499 989 90
25075 499 130 15
25076 499 569 76
25077 499 441 5
25078 499 914 12
25079 499 65 34
25080 499 994 5
25081 499 358 98
25082 499 494 100
25083 500 676 97
25084 500 841 42
25085 500 644 72
25086 500 74 33
25087 500 887 86
25088 500 106 90
25089 500 13 4
25090 500 386 59
25091 500 719 8
25092 500 599 100
25093 500 792 60
25094 500 981 55
25095 500 125 72
25096 500 932 32
25097 500 832 6
25098 500 584 19
25099 500 620 42
25100 500 247 56
25101 500 346 13
25102 500 398 74
25103 500 772 40
25104 500 326 34
25105 500 588 23
25106 500 223 32
25107 500 274 32
25108 500 618 10
25109 500 963 63
25110 500 81 10
25111 500 645 9
25112 500 85 1
25113 500 756 29
25114 500 627 4
25115 500 186 22
25116 500 128 78
25117 500 973 52
25118 500 575 52
25119 500 684 30
25120 500 735 20
25121 500 962 100
25122 500 46 84
25123 500 791 66
25124 500 562 64
25125 501 875 92
25126 501 575 33
25127 501 933 38
25128 501 515 76
25129 501 569 61
25130 501 301 64
25131 501 627 14
25132 501 679 94
25133 501 578 13
25134 501 415 34
25135 501 621 48
25136 501 649 65
25137 501 608 52
25138 501 176 58
25139 501 44 3
25140 501 330 72
25141 501 194 93
25142 501 579 24
25143 501 339 86
25144 501 427 68
25145 501 175 13
25146 501 155 55
25147 501 914 81
25148 501 242 40
25149 501 315 96
25150 501 750 51
25151 501 170 55
25152 501 78 54
25153 501 294 99
25154 501 404 46
25155 501 671 82
25156 501 377 21
25157 501 62 38
25158 501 685 13
25159 501 298 83
25160 501 865 84
25161 501 973 82
25162 501 165 34
25163 501 359 96
25164 501 922 28
25165 501 593 87
25166 501 93 55
25167 501 463 22
25168 501 559 9
25169 501 622 56
25170 501 995 10
25171 501 145 28
25172 501 374 87
25173 501 620 22
25174 501 443 42
25175 501 134 12
25176 501 447 31
25177 501 842 4
25178 502 617 93
25179 502 945 68
25180 502 543 31
25181 502 320 46
25182 502 510 8
25183 502 659 71
25184 502 739 65
25185 502 771 81
25186 502 557 31
25187 502 507 73
25188 502 197 1
25189 502 973 52
25190 502 379 52
25191 502 189 39
25192 502 413 34
25193 502 802 7
25194 502 958 93
25195 502 680 27
25196 502 792 2
25197 502 262 86
25198 502 821 72
25199 502 20 54
25200 502 934 73
25201 502 349 10
25202 502 549 13
25203 502 118 66
25204 502 299 44
25205 502 112 90
25206 502 356 42
25207 502 682 77
25208 502 993 54
25209 502 577 88
25210 502 831 52
25211 502 506 19
25212 502 977 12
25213 502 120 33
25214 502 876 58
25215 502 632 26
25216 502 817 76
25217 502 478 32
25218 502 113 42
25219 502 623 86
25220 502 663 4
25221 502 559 42
25222 502 233 3
25223 502 743 68
25224 502 497 3
25225 502 229 91
25226 502 264 99
25227 502 94 81
25228 502 345 34
25229 502 493 74
25230 502 492 27
25231 502 241 12
25232 503 388 15
25233 503 532 46
25234 503 502 55
25235 503 814 90
25236 503 372 82
25237 503 409 7
25238 503 880 79
25239 503 797 87
25240 503 665 60
25241 503 289 10
25242 503 667 53
25243 503 499 9
25244 503 719 8
25245 503 13 31
25246 503 19 99
25247 503 571 11
25248 503 494 23
25249 503 965 97
25250 503 996 10
25251 503 862 69
25252 503 264 88
25253 503 508 61
25254 503 309 52
25255 503 826 15
25256 503 894 29
25257 503 890 36
25258 503 673 3
25259 503 438 87
25260 503 473 43
25261 503 999 66
25262 503 991 28
25263 503 583 8
25264 503 828 63
25265 503 601 21
25266 503 311 13
25267 503 241 34
25268 503 657 9
25269 503 5 71
25270 503 324 85
25271 503 182 78
25272 503 557 75
25273 503 273 86
25274 503 121 84
25275 503 729 19
25276 503 483 2
25277 503 671 44
25278 503 402 50
25279 503 541 68
25280 503 59 35
25281 503 632 91
25282 503 410 87
25283 503 706 64
25284 503 102 47
25285 503 296 64
25286 503 53 8
25287 503 127 61
25288 503 724 61
25289 503 303 67
25290 503 762 50
25291 503 222 7
25292 503 609 91
25293 503 985 24
25294 504 516 70
25295 504 335 19
25296 504 283 97
25297 504 752 96
25298 504 856 44
25299 504 847 2
25300 504 857 40
25301 504 780 60
25302 504 419 45
25303 504 4 92
25304 504 582 14
25305 504 980 96
25306 504 221 30
25307 504 935 66
25308 504 881 76
25309 504 645 35
25310 504 401 25
25311 504 632 14
25312 504 614 71
25313 504 390 42
25314 504 872 51
25315 504 959 8
25316 504 982 22
25317 504 845 38
25318 504 720 30
25319 504 44 28
25320 504 873 99
25321 504 925 89
25322 504 40 37
25323 504 998 11
25324 504 945 18
25325 504 257 52
25326 504 232 98
25327 504 365 68
25328 504 794 28
25329 504 800 90
25330 504 88 41
25331 504 398 18
25332 504 779 77
25333 504 227 48
25334 504 758 48
25335 504 462 81
25336 504 144 94
25337 504 329 36
25338 504 49 93
25339 504 236 50
25340 504 210 94
25341 504 417 46
25342 504 60 45
25343 504 604 11
25344 504 454 99
25345 505 892 49
25346 505 42 9
25347 505 557 17
25348 505 449 61
25349 505 146 94
25350 505 847 38
25351 505 440 30
25352 505 383 96
25353 505 809 67
25354 505 891 92
25355 505 281 71
25356 505 930 34
25357 505 93 34
25358 505 707 32
25359 505 994 96
25360 505 593 29
25361 505 345 16
25362 505 842 47
25363 505 163 36
25364 505 942 38
25365 505 589 55
25366 505 131 98
25367 505 322 77
25368 505 165 34
25369 505 168 21
25370 505 563 22
25371 505 554 95
25372 505 566 100
25373 505 954 44
25374 505 780 3
25375 505 267 66
25376 505 395 51
25377 505 916 35
25378 505 258 2
25379 505 726 8
25380 505 198 91
25381 505 152 41
25382 505 779 64
25383 505 749 7
25384 505 302 74
25385 505 223 68
25386 505 710 44
25387 505 638 38
25388 505 980 4
25389 505 621 92
25390 505 427 72
25391 505 123 97
25392 505 803 93
25393 506 919 71
25394 506 794 68
25395 506 751 41
25396 506 76 72
25397 506 957 16
25398 506 160 52
25399 506 908 35
25400 506 297 16
25401 506 128 21
25402 506 402 90
25403 506 423 33
25404 506 867 3
25405 506 783 17
25406 506 33 45
25407 506 625 74
25408 506 288 68
25409 506 666 41
25410 506 711 29
25411 506 797 86
25412 506 168 56
25413 506 803 88
25414 506 885 43
25415 506 108 72
25416 506 869 45
25417 506 445 37
25418 506 313 50
25419 506 164 44
25420 506 474 27
25421 506 44 62
25422 506 832 29
25423 506 175 85
25424 506 640 92
25425 506 112 78
25426 506 75 23
25427 506 312 36
25428 506 36 93
25429 506 714 90
25430 506 492 16
25431 506 403 56
25432 506 592 96
25433 506 487 39
25434 506 623 63
25435 506 386 83
25436 506 556 29
25437 506 336 97
25438 506 258 59
25439 506 184 15
25440 506 830 42
25441 506 246 63
25442 506 766 30
25443 506 311 37
25444 506 119 92
25445 506 663 45
25446 507 781 21
25447 507 629 41
25448 507 793 62
25449 507 788 62
25450 507 625 24
25451 507 522 44
25452 507 883 37
25453 507 95 65
25454 507 190 69
25455 507 264 67
25456 507 40 7
25457 507 467 5
25458 507 756 15
25459 507 241 12
25460 507 81 86
25461 507 942 54
25462 507 683 55
25463 507 505 63
25464 507 269 46
25465 507 971 45
25466 507 182 9
25467 507 303 10
25468 507 945 48
25469 507 107 25
25470 507 812 76
25471 507 439 12
25472 507 920 30
25473 507 538 52
25474 507 846 100
25475 507 198 88
25476 507 323 13
25477 507 163 13
25478 507 701 29
25479 507 748 97
25480 507 577 87
25481 507 651 68
25482 507 623 88
25483 507 803 91
25484 507 624 52
25485 507 616 74
25486 507 311 48
25487 507 924 58
25488 507 737 20
25489 507 290 23
25490 507 914 92
25491 507 244 8
25492 507 512 71
25493 507 790 44
25494 507 416 44
25495 507 245 28
25496 507 178 87
25497 507 746 13
25498 507 339 26
25499 507 272 85
25500 507 22 37
25501 507 10 91
25502 507 620 87
25503 507 175 84
25504 507 470 67
25505 507 839 36
25506 507 465 31
25507 507 546 21
25508 507 739 60
25509 507 667 72
25510 507 379 100
25511 508 85 85
25512 508 222 54
25513 508 437 90
25514 508 520 43
25515 508 637 8
25516 508 830 100
25517 508 254 95
25518 508 204 48
25519 508 396 13
25520 508 456 49
25521 508 125 62
25522 508 302 51
25523 508 982 95
25524 508 279 71
25525 508 860 60
25526 508 203 37
25527 508 690 77
25528 508 695 93
25529 508 373 68
25530 508 4 6
25531 508 501 74
25532 508 339 83
25533 508 407 100
25534 508 815 76
25535 508 825 99
25536 508 170 28
25537 508 480 37
25538 508 780 79
25539 508 890 13
25540 508 377 55
25541 508 367 5
25542 508 699 87
25543 508 588 63
25544 508 315 79
25545 508 582 74
25546 508 472 67
25547 508 821 49
25548 508 527 77
25549 508 15 54
25550 508 138 76
25551 508 729 68
25552 508 42 100
25553 508 995 17
25554 508 466 45
25555 508 154 14
25556 508 819 89
25557 508 185 81
25558 508 900 53
25559 508 525 84
25560 508 639 16
25561 508 200 57
25562 508 913 36
25563 508 556 50
25564 508 388 6
25565 508 5 8
25566 509 786 64
25567 509 295 56
25568 509 431 35
25569 509 948 85
25570 509 635 1
25571 509 91 31
25572 509 191 69
25573 509 837 98
25574 509 10 24
25575 509 202 72
25576 509 954 17
25577 509 269 60
25578 509 179 2
25579 509 2 27
25580 509 175 83
25581 509 871 75
25582 509 364 38
25583 509 714 3
25584 509 177 94
25585 509 858 94
25586 509 361 65
25587 509 504 28
25588 509 865 71
25589 509 615 4
25590 509 166 50
25591 509 965 49
25592 509 784 25
25593 509 322 40
25594 509 235 82
25595 509 244 6
25596 509 144 65
25597 509 56 78
25598 509 822 52
25599 509 317 79
25600 509 595 29
25601 509 613 98
25602 509 359 53
25603 509 766 68
25604 509 741 47
25605 509 966 23
25606 509 908 14
25607 509 765 44
25608 509 622 5
25609 509 567 80
25610 510 219 1
25611 510 497 40
25612 510 528 61
25613 510 754 27
25614 510 317 100
25615 510 810 51
25616 510 929 85
25617 510 201 99
25618 510 125 78
25619 510 702 50
25620 510 207 99
25621 510 251 63
25622 510 11 82
25623 510 19 52
25624 510 321 8
25625 510 184 10
25626 510 967 30
25627 510 788 14
25628 510 488 78
25629 510 681 84
25630 510 29 92
25631 510 714 37
25632 510 361 96
25633 510 389 19
25634 510 935 11
25635 510 628 82
25636 510 602 8
25637 510 593 92
25638 510 948 16
25639 510 405 49
25640 510 463 22
25641 510 41 89
25642 510 127 22
25643 510 112 95
25644 510 357 36
25645 510 792 36
25646 510 179 10
25647 510 277 94
25648 510 674 92
25649 510 511 50
25650 510 968 63
25651 510 807 48
25652 510 651 72
25653 510 841 50
25654 510 634 76
25655 510 530 3
25656 510 307 58
25657 510 106 78
25658 510 902 42
25659 510 574 68
25660 510 214 63
25661 510 991 62
25662 510 592 26
25663 510 934 15
25664 510 890 43
25665 510 645 5
25666 511 480 42
25667 511 845 34
25668 511 418 70
25669 511 821 67
25670 511 936 40
25671 511 166 100
25672 511 399 32
25673 511 519 56
25674 511 584 36
25675 511 420 68
25676 511 807 20
25677 511 214 41
25678 511 170 30
25679 511 918 22
25680 511 321 52
25681 511 502 99
25682 511 555 62
25683 511 659 8
25684 511 462 55
25685 511 803 67
25686 511 151 88
25687 511 385 63
25688 511 916 19
25689 511 491 9
25690 511 494 4
25691 511 977 81
25692 511 819 29
25693 511 290 34
25694 511 81 93
25695 511 260 24
25696 511 882 58
25697 511 78 47
25698 511 91 50
25699 511 666 81
25700 511 851 26
25701 511 870 81
25702 511 461 77
25703 511 327 57
25704 511 792 9
25705 511 42 53
25706 511 826 3
25707 511 911 34
25708 511 814 72
25709 511 109 16
25710 511 178 83
25711 511 323 18
25712 511 351 30
25713 511 914 22
25714 511 172 41
25715 511 529 31
25716 511 17 53
25717 512 466 77
25718 512 792 64
25719 512 894 87
25720 512 806 32
25721 512 282 24
25722 512 460 1
25723 512 581 9
25724 512 254 74
25725 512 67 35
25726 512 352 98
25727 512 879 61
25728 512 544 36
25729 512 608 45
25730 512 52 38
25731 512 402 13
25732 512 390 47
25733 512 525 96
25734 512 508 29
25735 512 283 37
25736 512 243 40
25737 512 179 40
25738 512 783 34
25739 512 309 91
25740 512 903 70
25741 512 382 95
25742 512 378 80
25743 512 439 10
25744 512 392 65
25745 512 661 11
25746 512 291 83
25747 512 609 39
25748 512 72 49
25749 512 425 58
25750 512 795 72
25751 512 188 22
25752 512 440 8
25753 512 932 48
25754 512 127 17
25755 512 257 5
25756 512 344 92
25757 512 991 4
25758 512 534 14
25759 512 381 98
25760 512 105 89
25761 512 199 38
25762 512 596 93
25763 513 974 78
25764 513 815 86
25765 513 880 16
25766 513 910 42
25767 513 940 51
25768 513 115 51
25769 513 566 57
25770 513 950 80
25771 513 448 30
25772 513 610 97
25773 513 625 51
25774 513 616 31
25775 513 147 24
25776 513 730 10
25777 513 35 35
25778 513 981 82
25779 513 451 42
25780 513 797 13
25781 513 8 65
25782 513 247 71
25783 513 336 34
25784 513 20 69
25785 513 90 99
25786 513 826 24
25787 513 130 95
25788 513 149 47
25789 513 980 98
25790 513 229 88
25791 513 579 57
25792 513 313 67
25793 513 63 50
25794 513 248 3
25795 513 430 21
25796 513 922 86
25797 513 398 17
25798 513 33 94
25799 513 724 6
25800 513 652 32
25801 513 892 14
25802 513 790 63
25803 513 446 13
25804 513 627 43
25805 513 405 3
25806 513 745 79
25807 514 265 16
25808 514 117 82
25809 514 353 39
25810 514 69 32
25811 514 406 62
25812 514 775 20
25813 514 202 100
25814 514 674 18
25815 514 314 95
25816 514 409 100
25817 514 542 6
25818 514 352 66
25819 514 782 42
25820 514 373 37
25821 514 831 37
25822 514 574 30
25823 514 90 83
25824 514 520 72
25825 514 46 68
25826 514 484 77
25827 514 120 8
25828 514 80 56
25829 514 481 92
25830 514 501 17
25831 514 354 64
25832 514 476 7
25833 514 846 90
25834 514 466 44
25835 514 449 63
25836 514 51 48
25837 514 246 68
25838 514 663 48
25839 514 302 5
25840 514 869 45
25841 514 363 33
25842 514 649 59
25843 514 814 16
25844 514 845 89
25845 514 597 58
25846 514 909 2
25847 514 778 86
25848 514 242 38
25849 514 695 79
25850 514 24 72
25851 514 986 87
25852 514 784 9
25853 514 773 44
25854 514 183 25
25855 514 273 89
25856 514 812 47
25857 514 336 95
25858 514 73 59
25859 514 465 82
25860 514 475 53
25861 514 517 86
25862 514 577 71
25863 514 764 64
25864 515 579 58
25865 515 30 65
25866 515 884 82
25867 515 429 100
25868 515 830 75
25869 515 353 52
25870 515 157 46
25871 515 573 46
25872 515 788 87
25873 515 214 33
25874 515 715 35
25875 515 40 73
25876 515 419 26
25877 515 369 46
25878 515 560 24
25879 515 447 79
25880 515 243 78
25881 515 454 20
25882 515 231 68
25883 515 457 64
25884 515 109 93
25885 515 362 55
25886 515 857 33
25887 515 824 27
25888 515 277 97
25889 515 3 22
25890 515 542 13
25891 515 141 26
25892 515 356 26
25893 515 698 79
25894 515 953 13
25895 515 206 42
25896 515 963 63
25897 515 316 65
25898 515 950 26
25899 515 322 57
25900 515 138 76
25901 515 836 78
25902 515 59 40
25903 515 590 30
25904 515 932 79
25905 515 437 34
25906 515 332 50
25907 515 125 31
25908 515 460 11
25909 515 780 70
25910 515 745 99
25911 515 973 40
25912 516 448 68
25913 516 11 95
25914 516 484 18
25915 516 676 78
25916 516 887 5
25917 516 843 36
25918 516 556 82
25919 516 827 33
25920 516 998 36
25921 516 644 56
25922 516 283 62
25923 516 2 22
25924 516 682 53
25925 516 182 89
25926 516 638 21
25927 516 590 56
25928 516 991 67
25929 516 577 16
25930 516 364 6
25931 516 702 90
25932 516 81 77
25933 516 456 92
25934 516 435 43
25935 516 670 4
25936 516 464 22
25937 516 668 34
25938 516 824 39
25939 516 780 96
25940 516 653 38
25941 516 915 70
25942 516 226 79
25943 516 146 56
25944 516 877 81
25945 516 552 11
25946 516 303 40
25947 516 526 46
25948 516 533 50
25949 516 318 37
25950 516 666 73
25951 516 772 86
25952 516 974 83
25953 516 23 56
25954 516 289 7
25955 516 194 34
25956 516 610 69
25957 517 283 80
25958 517 742 42
25959 517 229 95
25960 517 478 4
25961 517 672 77
25962 517 514 32
25963 517 659 96
25964 517 911 35
25965 517 318 31
25966 517 510 67
25967 517 731 30
25968 517 989 34
25969 517 644 71
25970 517 6 48
25971 517 331 71
25972 517 542 78
25973 517 834 80
25974 517 523 11
25975 517 568 77
25976 517 917 97
25977 517 696 2
25978 517 139 1
25979 517 745 7
25980 517 105 78
25981 517 518 26
25982 517 274 30
25983 517 999 97
25984 517 221 74
25985 517 537 97
25986 517 408 65
25987 517 642 80
25988 517 898 22
25989 517 291 60
25990 517 814 46
25991 517 267 22
25992 517 876 21
25993 517 118 32
25994 517 468 59
25995 517 50 2
25996 517 294 1
25997 517 428 16
25998 517 707 79
25999 517 441 11
26000 517 925 77
26001 517 572 58
26002 517 580 93
26003 517 566 1
26004 517 795 81
26005 517 837 71
26006 518 342 45
26007 518 599 52
26008 518 72 8
26009 518 639 17
26010 518 566 72
26011 518 381 1
26012 518 242 49
26013 518 82 3
26014 518 675 95
26015 518 350 81
26016 518 610 5
26017 518 912 19
26018 518 926 3
26019 518 143 23
26020 518 136 43
26021 518 583 1
26022 518 615 90
26023 518 428 97
26024 518 573 58
26025 518 851 28
26026 518 697 100
26027 518 351 85
26028 518 604 54
26029 518 552 36
26030 518 748 53
26031 518 588 90
26032 518 815 38
26033 518 92 92
26034 518 205 97
26035 518 582 85
26036 518 467 22
26037 518 537 8
26038 518 216 33
26039 518 891 99
26040 518 401 33
26041 518 511 67
26042 518 30 88
26043 518 285 37
26044 518 927 93
26045 518 499 73
26046 518 190 94
26047 518 625 48
26048 518 44 45
26049 518 192 83
26050 518 910 20
26051 518 899 90
26052 519 656 80
26053 519 287 25
26054 519 357 6
26055 519 492 41
26056 519 295 76
26057 519 82 78
26058 519 399 53
26059 519 649 19
26060 519 629 20
26061 519 311 15
26062 519 487 48
26063 519 731 91
26064 519 981 74
26065 519 620 77
26066 519 104 29
26067 519 771 39
26068 519 599 5
26069 519 536 92
26070 519 168 94
26071 519 691 46
26072 519 610 73
26073 519 56 64
26074 519 607 79
26075 519 345 40
26076 519 672 56
26077 519 945 1
26078 519 414 44
26079 519 246 4
26080 519 390 8
26081 519 315 11
26082 519 59 16
26083 519 426 76
26084 519 40 78
26085 519 193 70
26086 519 495 13
26087 519 438 16
26088 519 825 46
26089 519 586 70
26090 519 410 8
26091 519 293 40
26092 519 512 43
26093 519 425 95
26094 519 515 12
26095 519 832 79
26096 519 354 34
26097 519 861 31
26098 519 470 64
26099 519 816 8
26100 519 501 86
26101 520 253 35
26102 520 486 17
26103 520 328 14
26104 520 514 94
26105 520 657 98
26106 520 953 91
26107 520 894 11
26108 520 133 47
26109 520 106 69
26110 520 113 31
26111 520 416 92
26112 520 344 23
26113 520 533 77
26114 520 373 7
26115 520 848 34
26116 520 318 90
26117 520 645 83
26118 520 654 100
26119 520 124 6
26120 520 47 54
26121 520 565 9
26122 520 991 32
26123 520 940 31
26124 520 213 52
26125 520 630 51
26126 520 305 20
26127 520 18 20
26128 520 749 57
26129 520 524 14
26130 520 748 53
26131 520 557 9
26132 520 119 99
26133 520 983 52
26134 520 881 23
26135 520 230 10
26136 520 32 100
26137 520 131 40
26138 520 422 63
26139 520 726 61
26140 520 198 42
26141 520 666 34
26142 520 910 8
26143 520 374 62
26144 520 30 90
26145 520 593 47
26146 520 596 19
26147 520 185 96
26148 520 309 73
26149 520 779 48
26150 520 604 76
26151 520 223 23
26152 520 367 54
26153 520 490 29
26154 520 744 88
26155 520 411 71
26156 520 383 46
26157 520 437 48
26158 521 246 95
26159 521 315 21
26160 521 479 44
26161 521 998 75
26162 521 601 4
26163 521 262 59
26164 521 956 29
26165 521 348 56
26166 521 727 80
26167 521 26 59
26168 521 62 90
26169 521 545 94
26170 521 126 74
26171 521 866 84
26172 521 459 50
26173 521 195 4
26174 521 220 49
26175 521 846 19
26176 521 723 25
26177 521 928 94
26178 521 391 84
26179 521 927 2
26180 521 470 94
26181 521 540 23
26182 521 767 21
26183 521 835 45
26184 521 996 67
26185 521 488 76
26186 521 77 10
26187 521 483 4
26188 521 559 41
26189 521 411 68
26190 521 990 58
26191 521 498 41
26192 521 463 51
26193 521 892 26
26194 521 571 6
26195 521 970 84
26196 521 86 32
26197 521 845 8
26198 521 89 37
26199 521 850 12
26200 521 811 75
26201 521 60 36
26202 521 301 58
26203 521 395 94
26204 521 456 2
26205 521 925 48
26206 521 495 23
26207 521 464 87
26208 521 352 70
26209 521 530 70
26210 522 944 34
26211 522 128 54
26212 522 917 18
26213 522 261 56
26214 522 190 93
26215 522 271 9
26216 522 89 59
26217 522 768 28
26218 522 225 65
26219 522 84 27
26220 522 727 75
26221 522 356 75
26222 522 193 93
26223 522 357 49
26224 522 868 93
26225 522 516 33
26226 522 137 84
26227 522 41 71
26228 522 302 87
26229 522 410 91
26230 522 907 57
26231 522 489 98
26232 522 654 74
26233 522 832 49
26234 522 748 25
26235 522 466 73
26236 522 760 47
26237 522 892 28
26238 522 780 16
26239 522 49 50
26240 522 76 32
26241 522 500 44
26242 522 467 21
26243 522 774 30
26244 522 81 54
26245 522 532 89
26246 522 132 100
26247 522 630 93
26248 522 757 36
26249 522 808 31
26250 522 263 60
26251 522 615 4
26252 522 140 74
26253 522 112 93
26254 522 624 70
26255 522 307 38
26256 522 831 10
26257 522 40 26
26258 522 968 5
26259 522 847 89
26260 522 761 43
26261 522 560 25
26262 523 666 38
26263 523 542 82
26264 523 588 25
26265 523 758 1
26266 523 824 88
26267 523 211 25
26268 523 429 85
26269 523 788 54
26270 523 571 96
26271 523 726 39
26272 523 150 45
26273 523 384 83
26274 523 926 74
26275 523 472 95
26276 523 266 63
26277 523 379 25
26278 523 309 67
26279 523 590 27
26280 523 529 80
26281 523 564 38
26282 523 906 62
26283 523 34 18
26284 523 935 71
26285 523 669 33
26286 523 246 60
26287 523 40 9
26288 523 400 20
26289 523 994 85
26290 523 717 16
26291 523 495 13
26292 523 130 53
26293 523 827 51
26294 523 829 45
26295 523 249 93
26296 523 734 71
26297 523 557 43
26298 523 182 10
26299 523 498 19
26300 523 688 49
26301 523 267 98
26302 523 583 92
26303 523 819 69
26304 523 374 5
26305 523 519 61
26306 523 402 48
26307 523 460 90
26308 523 796 53
26309 523 883 43
26310 523 439 39
26311 523 881 30
26312 523 321 75
26313 523 329 62
26314 523 790 11
26315 523 305 10
26316 523 183 27
26317 523 116 35
26318 523 818 87
26319 523 644 43
26320 523 491 97
26321 524 867 76
26322 524 41 53
26323 524 641 62
26324 524 628 31
26325 524 459 94
26326 524 279 53
26327 524 763 89
26328 524 416 50
26329 524 779 78
26330 524 54 41
26331 524 477 79
26332 524 187 59
26333 524 167 94
26334 524 452 18
26335 524 951 26
26336 524 94 20
26337 524 587 71
26338 524 584 46
26339 524 297 23
26340 524 891 12
26341 524 26 94
26342 524 338 2
26343 524 689 8
26344 524 888 62
26345 524 505 69
26346 524 376 14
26347 524 401 83
26348 524 471 87
26349 524 426 20
26350 524 511 70
26351 524 803 72
26352 524 644 64
26353 524 220 5
26354 524 674 9
26355 524 316 6
26356 524 698 79
26357 524 865 4
26358 524 363 51
26359 524 923 84
26360 524 64 87
26361 524 717 54
26362 524 210 31
26363 524 33 18
26364 524 538 89
26365 524 112 4
26366 524 968 72
26367 525 184 33
26368 525 173 32
26369 525 588 7
26370 525 455 34
26371 525 181 1
26372 525 6 89
26373 525 356 32
26374 525 245 51
26375 525 46 69
26376 525 535 3
26377 525 661 49
26378 525 733 66
26379 525 432 61
26380 525 31 77
26381 525 270 49
26382 525 938 85
26383 525 250 77
26384 525 444 73
26385 525 895 12
26386 525 397 47
26387 525 32 13
26388 525 512 22
26389 525 490 38
26390 525 80 31
26391 525 956 40
26392 525 773 79
26393 525 132 89
26394 525 677 84
26395 525 329 86
26396 525 195 91
26397 525 290 48
26398 525 104 20
26399 525 507 86
26400 525 977 73
26401 525 203 80
26402 525 336 4
26403 525 762 70
26404 525 784 36
26405 525 966 62
26406 525 901 97
26407 525 510 61
26408 525 469 61
26409 525 233 95
26410 525 720 100
26411 525 134 12
26412 525 665 81
26413 525 832 46
26414 525 986 13
26415 525 531 74
26416 525 151 27
26417 525 321 58
26418 525 172 71
26419 525 748 74
26420 526 153 99
26421 526 215 51
26422 526 863 68
26423 526 147 98
26424 526 587 85
26425 526 168 10
26426 526 698 65
26427 526 930 98
26428 526 511 66
26429 526 392 26
26430 526 943 76
26431 526 254 84
26432 526 595 48
26433 526 660 80
26434 526 98 70
26435 526 805 97
26436 526 289 3
26437 526 821 26
26438 526 530 11
26439 526 852 67
26440 526 767 45
26441 526 610 5
26442 526 365 35
26443 526 817 84
26444 526 471 61
26445 526 762 35
26446 526 233 92
26447 526 293 65
26448 526 699 52
26449 526 325 78
26450 526 89 22
26451 526 856 40
26452 526 277 28
26453 526 243 72
26454 526 793 89
26455 526 647 32
26456 526 309 63
26457 526 167 67
26458 526 256 63
26459 526 558 55
26460 526 373 65
26461 526 988 54
26462 526 989 30
26463 526 356 14
26464 526 658 55
26465 526 69 47
26466 526 33 73
26467 526 780 34
26468 526 876 67
26469 526 834 65
26470 526 295 68
26471 526 820 85
26472 526 860 31
26473 527 74 43
26474 527 231 49
26475 527 454 55
26476 527 394 59
26477 527 951 29
26478 527 31 80
26479 527 122 82
26480 527 35 19
26481 527 680 83
26482 527 887 92
26483 527 515 42
26484 527 924 57
26485 527 886 81
26486 527 993 71
26487 527 299 100
26488 527 988 40
26489 527 718 96
26490 527 838 70
26491 527 794 9
26492 527 366 66
26493 527 171 9
26494 527 125 41
26495 527 649 12
26496 527 129 59
26497 527 4 64
26498 527 453 52
26499 527 503 85
26500 527 158 80
26501 527 424 7
26502 527 540 94
26503 527 449 8
26504 527 277 68
26505 527 623 33
26506 527 883 82
26507 527 974 100
26508 527 765 55
26509 527 499 28
26510 527 349 86
26511 527 490 1
26512 527 823 45
26513 527 613 72
26514 527 971 48
26515 527 673 28
26516 527 721 15
26517 527 562 14
26518 527 736 47
26519 527 400 56
26520 527 124 25
26521 527 644 82
26522 527 475 58
26523 527 915 74
26524 527 850 33
26525 527 777 73
26526 527 745 81
26527 527 636 84
26528 527 670 82
26529 527 214 64
26530 527 491 35
26531 527 289 35
26532 527 223 8
26533 527 303 24
26534 527 133 94
26535 528 917 43
26536 528 608 61
26537 528 623 47
26538 528 400 32
26539 528 27 70
26540 528 369 55
26541 528 562 44
26542 528 489 92
26543 528 720 25
26544 528 392 68
26545 528 980 85
26546 528 935 2
26547 528 256 41
26548 528 671 27
26549 528 438 44
26550 528 638 9
26551 528 781 58
26552 528 316 71
26553 528 995 93
26554 528 581 41
26555 528 15 36
26556 528 134 85
26557 528 374 44
26558 528 462 82
26559 528 475 10
26560 528 733 37
26561 528 418 14
26562 528 451 79
26563 528 141 50
26564 528 151 50
26565 528 575 13
26566 528 837 24
26567 528 989 77
26568 528 135 4
26569 528 636 8
26570 528 37 90
26571 528 379 99
26572 528 874 17
26573 528 836 44
26574 528 633 52
26575 528 296 82
26576 528 214 46
26577 528 855 24
26578 528 916 5
26579 528 249 5
26580 529 348 38
26581 529 25 74
26582 529 917 72
26583 529 413 22
26584 529 183 98
26585 529 518 31
26586 529 534 31
26587 529 886 58
26588 529 769 11
26589 529 266 29
26590 529 789 40
26591 529 339 22
26592 529 564 70
26593 529 142 38
26594 529 458 36
26595 529 547 45
26596 529 871 32
26597 529 639 71
26598 529 681 16
26599 529 27 85
26600 529 116 43
26601 529 948 37
26602 529 650 89
26603 529 418 99
26604 529 631 54
26605 529 89 63
26606 529 104 45
26607 529 40 51
26608 529 92 50
26609 529 610 62
26610 529 337 17
26611 529 95 91
26612 529 180 83
26613 529 486 94
26614 529 410 81
26615 529 943 12
26616 529 272 69
26617 529 528 81
26618 529 709 45
26619 529 432 46
26620 529 283 47
26621 529 466 8
26622 529 300 91
26623 529 685 27
26624 529 424 67
26625 529 492 30
26626 529 825 22
26627 529 837 21
26628 529 790 80
26629 529 459 18
26630 529 656 55
26631 529 830 56
26632 529 893 70
26633 529 447 15
26634 529 254 58
26635 529 513 30
26636 530 522 18
26637 530 692 16
26638 530 394 93
26639 530 937 21
26640 530 141 35
26641 530 28 52
26642 530 385 15
26643 530 474 35
26644 530 729 82
26645 530 712 76
26646 530 71 70
26647 530 104 53
26648 530 38 34
26649 530 26 92
26650 530 105 90
26651 530 137 53
26652 530 247 88
26653 530 99 85
26654 530 876 20
26655 530 315 100
26656 530 4 86
26657 530 74 98
26658 530 88 80
26659 530 18 3
26660 530 155 49
26661 530 76 43
26662 530 940 66
26663 530 186 11
26664 530 233 56
26665 530 686 79
26666 530 717 42
26667 530 994 100
26668 530 326 62
26669 530 957 42
26670 530 890 95
26671 530 579 39
26672 530 548 28
26673 530 701 27
26674 530 554 100
26675 530 199 85
26676 530 170 31
26677 530 61 33
26678 530 500 16
26679 530 742 60
26680 530 157 37
26681 530 380 75
26682 530 322 66
26683 530 665 51
26684 530 986 88
26685 530 207 17
26686 530 801 41
26687 530 302 72
26688 530 907 54
26689 530 211 70
26690 530 774 72
26691 530 568 80
26692 530 727 23
26693 530 490 55
26694 530 765 24
26695 530 97 6
26696 530 547 6
26697 530 261 89
26698 530 654 94
26699 530 556 59
26700 530 799 71
26701 530 116 92
26702 531 808 53
26703 531 107 85
26704 531 456 77
26705 531 686 63
26706 531 89 100
26707 531 736 18
26708 531 266 14
26709 531 998 74
26710 531 552 9
26711 531 178 91
26712 531 481 98
26713 531 168 39
26714 531 79 76
26715 531 270 80
26716 531 507 57
26717 531 229 34
26718 531 505 96
26719 531 864 70
26720 531 461 15
26721 531 62 11
26722 531 344 46
26723 531 648 13
26724 531 766 61
26725 531 948 99
26726 531 723 6
26727 531 17 69
26728 531 7 20
26729 531 526 39
26730 531 759 16
26731 531 974 38
26732 531 653 99
26733 531 734 8
26734 531 687 1
26735 531 662 57
26736 531 609 25
26737 531 752 47
26738 531 443 78
26739 531 593 80
26740 531 991 68
26741 531 834 79
26742 531 253 39
26743 531 306 52
26744 531 371 46
26745 531 445 10
26746 531 283 32
26747 532 838 19
26748 532 950 71
26749 532 747 94
26750 532 670 30
26751 532 245 67
26752 532 874 83
26753 532 733 8
26754 532 768 100
26755 532 787 19
26756 532 173 14
26757 532 207 74
26758 532 60 91
26759 532 595 72
26760 532 455 95
26761 532 50 21
26762 532 842 73
26763 532 586 94
26764 532 168 88
26765 532 729 4
26766 532 285 70
26767 532 836 76
26768 532 913 14
26769 532 585 73
26770 532 834 33
26771 532 328 55
26772 532 40 74
26773 532 749 18
26774 532 170 59
26775 532 630 9
26776 532 905 58
26777 532 343 96
26778 532 489 80
26779 532 201 97
26780 532 784 97
26781 532 714 82
26782 532 893 59
26783 532 235 33
26784 532 740 92
26785 532 73 24
26786 532 58 42
26787 532 523 40
26788 532 421 75
26789 532 131 4
26790 532 371 95
26791 532 444 51
26792 532 864 34
26793 532 420 93
26794 532 419 5
26795 532 638 32
26796 533 663 42
26797 533 69 38
26798 533 493 34
26799 533 801 34
26800 533 19 69
26801 533 818 22
26802 533 766 91
26803 533 343 76
26804 533 415 22
26805 533 952 65
26806 533 482 24
26807 533 975 40
26808 533 946 63
26809 533 271 94
26810 533 488 1
26811 533 662 63
26812 533 994 53
26813 533 804 33
26814 533 75 36
26815 533 555 93
26816 533 402 87
26817 533 819 11
26818 533 610 36
26819 533 834 69
26820 533 782 5
26821 533 701 65
26822 533 523 51
26823 533 858 36
26824 533 320 28
26825 533 432 65
26826 533 256 26
26827 533 60 93
26828 533 0 9
26829 533 453 79
26830 533 297 57
26831 533 81 93
26832 533 447 95
26833 533 733 38
26834 533 908 24
26835 533 195 20
26836 533 394 42
26837 533 892 15
26838 533 541 51
26839 533 822 62
26840 533 912 87
26841 533 598 97
26842 533 200 48
26843 533 214 85
26844 533 785 98
26845 533 631 46
26846 534 523 30
26847 534 619 29
26848 534 817 7
26849 534 157 35
26850 534 830 40
26851 534 256 24
26852 534 977 70
26853 534 303 70
26854 534 224 69
26855 534 385 42
26856 534 931 75
26857 534 208 13
26858 534 459 45
26859 534 369 71
26860 534 959 3
26861 534 18 85
26862 534 962 52
26863 534 603 72
26864 534 14 56
26865 534 302 75
26866 534 83 69
26867 534 330 46
26868 534 166 72
26869 534 845 90
26870 534 249 91
26871 534 692 96
26872 534 900 13
26873 534 876 97
26874 534 332 76
26875 534 887 2
26876 534 398 61
26877 534 160 70
26878 534 457 12
26879 534 96 6
26880 534 79 61
26881 534 198 52
26882 534 642 66
26883 534 945 45
26884 534 721 44
26885 534 307 65
26886 534 752 30
26887 534 12 19
26888 534 746 72
26889 534 947 68
26890 534 373 11
26891 534 433 79
26892 534 802 71
26893 535 469 17
26894 535 336 26
26895 535 238 22
26896 535 525 92
26897 535 629 30
26898 535 410 44
26899 535 452 5
26900 535 146 47
26901 535 183 94
26902 535 695 39
26903 535 176 23
26904 535 757 38
26905 535 921 41
26906 535 949 65
26907 535 870 18
26908 535 568 52
26909 535 358 85
26910 535 359 16
26911 535 805 2
26912 535 492 13
26913 535 143 67
26914 535 766 8
26915 535 763 62
26916 535 340 23
26917 535 406 57
26918 535 713 16
26919 535 662 13
26920 535 883 21
26921 535 195 17
26922 535 456 26
26923 535 750 7
26924 535 963 77
26925 535 355 39
26926 535 580 78
26927 535 952 93
26928 535 598 37
26929 535 337 76
26930 535 357 27
26931 535 292 21
26932 535 396 84
26933 535 49 71
26934 535 879 88
26935 535 755 11
26936 535 600 89
26937 535 579 31
26938 535 786 92
26939 535 502 82
26940 535 424 1
26941 535 718 84
26942 535 314 25
26943 536 985 65
26944 536 447 32
26945 536 966 10
26946 536 252 81
26947 536 593 38
26948 536 668 93
26949 536 555 85
26950 536 634 40
26951 536 468 71
26952 536 432 20
26953 536 762 82
26954 536 925 56
26955 536 501 75
26956 536 629 50
26957 536 35 8
26958 536 393 66
26959 536 235 23
26960 536 843 55
26961 536 122 43
26962 536 792 41
26963 536 964 29
26964 536 602 72
26965 536 352 42
26966 536 621 97
26967 536 323 44
26968 536 911 78
26969 536 95 58
26970 536 211 23
26971 536 894 68
26972 536 910 93
26973 536 226 20
26974 536 742 16
26975 536 507 86
26976 536 628 7
26977 536 506 92
26978 536 657 79
26979 536 182 66
26980 536 983 87
26981 536 319 46
26982 536 743 30
26983 536 557 15
26984 536 232 63
26985 536 731 58
26986 536 661 78
26987 536 102 60
26988 536 210 85
26989 536 133 13
26990 536 87 72
26991 536 259 5
26992 537 636 70
26993 537 452 13
26994 537 0 20
26995 537 799 83
26996 537 363 84
26997 537 442 80
26998 537 360 6
26999 537 295 72
27000 537 906 79
27001 537 469 94
27002 537 524 26
27003 537 733 82
27004 537 734 16
27005 537 415 46
27006 537 688 10
27007 537 144 100
27008 537 351 85
27009 537 14 15
27010 537 753 86
27011 537 533 91
27012 537 290 49
27013 537 815 49
27014 537 629 42
27015 537 670 29
27016 537 310 88
27017 537 163 45
27018 537 246 27
27019 537 338 40
27020 537 1 77
27021 537 58 55
27022 537 72 54
27023 537 871 73
27024 537 197 20
27025 537 263 70
27026 537 3 27
27027 537 671 18
27028 537 870 25
27029 537 782 12
27030 537 41 36
27031 537 901 89
27032 537 297 94
27033 537 729 84
27034 537 645 6
27035 537 178 4
27036 537 291 19
27037 537 626 90
27038 537 808 5
27039 537 258 39
27040 538 335 13
27041 538 89 93
27042 538 571 52
27043 538 248 4
27044 538 656 84
27045 538 112 88
27046 538 628 76
27047 538 227 36
27048 538 43 96
27049 538 867 92
27050 538 597 54
27051 538 540 38
27052 538 999 29
27053 538 363 49
27054 538 971 12
27055 538 258 40
27056 538 225 59
27057 538 147 56
27058 538 255 47
27059 538 457 12
27060 538 55 33
27061 538 900 26
27062 538 576 2
27063 538 998 26
27064 538 482 33
27065 538 134 96
27066 538 794 85
27067 538 649 36
27068 538 260 33
27069 538 701 42
27070 538 570 83
27071 538 541 2
27072 538 981 45
27073 538 736 90
27074 538 367 17
27075 538 651 90
27076 538 35 54
27077 538 421 62
27078 538 609 36
27079 538 6 71
27080 538 714 18
27081 538 452 77
27082 538 65 51
27083 538 47 93
27084 538 503 70
27085 538 602 84
27086 538 579 54
27087 538 913 10
27088 538 970 41
27089 538 382 79
27090 538 136 93
27091 539 440 74
27092 539 390 76
27093 539 757 61
27094 539 564 81
27095 539 528 97
27096 539 493 12
27097 539 521 11
27098 539 479 78
27099 539 356 94
27100 539 353 74
27101 539 29 6
27102 539 994 17
27103 539 647 23
27104 539 365 59
27105 539 743 32
27106 539 191 16
27107 539 534 51
27108 539 828 57
27109 539 791 37
27110 539 135 77
27111 539 483 45
27112 539 445 15
27113 539 401 66
27114 539 572 66
27115 539 239 51
27116 539 427 69
27117 539 52 82
27118 539 756 85
27119 539 454 38
27120 539 675 54
27121 539 362 3
27122 539 449 54
27123 539 602 92
27124 539 667 49
27125 539 639 54
27126 539 766 100
27127 539 668 8
27128 539 916 100
27129 539 621 46
27130 539 504 87
27131 539 463 22
27132 539 644 69
27133 539 937 45
27134 539 646 40
27135 539 207 29
27136 539 692 87
27137 539 399 11
27138 540 115 70
27139 540 645 32
27140 540 259 17
27141 540 964 26
27142 540 96 20
27143 540 526 100
27144 540 182 40
27145 540 681 47
27146 540 909 63
27147 540 690 19
27148 540 474 99
27149 540 639 22
27150 540 837 21
27151 540 94 50
27152 540 172 77
27153 540 279 94
27154 540 972 48
27155 540 48 86
27156 540 128 98
27157 540 386 21
27158 540 332 24
27159 540 892 66
27160 540 278 20
27161 540 257 65
27162 540 417 52
27163 540 74 6
27164 540 232 82
27165 540 228 27
27166 540 362 37
27167 540 653 10
27168 540 102 20
27169 540 403 11
27170 540 459 67
27171 540 221 61
27172 540 344 52
27173 540 206 94
27174 540 330 82
27175 540 760 79
27176 540 160 48
27177 540 104 13
27178 540 504 13
27179 540 41 11
27180 540 925 1
27181 540 632 39
27182 540 702 37
27183 540 338 17
27184 540 131 56
27185 540 838 79
27186 540 269 60
27187 540 380 70
27188 540 935 10
27189 540 126 45
27190 540 530 35
27191 540 515 47
27192 540 33 91
27193 541 988 87
27194 541 112 2
27195 541 331 81
27196 541 402 16
27197 541 65 69
27198 541 894 32
27199 541 585 12
27200 541 171 40
27201 541 641 1
27202 541 536 55
27203 541 773 22
27204 541 124 14
27205 541 738 26
27206 541 688 95
27207 541 496 93
27208 541 774 30
27209 541 686 28
27210 541 753 20
27211 541 441 47
27212 541 130 3
27213 541 538 21
27214 541 448 28
27215 541 652 74
27216 541 474 16
27217 541 718 18
27218 541 804 39
27219 541 699 94
27220 541 467 56
27221 541 263 93
27222 541 120 65
27223 541 545 14
27224 541 636 39
27225 541 60 34
27226 541 562 89
27227 541 489 95
27228 541 371 83
27229 541 919 86
27230 541 179 90
27231 541 736 37
27232 541 328 11
27233 541 364 100
27234 541 597 51
27235 542 650 77
27236 542 459 67
27237 542 877 97
27238 542 178 100
27239 542 341 38
27240 542 672 46
27241 542 940 11
27242 542 910 95
27243 542 540 40
27244 542 300 2
27245 542 110 52
27246 542 169 1
27247 542 996 82
27248 542 343 14
27249 542 258 72
27250 542 713 26
27251 542 551 99
27252 542 869 69
27253 542 63 33
27254 542 43 99
27255 542 771 51
27256 542 803 64
27257 542 165 37
27258 542 658 63
27259 542 470 37
27260 542 173 81
27261 542 719 100
27262 542 808 9
27263 542 394 54
27264 542 313 92
27265 542 446 29
27266 542 93 23
27267 542 308 1
27268 542 962 71
27269 542 722 76
27270 542 986 80
27271 542 199 92
27272 542 272 94
27273 542 509 82
27274 542 503 51
27275 542 729 82
27276 542 528 12
27277 542 802 69
27278 542 174 48
27279 542 852 9
27280 542 474 99
27281 542 461 28
27282 542 301 82
27283 542 45 85
27284 542 241 27
27285 542 812 57
27286 543 676 71
27287 543 973 19
27288 543 319 5
27289 543 444 18
27290 543 916 83
27291 543 885 19
27292 543 137 7
27293 543 586 31
27294 543 643 37
27295 543 26 54
27296 543 514 14
27297 543 966 45
27298 543 655 45
27299 543 777 90
27300 543 955 73
27301 543 394 30
27302 543 730 5
27303 543 999 44
27304 543 428 82
27305 543 942 47
27306 543 663 59
27307 543 84 9
27308 543 303 18
27309 543 978 50
27310 543 944 19
27311 543 14 19
27312 543 296 15
27313 543 150 45
27314 543 72 17
27315 543 372 6
27316 543 129 10
27317 543 644 46
27318 543 599 1
27319 543 118 100
27320 543 925 21
27321 543 391 57
27322 543 423 57
27323 543 215 6
27324 543 536 27
27325 543 184 56
27326 543 907 33
27327 543 734 1
27328 543 102 29
27329 543 619 26
27330 543 459 24
27331 543 304 57
27332 543 958 34
27333 543 139 78
27334 543 534 48
27335 543 588 92
27336 543 585 63
27337 543 875 36
27338 543 478 34
27339 543 351 99
27340 544 724 37
27341 544 630 17
27342 544 430 54
27343 544 414 44
27344 544 640 44
27345 544 135 74
27346 544 670 53
27347 544 176 29
27348 544 902 73
27349 544 35 81
27350 544 201 11
27351 544 686 26
27352 544 817 27
27353 544 953 2
27354 544 15 95
27355 544 554 59
27356 544 4 42
27357 544 108 54
27358 544 303 59
27359 544 406 33
27360 544 929 30
27361 544 962 7
27362 544 769 17
27363 544 247 61
27364 544 347 66
27365 544 896 14
27366 544 205 46
27367 544 590 41
27368 544 294 76
27369 544 18 95
27370 544 227 7
27371 544 575 41
27372 544 152 45
27373 544 476 54
27374 544 234 26
27375 544 128 23
27376 544 167 24
27377 544 482 89
27378 544 332 81
27379 544 110 88
27380 544 259 96
27381 544 529 44
27382 544 423 27
27383 544 960 16
27384 544 427 1
27385 544 155 96
27386 544 829 78
27387 544 111 93
27388 544 768 51
27389 544 162 51
27390 544 410 6
27391 544 952 54
27392 545 361 60
27393 545 298 36
27394 545 41 100
27395 545 775 46
27396 545 357 89
27397 545 227 47
27398 545 760 33
27399 545 429 1
27400 545 786 65
27401 545 382 27
27402 545 319 43
27403 545 474 29
27404 545 762 78
27405 545 870 10
27406 545 179 96
27407 545 797 34
27408 545 442 29
27409 545 296 98
27410 545 527 100
27411 545 981 9
27412 545 742 53
27413 545 353 25
27414 545 556 60
27415 545 362 77
27416 545 325 14
27417 545 453 54
27418 545 947 97
27419 545 570 17
27420 545 80 96
27421 545 137 85
27422 545 936 49
27423 545 234 22
27424 545 819 52
27425 545 199 99
27426 545 911 51
27427 545 530 74
27428 545 447 17
27429 545 519 91
27430 545 347 36
27431 545 224 22
27432 545 769 39
27433 545 492 87
27434 545 452 57
27435 545 65 26
27436 545 516 65
27437 545 791 3
27438 546 102 90
27439 546 617 98
27440 546 839 96
27441 546 276 23
27442 546 343 7
27443 546 734 88
27444 546 895 72
27445 546 556 63
27446 546 577 5
27447 546 64 75
27448 546 757 20
27449 546 336 33
27450 546 298 73
27451 546 618 65
27452 546 63 50
27453 546 766 94
27454 546 662 19
27455 546 208 100
27456 546 36 38
27457 546 894 23
27458 546 32 60
27459 546 380 69
27460 546 625 37
27461 546 741 37
27462 546 478 15
27463 546 806 84
27464 546 377 18
27465 546 399 38
27466 546 909 66
27467 546 265 56
27468 546 605 62
27469 546 113 16
27470 546 649 88
27471 546 420 49
27472 546 390 21
27473 546 769 38
27474 546 941 98
27475 546 874 81
27476 546 516 77
27477 546 246 31
27478 546 688 62
27479 546 448 76
27480 547 976 81
27481 547 384 5
27482 547 632 77
27483 547 119 46
27484 547 272 38
27485 547 287 60
27486 547 80 85
27487 547 443 17
27488 547 261 83
27489 547 597 63
27490 547 66 41
27491 547 990 29
27492 547 435 73
27493 547 764 14
27494 547 745 74
27495 547 47 59
27496 547 464 77
27497 547 857 3
27498 547 5 15
27499 547 424 82
27500 547 652 57
27501 547 427 46
27502 547 151 26
27503 547 221 46
27504 547 41 37
27505 547 591 58
27506 547 146 50
27507 547 626 92
27508 547 572 90
27509 547 8 33
27510 547 854 28
27511 547 455 84
27512 547 409 84
27513 547 498 25
27514 547 620 49
27515 547 34 77
27516 547 861 46
27517 547 934 5
27518 547 199 12
27519 547 317 36
27520 547 581 85
27521 547 246 21
27522 547 641 20
27523 547 491 98
27524 547 441 12
27525 547 370 95
27526 547 115 6
27527 547 815 3
27528 547 96 58
27529 547 308 36
27530 547 77 12
27531 547 186 28
27532 547 52 71
27533 547 112 22
27534 547 97 4
27535 547 612 45
27536 547 674 22
27537 547 939 33
27538 547 477 68
27539 548 105 92
27540 548 127 36
27541 548 647 44
27542 548 715 47
27543 548 163 54
27544 548 825 68
27545 548 562 3
27546 548 743 58
27547 548 82 25
27548 548 571 95
27549 548 775 32
27550 548 134 59
27551 548 917 15
27552 548 961 49
27553 548 573 96
27554 548 79 69
27555 548 694 88
27556 548 633 79
27557 548 878 82
27558 548 534 4
27559 548 709 71
27560 548 587 34
27561 548 276 33
27562 548 973 27
27563 548 936 83
27564 548 690 52
27565 548 852 63
27566 548 700 95
27567 548 296 55
27568 548 242 37
27569 548 111 70
27570 548 350 76
27571 548 796 62
27572 548 206 52
27573 548 998 98
27574 548 858 54
27575 548 541 93
27576 548 669 46
27577 548 997 41
27578 548 265 14
27579 548 469 10
27580 548 210 78
27581 548 270 81
27582 548 80 82
27583 548 317 42
27584 548 845 82
27585 548 345 50
27586 548 831 26
27587 548 905 51
27588 548 195 55
27589 548 113 98
27590 548 228 93
27591 549 323 5
27592 549 141 34
27593 549 6 47
27594 549 88 6
27595 549 948 50
27596 549 617 47
27597 549 925 45
27598 549 131 50
27599 549 86 87
27600 549 512 67
27601 549 819 32
27602 549 54 47
27603 549 964 16
27604 549 189 59
27605 549 47 26
27606 549 473 28
27607 549 942 75
27608 549 508 21
27609 549 314 81
27610 549 906 27
27611 549 600 25
27612 549 649 41
27613 549 87 77
27614 549 631 40
27615 549 368 81
27616 549 500 59
27617 549 654 32
27618 549 746 9
27619 549 811 39
27620 549 241 41
27621 549 213 35
27622 549 125 88
27623 549 706 68
27624 549 168 87
27625 549 482 27
27626 549 148 55
27627 549 591 6
27628 549 882 94
27629 549 890 44
27630 549 169 40
27631 549 615 49
27632 549 161 75
27633 549 293 83
27634 549 874 91
27635 549 734 10
27636 549 143 86
27637 549 762 75
27638 549 803 57
27639 549 759 91
27640 549 621 67
27641 549 445 89
27642 549 289 82
27643 549 839 62
27644 549 634 66
27645 549 971 91
27646 549 371 37
27647 550 747 78
27648 550 790 37
27649 550 716 42
27650 550 574 67
27651 550 971 59
27652 550 165 84
27653 550 349 97
27654 550 617 66
27655 550 73 69
27656 550 814 64
27657 550 429 4
27658 550 873 96
27659 550 388 80
27660 550 811 34
27661 550 759 61
27662 550 139 60
27663 550 284 88
27664 550 691 58
27665 550 760 90
27666 550 146 76
27667 550 818 38
27668 550 183 18
27669 550 89 78
27670 550 917 85
27671 550 541 100
27672 550 226 46
27673 550 51 30
27674 550 504 56
27675 550 682 25
27676 550 274 79
27677 550 995 68
27678 550 316 51
27679 550 726 18
27680 550 951 28
27681 550 543 16
27682 550 96 87
27683 550 978 33
27684 550 608 19
27685 550 720 19
27686 550 590 39
27687 550 513 67
27688 550 312 36
27689 550 420 28
27690 550 299 88
27691 550 880 86
27692 550 485 92
27693 550 817 48
27694 550 479 16
27695 550 295 50
27696 550 863 18
27697 550 7 19
27698 550 535 45
27699 550 439 47
27700 550 860 49
27701 551 231 70
27702 551 331 45
27703 551 528 37
27704 551 556 15
27705 551 277 74
27706 551 151 70
27707 551 646 82
27708 551 93 78
27709 551 734 46
27710 551 292 36
27711 551 170 56
27712 551 9 29
27713 551 705 23
27714 551 431 98
27715 551 828 16
27716 551 747 78
27717 551 473 92
27718 551 373 42
27719 551 267 91
27720 551 158 55
27721 551 932 100
27722 551 635 56
27723 551 548 4
27724 551 712 56
27725 551 689 32
27726 551 895 27
27727 551 846 53
27728 551 885 29
27729 551 82 52
27730 551 900 50
27731 551 685 25
27732 551 573 5
27733 551 720 63
27734 551 125 52
27735 551 484 51
27736 551 931 45
27737 551 418 88
27738 551 564 91
27739 551 920 15
27740 551 33 57
27741 551 407 3
27742 551 122 13
27743 551 869 24
27744 551 334 2
27745 551 909 65
27746 551 968 7
27747 551 795 16
27748 551 63 80
27749 551 943 77
27750 552 983 16
27751 552 891 29
27752 552 373 54
27753 552 410 60
27754 552 622 1
27755 552 390 39
27756 552 400 98
27757 552 631 55
27758 552 713 3
27759 552 660 65
27760 552 900 77
27761 552 454 57
27762 552 417 22
27763 552 132 46
27764 552 926 73
27765 552 288 67
27766 552 334 33
27767 552 381 67
27768 552 163 55
27769 552 401 83
27770 552 386 50
27771 552 274 68
27772 552 13 29
27773 552 961 44
27774 552 933 5
27775 552 978 57
27776 552 598 77
27777 552 48 63
27778 552 823 18
27779 552 954 64
27780 552 319 90
27781 552 356 63
27782 552 495 93
27783 552 133 19
27784 552 18 45
27785 552 98 13
27786 552 393 77
27787 552 578 9
27788 552 829 88
27789 552 456 95
27790 552 296 94
27791 552 770 66
27792 552 782 71
27793 552 307 53
27794 552 708 53
27795 552 988 95
27796 552 523 1
27797 552 447 57
27798 552 91 74
27799 552 351 67
27800 552 339 13
27801 552 107 53
27802 552 624 74
27803 552 600 41
27804 552 65 72
27805 552 911 94
27806 552 966 51
27807 552 337 59
27808 553 702 55
27809 553 745 84
27810 553 18 23
27811 553 204 79
27812 553 255 24
27813 553 886 83
27814 553 771 98
27815 553 954 96
27816 553 642 30
27817 553 705 60
27818 553 201 11
27819 553 264 66
27820 553 941 25
27821 553 57 24
27822 553 590 55
27823 553 495 7
27824 553 297 97
27825 553 309 48
27826 553 732 57
27827 553 568 23
27828 553 661 65
27829 553 85 83
27830 553 884 64
27831 553 450 63
27832 553 53 93
27833 553 787 56
27834 553 504 7
27835 553 167 50
27836 553 238 77
27837 553 70 61
27838 553 327 95
27839 553 562 21
27840 553 766 57
27841 553 458 28
27842 553 680 33
27843 553 932 1
27844 553 302 29
27845 553 950 32
27846 553 232 27
27847 553 9 52
27848 553 521 47
27849 553 654 64
27850 553 571 33
27851 553 295 88
27852 553 647 86
27853 553 282 17
27854 553 588 30
27855 553 918 69
27856 553 389 14
27857 553 617 98
27858 553 320 64
27859 553 532 40
27860 553 703 99
27861 553 721 34
27862 554 620 47
27863 554 142 78
27864 554 718 60
27865 554 139 94
27866 554 704 61
27867 554 446 49
27868 554 455 66
27869 554 898 65
27870 554 98 5
27871 554 66 33
27872 554 240 56
27873 554 701 34
27874 554 479 19
27875 554 285 9
27876 554 229 93
27877 554 514 80
27878 554 260 67
27879 554 360 19
27880 554 516 66
27881 554 937 34
27882 554 551 1
27883 554 57 9
27884 554 595 16
27885 554 398 36
27886 554 246 46
27887 554 425 53
27888 554 651 38
27889 554 297 74
27890 554 690 75
27891 554 295 56
27892 554 993 67
27893 554 730 30
27894 554 749 70
27895 554 470 55
27896 554 348 4
27897 554 251 21
27898 554 40 3
27899 554 725 81
27900 554 632 17
27901 554 994 65
27902 554 238 35
27903 554 187 69
27904 554 736 69
27905 554 429 89
27906 554 705 23
27907 554 812 76
27908 554 67 70
27909 554 758 8
27910 554 462 9
27911 554 218 83
27912 554 414 1
27913 554 127 2
27914 554 541 54
27915 554 324 64
27916 554 439 74
27917 554 884 50
27918 555 429 9
27919 555 744 74
27920 555 723 32
27921 555 304 18
27922 555 435 88
27923 555 146 90
27924 555 500 96
27925 555 625 46
27926 555 897 53
27927 555 754 23
27928 555 31 27
27929 555 6 36
27930 555 406 12
27931 555 974 94
27932 555 36 11
27933 555 562 39
27934 555 37 73
27935 555 658 76
27936 555 762 1
27937 555 871 4
27938 555 377 25
27939 555 556 72
27940 555 842 30
27941 555 14 91
27942 555 223 3
27943 555 264 20
27944 555 857 16
27945 555 389 77
27946 555 807 6
27947 555 764 41
27948 555 616 71
27949 555 577 66
27950 555 660 80
27951 555 641 5
27952 555 733 33
27953 555 858 92
27954 555 144 16
27955 555 340 27
27956 555 484 68
27957 555 291 1
27958 555 870 41
27959 555 824 90
27960 555 359 27
27961 555 786 60
27962 555 569 74
27963 555 277 98
27964 555 646 22
27965 555 776 57
27966 555 689 32
27967 555 20 93
27968 555 941 10
27969 556 363 57
27970 556 552 13
27971 556 948 23
27972 556 750 37
27973 556 46 24
27974 556 282 36
27975 556 694 95
27976 556 690 5
27977 556 508 52
27978 556 285 89
27979 556 648 51
27980 556 867 84
27981 556 132 79
27982 556 14 4
27983 556 480 58
27984 556 676 37
27985 556 241 10
27986 556 448 8
27987 556 500 91
27988 556 150 89
27989 556 149 36
27990 556 829 7
27991 556 772 85
27992 556 843 78
27993 556 550 56
27994 556 713 15
27995 556 837 11
27996 556 498 1
27997 556 47 41
27998 556 9 92
27999 556 206 76
28000 556 934 38
28001 556 186 78
28002 556 283 12
28003 556 425 7
28004 556 172 96
28005 556 460 99
28006 556 495 38
28007 556 522 43
28008 556 131 9
28009 556 576 68
28010 556 768 81
28011 557 586 63
28012 557 368 84
28013 557 784 80
28014 557 162 14
28015 557 824 45
28016 557 858 94
28017 557 176 79
28018 557 850 81
28019 557 917 77
28020 557 885 87
28021 557 57 7
28022 557 963 62
28023 557 291 58
28024 557 462 75
28025 557 219 87
28026 557 785 54
28027 557 118 15
28028 557 925 84
28029 557 366 83
28030 557 792 75
28031 557 79 90
28032 557 879 21
28033 557 796 71
28034 557 379 25
28035 557 482 81
28036 557 788 82
28037 557 947 15
28038 557 201 19
28039 557 854 28
28040 557 301 20
28041 557 505 62
28042 557 846 100
28043 557 208 76
28044 557 620 42
28045 557 892 41
28046 557 121 12
28047 557 154 7
28048 557 723 22
28049 557 258 41
28050 557 960 92
28051 557 492 100
28052 557 722 30
28053 557 445 10
28054 557 713 39
28055 557 558 66
28056 558 138 74
28057 558 419 21
28058 558 555 100
28059 558 247 11
28060 558 191 31
28061 558 222 20
28062 558 269 87
28063 558 212 41
28064 558 166 28
28065 558 988 65
28066 558 354 23
28067 558 259 92
28068 558 13 59
28069 558 784 89
28070 558 628 48
28071 558 729 58
28072 558 514 62
28073 558 322 70
28074 558 549 67
28075 558 96 3
28076 558 38 89
28077 558 418 19
28078 558 61 44
28079 558 596 41
28080 558 742 29
28081 558 691 47
28082 558 79 81
28083 558 245 70
28084 558 460 41
28085 558 551 81
28086 558 735 20
28087 558 704 30
28088 558 345 12
28089 558 703 78
28090 558 903 29
28091 558 204 63
28092 558 217 20
28093 558 406 48
28094 558 681 90
28095 558 300 28
28096 558 388 67
28097 558 253 87
28098 558 807 77
28099 558 254 42
28100 558 341 14
28101 558 627 19
28102 558 927 93
28103 558 842 46
28104 558 264 69
28105 558 765 54
28106 558 91 96
28107 558 278 6
28108 558 791 94
28109 558 200 35
28110 558 75 63
28111 558 444 65
28112 558 145 97
28113 558 613 70
28114 558 155 73
28115 558 401 78
28116 558 295 61
28117 558 237 66
28118 558 907 69
28119 559 156 20
28120 559 191 67
28121 559 937 47
28122 559 405 97
28123 559 762 87
28124 559 703 61
28125 559 823 53
28126 559 781 100
28127 559 992 93
28128 559 430 60
28129 559 340 90
28130 559 337 66
28131 559 105 35
28132 559 932 83
28133 559 734 90
28134 559 599 41
28135 559 597 55
28136 559 943 90
28137 559 621 49
28138 559 219 39
28139 559 258 11
28140 559 971 71
28141 559 828 90
28142 559 384 4
28143 559 78 78
28144 559 989 30
28145 559 904 42
28146 559 331 44
28147 559 487 88
28148 559 355 59
28149 559 498 52
28150 559 519 46
28151 559 720 84
28152 559 920 69
28153 559 240 5
28154 559 506 7
28155 559 608 11
28156 559 444 39
28157 559 336 84
28158 559 674 83
28159 559 140 29
28160 559 685 28
28161 559 315 50
28162 559 44 28
28163 559 389 62
28164 559 650 82
28165 559 183 37
28166 559 393 22
28167 560 523 74
28168 560 768 41
28169 560 384 71
28170 560 453 2
28171 560 502 71
28172 560 178 93
28173 560 288 1
28174 560 195 78
28175 560 864 24
28176 560 797 88
28177 560 593 19
28178 560 871 59
28179 560 103 26
28180 560 68 6
28181 560 851 23
28182 560 874 49
28183 560 606 77
28184 560 616 25
28185 560 72 71
28186 560 468 83
28187 560 189 10
28188 560 569 53
28189 560 662 15
28190 560 177 70
28191 560 161 68
28192 560 634 23
28193 560 737 48
28194 560 598 43
28195 560 894 73
28196 560 538 82
28197 560 927 58
28198 560 720 81
28199 560 507 86
28200 560 736 70
28201 560 779 35
28202 560 440 29
28203 560 810 84
28204 560 761 11
28205 560 757 48
28206 560 763 10
28207 560 454 22
28208 560 156 92
28209 560 64 49
28210 560 388 55
28211 560 115 41
28212 560 216 70
28213 560 627 18
28214 560 666 70
28215 560 421 45
28216 560 836 77
28217 560 626 81
28218 560 278 76
28219 560 964 54
28220 560 505 96
28221 560 381 2
28222 560 487 11
28223 560 420 25
28224 561 340 33
28225 561 801 7
28226 561 596 4
28227 561 654 3
28228 561 578 89
28229 561 448 37
28230 561 305 9
28231 561 364 76
28232 561 339 83
28233 561 697 20
28234 561 196 22
28235 561 562 24
28236 561 700 64
28237 561 274 12
28238 561 143 82
28239 561 960 32
28240 561 94 98
28241 561 604 64
28242 561 29 48
28243 561 760 97
28244 561 71 74
28245 561 54 3
28246 561 677 30
28247 561 291 71
28248 561 405 24
28249 561 521 70
28250 561 920 56
28251 561 324 98
28252 561 964 90
28253 561 282 37
28254 561 892 61
28255 561 452 20
28256 561 231 4
28257 561 544 31
28258 561 977 50
28259 561 487 35
28260 561 259 18
28261 561 931 8
28262 561 181 55
28263 561 118 63
28264 561 957 85
28265 561 220 77
28266 561 127 64
28267 561 250 89
28268 561 785 93
28269 561 438 1
28270 561 829 40
28271 562 21 1
28272 562 868 98
28273 562 585 11
28274 562 707 21
28275 562 549 92
28276 562 127 79
28277 562 862 68
28278 562 697 12
28279 562 861 99
28280 562 348 81
28281 562 518 59
28282 562 918 48
28283 562 514 31
28284 562 578 59
28285 562 337 85
28286 562 414 18
28287 562 992 85
28288 562 671 42
28289 562 541 57
28290 562 386 79
28291 562 212 88
28292 562 183 93
28293 562 264 60
28294 562 754 7
28295 562 314 40
28296 562 266 42
28297 562 922 38
28298 562 294 77
28299 562 536 30
28300 562 871 87
28301 562 356 2
28302 562 232 90
28303 562 149 42
28304 562 99 66
28305 562 496 3
28306 562 66 7
28307 562 435 8
28308 562 747 86
28309 562 765 74
28310 563 493 55
28311 563 603 25
28312 563 864 63
28313 563 873 37
28314 563 266 38
28315 563 342 27
28316 563 213 57
28317 563 224 48
28318 563 40 91
28319 563 776 40
28320 563 753 90
28321 563 388 5
28322 563 269 16
28323 563 298 84
28324 563 966 30
28325 563 89 51
28326 563 533 10
28327 563 701 7
28328 563 755 71
28329 563 100 33
28330 563 957 50
28331 563 152 70
28332 563 258 24
28333 563 23 45
28334 563 919 30
28335 563 294 53
28336 563 887 56
28337 563 341 53
28338 563 148 16
28339 563 511 42
28340 563 350 85
28341 563 882 73
28342 563 986 38
28343 563 877 80
28344 563 80 89
28345 563 456 46
28346 563 357 50
28347 563 568 51
28348 563 953 47
28349 563 311 96
28350 563 379 43
28351 563 28 9
28352 563 361 19
28353 563 712 60
28354 563 234 61
28355 563 333 49
28356 563 958 2
28357 563 577 33
28358 563 907 2
28359 563 322 61
28360 563 661 50
28361 563 670 99
28362 563 396 41
28363 563 407 81
28364 563 24 92
28365 564 32 75
28366 564 477 32
28367 564 19 60
28368 564 598 60
28369 564 93 98
28370 564 959 83
28371 564 259 86
28372 564 300 4
28373 564 617 60
28374 564 811 15
28375 564 981 56
28376 564 24 74
28377 564 284 29
28378 564 332 10
28379 564 172 62
28380 564 951 24
28381 564 822 19
28382 564 631 67
28383 564 268 49
28384 564 787 57
28385 564 289 21
28386 564 710 5
28387 564 407 90
28388 564 837 7
28389 564 458 52
28390 564 828 25
28391 564 55 82
28392 564 577 83
28393 564 269 76
28394 564 365 71
28395 564 374 42
28396 564 535 48
28397 564 280 25
28398 564 961 89
28399 564 496 3
28400 564 70 11
28401 564 126 14
28402 564 243 14
28403 564 386 73
28404 564 957 5
28405 564 441 1
28406 564 939 64
28407 564 246 30
28408 564 807 71
28409 564 444 60
28410 564 202 20
28411 564 212 25
28412 564 656 78
28413 564 791 88
28414 564 868 9
28415 565 851 1
28416 565 48 97
28417 565 612 75
28418 565 594 7
28419 565 428 66
28420 565 338 14
28421 565 72 69
28422 565 484 59
28423 565 354 47
28424 565 181 29
28425 565 588 13
28426 565 59 37
28427 565 316 14
28428 565 678 85
28429 565 911 51
28430 565 840 59
28431 565 259 62
28432 565 27 15
28433 565 628 50
28434 565 179 48
28435 565 530 55
28436 565 299 89
28437 565 563 68
28438 565 915 45
28439 565 760 73
28440 565 707 55
28441 565 205 17
28442 565 479 75
28443 565 706 53
28444 565 544 38
28445 565 136 100
28446 565 803 91
28447 565 785 54
28448 565 759 4
28449 565 910 29
28450 565 926 26
28451 565 981 5
28452 565 939 23
28453 565 174 25
28454 565 323 92
28455 565 749 55
28456 565 118 63
28457 565 62 21
28458 565 22 46
28459 565 538 2
28460 565 756 47
28461 565 673 14
28462 565 823 44
28463 565 655 35
28464 565 935 1
28465 565 667 63
28466 565 589 4
28467 565 307 50
28468 565 550 2
28469 565 729 37
28470 566 294 85
28471 566 801 56
28472 566 626 93
28473 566 328 31
28474 566 708 68
28475 566 911 25
28476 566 615 15
28477 566 88 12
28478 566 965 18
28479 566 402 50
28480 566 869 81
28481 566 585 42
28482 566 890 40
28483 566 281 37
28484 566 58 67
28485 566 354 70
28486 566 540 49
28487 566 800 44
28488 566 888 67
28489 566 114 50
28490 566 696 68
28491 566 84 25
28492 566 20 98
28493 566 521 62
28494 566 766 83
28495 566 60 38
28496 566 3 93
28497 566 437 96
28498 566 505 42
28499 566 652 16
28500 566 705 80
28501 566 123 10
28502 566 971 100
28503 566 758 32
28504 566 979 96
28505 566 784 31
28506 566 208 72
28507 566 447 93
28508 566 390 4
28509 566 571 55
28510 566 432 55
28511 566 156 13
28512 566 916 46
28513 566 69 90
28514 567 668 11
28515 567 855 23
28516 567 63 64
28517 567 578 71
28518 567 981 21
28519 567 516 72
28520 567 434 86
28521 567 50 14
28522 567 239 97
28523 567 266 25
28524 567 173 53
28525 567 551 22
28526 567 461 3
28527 567 117 30
28528 567 392 28
28529 567 258 77
28530 567 792 21
28531 567 59 73
28532 567 592 73
28533 567 443 19
28534 567 781 45
28535 567 483 40
28536 567 807 24
28537 567 827 43
28538 567 755 19
28539 567 873 79
28540 567 510 65
28541 567 973 17
28542 567 338 79
28543 567 573 63
28544 567 368 35
28545 567 738 19
28546 567 912 33
28547 567 124 84
28548 567 302 54
28549 567 662 91
28550 567 945 2
28551 567 185 11
28552 567 930 84
28553 567 440 82
28554 567 356 39
28555 567 607 77
28556 567 283 21
28557 567 44 41
28558 567 374 84
28559 567 939 34
28560 567 387 99
28561 567 858 48
28562 567 148 93
28563 567 633 70
28564 567 924 16
28565 567 201 54
28566 567 605 21
28567 567 466 43
28568 567 820 43
28569 568 226 85
28570 568 914 26
28571 568 927 73
28572 568 49 70
28573 568 357 44
28574 568 562 26
28575 568 270 22
28576 568 382 37
28577 568 116 29
28578 568 785 91
28579 568 162 20
28580 568 176 67
28581 568 217 12
28582 568 580 17
28583 568 82 66
28584 568 714 82
28585 568 218 41
28586 568 206 7
28587 568 844 1
28588 568 919 82
28589 568 836 61
28590 568 642 78
28591 568 234 38
28592 568 452 74
28593 568 994 94
28594 568 422 20
28595 568 180 25
28596 568 810 56
28597 568 987 27
28598 568 320 47
28599 568 10 70
28600 568 468 27
28601 568 375 96
28602 568 591 57
28603 568 318 66
28604 568 373 89
28605 568 848 100
28606 569 564 66
28607 569 354 97
28608 569 936 9
28609 569 789 97
28610 569 871 36
28611 569 275 22
28612 569 740 10
28613 569 997 78
28614 569 961 21
28615 569 209 62
28616 569 62 65
28617 569 191 80
28618 569 922 81
28619 569 342 95
28620 569 291 39
28621 569 321 54
28622 569 325 8
28623 569 388 60
28624 569 362 90
28625 569 295 69
28626 569 879 97
28627 569 24 35
28628 569 418 57
28629 569 502 43
28630 569 412 63
28631 569 856 6
28632 569 336 30
28633 569 301 69
28634 569 78 45
28635 569 107 64
28636 569 484 54
28637 569 538 3
28638 569 978 50
28639 569 94 48
28640 569 799 30
28641 569 823 23
28642 569 551 60
28643 569 827 25
28644 569 732 72
28645 569 243 9
28646 569 184 38
28647 569 840 5
28648 569 788 56
28649 569 330 13
28650 569 167 42
28651 569 668 57
28652 569 903 73
28653 569 231 30
28654 570 325 62
28655 570 9 47
28656 570 171 25
28657 570 950 34
28658 570 192 64
28659 570 952 31
28660 570 299 85
28661 570 378 36
28662 570 407 91
28663 570 625 92
28664 570 275 75
28665 570 800 51
28666 570 784 30
28667 570 308 34
28668 570 678 100
28669 570 690 17
28670 570 959 12
28671 570 133 8
28672 570 588 97
28673 570 928 77
28674 570 496 32
28675 570 437 28
28676 570 180 16
28677 570 969 55
28678 570 484 2
28679 570 938 59
28680 570 564 70
28681 570 984 26
28682 570 245 68
28683 570 399 81
28684 570 968 75
28685 570 990 54
28686 570 989 84
28687 570 30 51
28688 570 283 88
28689 570 37 80
28690 570 920 31
28691 570 321 72
28692 570 329 95
28693 570 826 5
28694 570 653 17
28695 570 50 90
28696 570 558 48
28697 570 123 3
28698 570 8 7
28699 570 795 35
28700 570 155 6
28701 570 344 85
28702 570 571 99
28703 570 87 90
28704 570 798 75
28705 570 899 19
28706 570 823 56
28707 570 198 61
28708 570 819 41
28709 570 172 55
28710 570 884 1
28711 570 820 82
28712 571 264 30
28713 571 274 36
28714 571 7 80
28715 571 320 52
28716 571 790 14
28717 571 838 84
28718 571 469 65
28719 571 151 36
28720 571 326 49
28721 571 662 71
28722 571 334 43
28723 571 120 5
28724 571 88 87
28725 571 719 58
28726 571 17 2
28727 571 631 18
28728 571 528 49
28729 571 706 26
28730 571 180 4
28731 571 306 84
28732 571 833 24
28733 571 934 11
28734 571 72 67
28735 571 525 43
28736 571 508 12
28737 571 620 33
28738 571 724 83
28739 571 210 73
28740 571 379 76
28741 571 79 22
28742 571 977 14
28743 571 967 31
28744 571 70 3
28745 571 416 96
28746 571 439 38
28747 571 330 85
28748 571 890 34
28749 571 902 70
28750 571 142 39
28751 571 273 55
28752 571 740 48
28753 571 854 29
28754 571 52 1
28755 571 2 53
28756 571 32 77
28757 572 877 56
28758 572 951 67
28759 572 795 22
28760 572 55 87
28761 572 373 62
28762 572 197 12
28763 572 370 33
28764 572 861 77
28765 572 277 1
28766 572 921 27
28767 572 893 25
28768 572 524 4
28769 572 724 61
28770 572 686 7
28771 572 66 85
28772 572 613 96
28773 572 754 88
28774 572 460 49
28775 572 507 52
28776 572 467 30
28777 572 163 39
28778 572 301 99
28779 572 310 100
28780 572 944 53
28781 572 673 70
28782 572 203 86
28783 572 855 28
28784 572 427 53
28785 572 989 60
28786 572 583 69
28787 572 840 54
28788 572 441 78
28789 572 927 41
28790 572 298 19
28791 572 382 87
28792 572 949 96
28793 572 241 42
28794 572 856 35
28795 572 689 81
28796 572 853 67
28797 572 685 86
28798 572 604 67
28799 572 33 99
28800 572 318 6
28801 572 413 7
28802 572 773 74
28803 572 919 66
28804 573 5 69
28805 573 587 20
28806 573 488 7
28807 573 943 7
28808 573 869 87
28809 573 686 52
28810 573 602 73
28811 573 769 52
28812 573 362 62
28813 573 200 42
28814 573 821 72
28815 573 682 42
28816 573 65 35
28817 573 330 4
28818 573 678 63
28819 573 32 96
28820 573 180 81
28821 573 175 17
28822 573 521 3
28823 573 300 98
28824 573 763 14
28825 573 435 27
28826 573 715 74
28827 573 907 29
28828 573 951 45
28829 573 723 28
28830 573 946 15
28831 573 38 69
28832 573 371 92
28833 573 882 96
28834 573 320 55
28835 573 647 85
28836 573 124 4
28837 573 798 78
28838 573 875 71
28839 573 552 85
28840 573 793 53
28841 574 970 27
28842 574 238 96
28843 574 972 95
28844 574 148 71
28845 574 345 100
28846 574 888 75
28847 574 878 97
28848 574 662 41
28849 574 193 41
28850 574 973 29
28851 574 708 85
28852 574 998 78
28853 574 236 20
28854 574 235 59
28855 574 576 83
28856 574 228 35
28857 574 894 78
28858 574 195 52
28859 574 497 59
28860 574 976 27
28861 574 562 8
28862 574 198 69
28863 574 288 14
28864 574 319 96
28865 574 658 3
28866 574 18 95
28867 574 31 85
28868 574 34 12
28869 574 427 46
28870 574 612 6
28871 574 390 72
28872 574 429 11
28873 574 385 51
28874 574 187 32
28875 574 199 62
28876 574 126 71
28877 574 311 72
28878 574 469 9
28879 574 268 48
28880 574 609 89
28881 574 64 54
28882 574 371 61
28883 574 84 38
28884 574 21 67
28885 574 724 11
28886 574 977 69
28887 574 693 33
28888 574 638 19
28889 574 569 67
28890 575 844 38
28891 575 191 57
28892 575 774 81
28893 575 417 89
28894 575 156 37
28895 575 639 34
28896 575 839 90
28897 575 546 94
28898 575 225 17
28899 575 125 71
28900 575 47 61
28901 575 287 24
28902 575 925 32
28903 575 887 51
28904 575 235 60
28905 575 541 1
28906 575 817 72
28907 575 482 5
28908 575 695 80
28909 575 838 96
28910 575 636 43
28911 575 979 12
28912 575 632 90
28913 575 761 83
28914 575 115 38
28915 575 771 91
28916 575 553 24
28917 575 109 8
28918 575 996 80
28919 575 968 69
28920 575 557 95
28921 575 786 30
28922 575 803 58
28923 575 637 50
28924 575 710 15
28925 575 931 29
28926 575 655 50
28927 575 617 12
28928 575 615 69
28929 575 455 50
28930 575 233 6
28931 575 847 27
28932 575 113 21
28933 575 598 87
28934 575 906 44
28935 575 234 37
28936 575 984 65
28937 575 570 65
28938 575 513 40
28939 575 537 46
28940 575 640 100
28941 575 306 43
28942 575 680 100
28943 576 373 91
28944 576 809 63
28945 576 385 97
28946 576 725 100
28947 576 513 71
28948 576 663 52
28949 576 420 94
28950 576 361 78
28951 576 902 39
28952 576 825 98
28953 576 115 7
28954 576 869 77
28955 576 191 24
28956 576 979 59
28957 576 785 72
28958 576 180 7
28959 576 686 74
28960 576 466 28
28961 576 473 95
28962 576 116 86
28963 576 754 36
28964 576 877 85
28965 576 653 70
28966 576 46 29
28967 576 586 7
28968 576 273 71
28969 576 22 78
28970 576 720 73
28971 576 980 55
28972 576 636 100
28973 576 616 36
28974 576 171 61
28975 576 758 84
28976 576 542 50
28977 576 228 100
28978 576 796 12
28979 576 835 27
28980 576 433 24
28981 576 12 6
28982 576 288 55
28983 576 608 41
28984 576 690 43
28985 576 594 70
28986 577 481 51
28987 577 844 65
28988 577 842 12
28989 577 745 86
28990 577 164 2
28991 577 911 30
28992 577 144 37
28993 577 173 58
28994 577 179 88
28995 577 380 99
28996 577 263 89
28997 577 307 58
28998 577 818 63
28999 577 828 46
29000 577 635 91
29001 577 956 37
29002 577 96 68
29003 577 160 22
29004 577 172 55
29005 577 279 94
29006 577 92 81
29007 577 765 47
29008 577 440 12
29009 577 894 65
29010 577 61 4
29011 577 30 53
29012 577 902 24
29013 577 747 91
29014 577 722 95
29015 577 658 83
29016 577 360 64
29017 577 801 30
29018 577 314 65
29019 577 645 99
29020 577 734 60
29021 577 557 46
29022 577 511 32
29023 577 560 12
29024 577 81 60
29025 577 630 48
29026 577 926 80
29027 577 492 76
29028 577 67 29
29029 577 522 23
29030 577 951 21
29031 577 225 32
29032 577 810 35
29033 577 584 95
29034 577 963 10
29035 577 15 57
29036 577 508 45
29037 577 2 33
29038 577 721 54
29039 577 738 20
29040 577 795 17
29041 577 39 71
29042 577 229 8
29043 577 637 12
29044 577 984 28
29045 577 846 19
29046 577 234 83
29047 577 478 14
29048 578 78 30
29049 578 970 20
29050 578 108 70
29051 578 879 42
29052 578 654 20
29053 578 587 93
29054 578 119 47
29055 578 274 33
29056 578 677 43
29057 578 803 50
29058 578 936 15
29059 578 1 80
29060 578 611 6
29061 578 477 34
29062 578 62 91
29063 578 2 31
29064 578 137 59
29065 578 334 40
29066 578 666 69
29067 578 32 52
29068 578 656 18
29069 578 498 100
29070 578 420 65
29071 578 959 7
29072 578 962 66
29073 578 145 86
29074 578 61 70
29075 578 665 65
29076 578 721 87
29077 578 536 37
29078 578 871 14
29079 578 617 48
29080 578 699 33
29081 578 11 51
29082 578 149 41
29083 578 17 79
29084 578 362 79
29085 578 473 22
29086 578 835 53
29087 578 468 59
29088 578 133 56
29089 578 855 10
29090 578 85 75
29091 578 932 15
29092 578 322 47
29093 578 237 92
29094 578 329 16
29095 578 204 87
29096 578 637 51
29097 578 742 35
29098 578 493 45
29099 578 31 26
29100 579 649 19
29101 579 864 8
29102 579 835 34
29103 579 907 7
29104 579 739 30
29105 579 757 27
29106 579 299 38
29107 579 418 6
29108 579 632 30
29109 579 215 62
29110 579 289 53
29111 579 17 100
29112 579 670 32
29113 579 417 65
29114 579 856 87
29115 579 575 65
29116 579 70 96
29117 579 847 27
29118 579 984 42
29119 579 730 52
29120 579 601 90
29121 579 236 85
29122 579 459 91
29123 579 612 16
29124 579 709 17
29125 579 581 1
29126 579 361 28
29127 579 511 35
29128 579 152 11
29129 579 668 72
29130 579 158 77
29131 579 447 77
29132 579 950 73
29133 579 692 77
29134 579 469 53
29135 579 838 61
29136 579 24 72
29137 579 451 48
29138 579 686 17
29139 579 736 42
29140 579 483 64
29141 579 701 25
29142 579 592 86
29143 579 821 31
29144 579 680 64
29145 579 245 72
29146 579 589 60
29147 579 796 61
29148 579 187 54
29149 579 228 90
29150 579 696 2
29151 579 877 37
29152 579 183 45
29153 579 535 33
29154 579 615 30
29155 579 346 25
29156 579 642 70
29157 579 881 89
29158 580 709 91
29159 580 239 44
29160 580 109 67
29161 580 332 6
29162 580 402 25
29163 580 955 70
29164 580 872 73
29165 580 788 81
29166 580 32 78
29167 580 117 100
29168 580 94 31
29169 580 606 85
29170 580 933 57
29171 580 25 35
29172 580 188 48
29173 580 379 100
29174 580 290 83
29175 580 275 34
29176 580 777 72
29177 580 107 68
29178 580 325 83
29179 580 817 49
29180 580 528 48
29181 580 607 18
29182 580 104 50
29183 580 633 33
29184 580 890 67
29185 580 591 12
29186 580 426 48
29187 580 322 37
29188 580 902 32
29189 580 539 19
29190 580 157 5
29191 580 222 59
29192 580 210 99
29193 580 319 6
29194 580 750 45
29195 580 721 87
29196 580 818 1
29197 580 416 12
29198 580 141 73
29199 580 693 40
29200 580 88 95
29201 580 412 97
29202 580 404 1
29203 580 553 74
29204 580 380 77
29205 581 727 69
29206 581 483 35
29207 581 47 94
29208 581 867 65
29209 581 84 19
29210 581 331 90
29211 581 116 63
29212 581 200 62
29213 581 268 67
29214 581 989 13
29215 581 573 64
29216 581 808 64
29217 581 211 74
29218 581 79 32
29219 581 932 4
29220 581 760 42
29221 581 640 5
29222 581 856 44
29223 581 324 100
29224 581 515 12
29225 581 570 27
29226 581 651 5
29227 581 526 40
29228 581 818 26
29229 581 582 32
29230 581 527 24
29231 581 538 44
29232 581 492 8
29233 581 511 45
29234 581 294 84
29235 581 134 10
29236 581 233 88
29237 581 590 55
29238 581 213 64
29239 581 912 76
29240 581 400 17
29241 581 2 75
29242 581 383 23
29243 581 377 83
29244 581 382 35
29245 581 736 17
29246 581 180 61
29247 581 303 14
29248 581 253 49
29249 582 325 83
29250 582 682 11
29251 582 99 3
29252 582 170 71
29253 582 655 67
29254 582 273 80
29255 582 902 87
29256 582 141 44
29257 582 44 97
29258 582 576 19
29259 582 319 7
29260 582 202 45
29261 582 262 100
29262 582 500 66
29263 582 621 52
29264 582 154 43
29265 582 903 92
29266 582 708 72
29267 582 688 80
29268 582 831 81
29269 582 243 50
29270 582 648 51
29271 582 720 57
29272 582 299 20
29273 582 338 69
29274 582 497 16
29275 582 739 49
29276 582 741 30
29277 582 326 84
29278 582 627 91
29279 582 735 68
29280 582 970 26
29281 582 566 51
29282 582 605 79
29283 582 590 85
29284 582 67 55
29285 582 987 42
29286 582 862 43
29287 582 614 43
29288 582 917 81
29289 582 686 84
29290 582 94 66
29291 582 511 63
29292 582 860 89
29293 582 787 1
29294 582 146 53
29295 583 355 57
29296 583 402 16
29297 583 632 71
29298 583 109 60
29299 583 964 69
29300 583 400 75
29301 583 572 75
29302 583 978 23
29303 583 8 76
29304 583 645 90
29305 583 136 38
29306 583 354 98
29307 583 970 83
29308 583 567 18
29309 583 943 87
29310 583 29 6
29311 583 49 31
29312 583 564 84
29313 583 268 97
29314 583 846 51
29315 583 104 73
29316 583 931 83
29317 583 141 89
29318 583 693 55
29319 583 705 67
29320 583 282 68
29321 583 191 41
29322 583 597 10
29323 583 936 61
29324 583 643 90
29325 583 924 43
29326 583 66 24
29327 583 327 100
29328 583 523 20
29329 583 293 57
29330 583 802 69
29331 583 786 53
29332 583 766 33
29333 583 81 33
29334 583 177 69
29335 583 595 8
29336 583 899 47
29337 583 403 100
29338 583 291 26
29339 584 9 84
29340 584 591 35
29341 584 189 81
29342 584 972 9
29343 584 334 43
29344 584 279 2
29345 584 170 9
29346 584 216 68
29347 584 296 91
29348 584 602 74
29349 584 33 76
29350 584 662 69
29351 584 648 33
29352 584 381 44
29353 584 214 3
29354 584 409 83
29355 584 807 71
29356 584 605 87
29357 584 710 77
29358 584 475 100
29359 584 314 57
29360 584 892 2
29361 584 446 37
29362 584 231 39
29363 584 219 28
29364 584 207 59
29365 584 789 93
29366 584 92 16
29367 584 1 4
29368 584 180 63
29369 584 266 29
29370 584 130 47
29371 584 137 82
29372 584 226 74
29373 584 107 28
29374 584 996 18
29375 584 885 94
29376 584 393 74
29377 584 274 8
29378 584 844 64
29379 584 376 70
29380 584 463 3
29381 584 123 83
29382 584 194 4
29383 584 397 48
29384 584 336 29
29385 584 425 88
29386 584 979 33
29387 585 174 62
29388 585 740 57
29389 585 75 5
29390 585 362 26
29391 585 906 68
29392 585 177 72
29393 585 309 44
29394 585 281 93
29395 585 894 87
29396 585 855 28
29397 585 519 76
29398 585 211 58
29399 585 476 44
29400 585 978 41
29401 585 665 45
29402 585 583 70
29403 585 24 15
29404 585 426 7
29405 585 815 42
29406 585 425 31
29407 585 448 100
29408 585 366 88
29409 585 638 86
29410 585 766 58
29411 585 387 100
29412 585 776 97
29413 585 934 48
29414 585 993 100
29415 585 507 85
29416 585 837 47
29417 585 305 51
29418 585 137 34
29419 585 176 38
29420 585 433 6
29421 585 603 60
29422 585 52 30
29423 585 79 41
29424 585 21 45
29425 585 373 76
29426 585 845 80
29427 585 697 48
29428 585 184 22
29429 585 781 40
29430 585 499 18
29431 585 130 93
29432 585 471 56
29433 585 703 95
29434 585 28 86
29435 585 593 58
29436 585 148 21
29437 586 135 89
29438 586 393 76
29439 586 835 46
29440 586 849 34
29441 586 474 82
29442 586 476 14
29443 586 518 95
29444 586 187 36
29445 586 850 34
29446 586 667 97
29447 586 493 93
29448 586 627 74
29449 586 652 17
29450 586 197 80
29451 586 133 62
29452 586 702 38
29453 586 234 28
29454 586 752 79
29455 586 679 31
29456 586 528 13
29457 586 439 26
29458 586 947 37
29459 586 356 52
29460 586 272 47
29461 586 756 30
29462 586 465 54
29463 586 840 4
29464 586 592 70
29465 586 600 45
29466 586 826 97
29467 586 656 67
29468 586 462 38
29469 586 560 78
29470 586 962 11
29471 586 450 21
29472 586 273 14
29473 586 427 91
29474 586 894 27
29475 586 400 31
29476 586 338 75
29477 586 983 6
29478 586 482 47
29479 586 714 80
29480 586 486 15
29481 586 244 22
29482 586 456 61
29483 586 837 66
29484 586 480 18
29485 586 807 59
29486 586 959 39
29487 587 474 68
29488 587 537 99
29489 587 753 77
29490 587 245 95
29491 587 186 17
29492 587 923 99
29493 587 490 67
29494 587 548 55
29495 587 78 51
29496 587 502 36
29497 587 330 36
29498 587 445 88
29499 587 899 95
29500 587 130 86
29501 587 955 37
29502 587 511 23
29503 587 308 97
29504 587 318 75
29505 587 144 60
29506 587 904 50
29507 587 636 60
29508 587 389 10
29509 587 639 7
29510 587 460 93
29511 587 300 93
29512 587 588 40
29513 587 434 37
29514 587 23 49
29515 587 100 29
29516 587 479 51
29517 587 536 3
29518 587 690 82
29519 587 935 77
29520 587 384 56
29521 587 66 83
29522 587 103 41
29523 587 835 19
29524 587 679 43
29525 587 710 81
29526 587 155 30
29527 587 228 51
29528 587 944 71
29529 587 786 26
29530 587 894 88
29531 587 828 39
29532 587 61 97
29533 587 202 13
29534 587 34 78
29535 587 903 35
29536 587 681 7
29537 587 706 76
29538 587 376 83
29539 587 168 70
29540 587 623 20
29541 587 901 25
29542 587 295 57
29543 587 286 62
29544 587 869 34
29545 587 736 79
29546 587 545 92
29547 587 396 18
29548 587 424 22
29549 587 394 82
29550 587 462 19
29551 587 988 78
29552 587 881 17
29553 587 813 52
29554 587 288 51
29555 587 82 37
29556 587 693 6
29557 587 698 23
29558 588 458 39
29559 588 238 20
29560 588 104 63
29561 588 77 22
29562 588 509 82
29563 588 262 18
29564 588 389 73
29565 588 567 1
29566 588 338 73
29567 588 476 35
29568 588 784 84
29569 588 994 32
29570 588 76 9
29571 588 987 75
29572 588 724 43
29573 588 179 4
29574 588 932 69
29575 588 119 71
29576 588 728 82
29577 588 862 45
29578 588 803 21
29579 588 978 87
29580 588 715 33
29581 588 342 27
29582 588 273 45
29583 588 102 23
29584 588 426 48
29585 588 992 3
29586 588 725 93
29587 588 244 60
29588 588 702 86
29589 588 780 16
29590 588 947 15
29591 588 627 66
29592 588 165 45
29593 588 585 78
29594 588 314 62
29595 588 95 52
29596 588 574 3
29597 588 797 10
29598 588 355 19
29599 588 399 58
29600 588 209 40
29601 588 909 55
29602 588 678 74
29603 588 220 43
29604 589 285 5
29605 589 875 33
29606 589 446 12
29607 589 340 91
29608 589 865 96
29609 589 652 84
29610 589 354 4
29611 589 719 24
29612 589 24 40
29613 589 455 10
29614 589 935 91
29615 589 844 35
29616 589 840 55
29617 589 303 99
29618 589 95 100
29619 589 762 53
29620 589 506 17
29621 589 5 68
29622 589 572 28
29623 589 833 38
29624 589 897 27
29625 589 310 21
29626 589 434 11
29627 589 847 82
29628 589 198 39
29629 589 939 11
29630 589 159 31
29631 589 180 3
29632 589 192 39
29633 589 83 43
29634 589 34 51
29635 589 438 48
29636 589 654 25
29637 589 172 30
29638 589 886 28
29639 589 512 19
29640 589 250 60
29641 589 852 80
29642 589 688 39
29643 589 799 34
29644 589 467 10
29645 589 657 70
29646 589 342 43
29647 589 133 54
29648 589 321 50
29649 589 747 13
29650 589 797 38
29651 589 312 56
29652 589 893 13
29653 589 914 84
29654 589 787 79
29655 589 205 81
29656 589 128 41
29657 590 648 96
29658 590 13 54
29659 590 623 79
29660 590 604 27
29661 590 266 89
29662 590 157 99
29663 590 263 46
29664 590 334 24
29665 590 678 28
29666 590 575 20
29667 590 852 97
29668 590 763 77
29669 590 31 69
29670 590 19 91
29671 590 591 76
29672 590 900 65
29673 590 817 96
29674 590 217 88
29675 590 669 10
29676 590 660 68
29677 590 727 9
29678 590 540 73
29679 590 504 10
29680 590 895 24
29681 590 462 91
29682 590 353 100
29683 590 265 85
29684 590 49 17
29685 590 577 73
29686 590 276 100
29687 590 821 80
29688 590 286 65
29689 590 806 91
29690 590 235 36
29691 590 179 83
29692 590 403 56
29693 590 395 28
29694 590 96 36
29695 590 947 87
29696 590 497 15
29697 590 289 56
29698 590 959 11
29699 590 221 1
29700 590 510 22
29701 590 744 4
29702 590 945 36
29703 590 342 8
29704 590 706 74
29705 590 746 48
29706 590 870 16
29707 590 704 7
29708 590 90 49
29709 591 279 52
29710 591 290 13
29711 591 691 25
29712 591 319 61
29713 591 546 61
29714 591 522 89
29715 591 379 48
29716 591 620 79
29717 591 739 57
29718 591 743 92
29719 591 116 36
29720 591 666 35
29721 591 517 51
29722 591 784 90
29723 591 694 83
29724 591 773 25
29725 591 302 47
29726 591 193 22
29727 591 468 45
29728 591 545 37
29729 591 467 75
29730 591 540 13
29731 591 858 88
29732 591 626 98
29733 591 197 30
29734 591 258 17
29735 591 681 39
29736 591 715 43
29737 591 816 95
29738 591 83 46
29739 591 709 13
29740 591 590 69
29741 591 655 25
29742 591 492 44
29743 591 931 20
29744 591 799 56
29745 591 616 54
29746 591 16 75
29747 591 805 45
29748 591 406 46
29749 591 428 22
29750 591 362 49
29751 591 975 89
29752 591 203 5
29753 591 382 59
29754 592 227 15
29755 592 962 55
29756 592 360 14
29757 592 872 69
29758 592 577 47
29759 592 934 9
29760 592 57 56
29761 592 892 3
29762 592 393 54
29763 592 268 60
29764 592 458 2
29765 592 232 20
29766 592 463 30
29767 592 476 74
29768 592 130 33
29769 592 271 74
29770 592 184 88
29771 592 945 88
29772 592 152 96
29773 592 400 9
29774 592 32 97
29775 592 329 84
29776 592 483 26
29777 592 546 55
29778 592 793 42
29779 592 783 90
29780 592 88 47
29781 592 261 67
29782 592 698 54
29783 592 990 21
29784 592 370 46
29785 592 657 82
29786 592 98 7
29787 592 126 57
29788 592 265 57
29789 592 970 86
29790 592 76 80
29791 592 725 73
29792 592 769 46
29793 592 593 33
29794 592 304 6
29795 593 200 91
29796 593 727 27
29797 593 241 73
29798 593 145 32
29799 593 365 37
29800 593 525 18
29801 593 99 39
29802 593 856 99
29803 593 156 35
29804 593 360 83
29805 593 129 24
29806 593 994 34
29807 593 619 54
29808 593 937 15
29809 593 753 91
29810 593 896 50
29811 593 199 9
29812 593 465 75
29813 593 667 76
29814 593 708 26
29815 593 348 44
29816 593 719 80
29817 593 622 83
29818 593 671 14
29819 593 295 24
29820 593 476 33
29821 593 412 28
29822 593 299 11
29823 593 860 92
29824 593 984 80
29825 593 440 66
29826 593 274 69
29827 593 716 91
29828 593 398 89
29829 593 739 23
29830 593 793 97
29831 593 857 35
29832 593 320 34
29833 593 403 98
29834 593 531 38
29835 593 242 51
29836 593 689 9
29837 593 875 59
29838 593 914 8
29839 593 211 71
29840 593 4 74
29841 593 582 3
29842 593 425 25
29843 593 588 95
29844 593 709 3
29845 593 371 44
29846 593 347 63
29847 593 921 58
29848 593 113 70
29849 593 758 85
29850 593 534 70
29851 593 159 18
29852 593 815 14
29853 593 508 96
29854 593 170 83
29855 594 49 8
29856 594 30 42
29857 594 621 58
29858 594 976 88
29859 594 922 11
29860 594 898 62
29861 594 897 71
29862 594 167 50
29863 594 331 54
29864 594 659 53
29865 594 219 12
29866 594 632 41
29867 594 739 12
29868 594 748 28
29869 594 36 89
29870 594 222 87
29871 594 637 14
29872 594 991 25
29873 594 243 65
29874 594 839 73
29875 594 848 39
29876 594 229 83
29877 594 968 32
29878 594 244 97
29879 594 442 28
29880 594 741 20
29881 594 878 85
29882 594 79 16
29883 594 373 96
29884 594 5 65
29885 594 613 94
29886 594 923 70
29887 594 596 6
29888 594 996 96
29889 594 592 19
29890 594 910 36
29891 594 482 64
29892 594 954 53
29893 594 78 49
29894 594 698 15
29895 594 620 64
29896 594 703 98
29897 594 699 38
29898 594 785 27
29899 594 493 52
29900 594 136 14
29901 595 599 85
29902 595 875 47
29903 595 66 21
29904 595 829 41
29905 595 343 68
29906 595 121 68
29907 595 113 63
29908 595 293 5
29909 595 434 29
29910 595 259 82
29911 595 212 65
29912 595 934 82
29913 595 77 60
29914 595 849 86
29915 595 836 90
29916 595 544 42
29917 595 904 43
29918 595 782 91
29919 595 769 44
29920 595 852 56
29921 595 888 14
29922 595 232 24
29923 595 70 22
29924 595 513 99
29925 595 440 45
29926 595 519 98
29927 595 0 97
29928 595 95 31
29929 595 305 31
29930 595 921 28
29931 595 379 16
29932 595 274 1
29933 595 805 91
29934 595 447 3
29935 595 252 90
29936 595 486 20
29937 595 277 36
29938 595 562 43
29939 595 247 28
29940 595 72 97
29941 595 795 8
29942 595 336 9
29943 595 410 34
29944 595 93 99
29945 595 657 3
29946 595 270 85
29947 595 363 36
29948 595 254 97
29949 595 176 41
29950 595 659 13
29951 595 619 1
29952 595 300 12
29953 595 567 3
29954 595 683 53
29955 595 730 1
29956 595 185 8
29957 595 431 53
29958 595 392 88
29959 595 582 54
29960 595 92 51
29961 595 594 39
29962 595 787 60
29963 596 266 80
29964 596 489 77
29965 596 443 41
29966 596 599 81
29967 596 658 9
29968 596 407 2
29969 596 380 59
29970 596 398 13
29971 596 446 38
29972 596 436 91
29973 596 839 55
29974 596 310 69
29975 596 432 82
29976 596 329 80
29977 596 974 53
29978 596 180 46
29979 596 517 12
29980 596 734 35
29981 596 802 63
29982 596 12 35
29983 596 542 53
29984 596 419 35
29985 596 334 67
29986 596 968 69
29987 596 219 43
29988 596 493 35
29989 596 667 3
29990 596 459 75
29991 596 537 33
29992 596 284 56
29993 596 355 68
29994 596 161 11
29995 596 732 36
29996 596 318 100
29997 596 241 53
29998 596 217 85
29999 596 2 54
30000 596 925 96
30001 596 704 100
30002 596 774 26
30003 596 441 11
30004 596 342 51
30005 596 107 14
30006 596 933 46
30007 596 35 94
30008 596 823 72
30009 596 938 83
30010 596 484 27
30011 596 893 69
30012 596 138 37
30013 596 196 25
30014 596 56 18
30015 596 302 47
30016 596 369 53
30017 596 562 61
30018 597 991 21
30019 597 199 16
30020 597 894 77
30021 597 626 60
30022 597 419 3
30023 597 269 71
30024 597 661 20
30025 597 618 57
30026 597 150 100
30027 597 868 45
30028 597 836 97
30029 597 368 69
30030 597 193 87
30031 597 110 85
30032 597 936 65
30033 597 908 84
30034 597 139 51
30035 597 943 98
30036 597 58 4
30037 597 84 88
30038 597 735 89
30039 597 421 70
30040 597 462 100
30041 597 796 60
30042 597 760 14
30043 597 525 82
30044 597 522 82
30045 597 807 87
30046 597 616 58
30047 597 662 63
30048 597 887 73
30049 597 448 87
30050 597 869 41
30051 597 447 46
30052 597 340 6
30053 597 854 74
30054 597 403 64
30055 597 539 31
30056 597 779 65
30057 597 396 85
30058 597 387 53
30059 597 98 86
30060 597 383 94
30061 597 52 13
30062 597 701 9
30063 597 437 80
30064 597 425 9
30065 598 177 80
30066 598 899 33
30067 598 498 87
30068 598 687 100
30069 598 997 2
30070 598 293 7
30071 598 920 45
30072 598 858 14
30073 598 316 72
30074 598 635 28
30075 598 259 11
30076 598 866 53
30077 598 765 71
30078 598 690 56
30079 598 940 52
30080 598 910 41
30081 598 194 19
30082 598 896 90
30083 598 752 54
30084 598 300 31
30085 598 135 60
30086 598 870 41
30087 598 49 64
30088 598 761 57
30089 598 347 81
30090 598 379 97
30091 598 207 40
30092 598 153 99
30093 598 130 53
30094 598 698 66
30095 598 271 84
30096 598 860 11
30097 598 855 70
30098 598 812 81
30099 598 185 52
30100 598 530 71
30101 598 689 75
30102 598 843 62
30103 598 830 15
30104 598 285 76
30105 598 842 23
30106 598 553 17
30107 598 569 95
30108 598 367 7
30109 598 933 36
30110 598 665 34
30111 598 925 15
30112 598 895 28
30113 598 548 20
30114 598 989 48
30115 598 684 64
30116 598 231 11
30117 599 988 4
30118 599 797 80
30119 599 699 61
30120 599 835 36
30121 599 80 20
30122 599 876 90
30123 599 750 19
30124 599 635 16
30125 599 364 37
30126 599 923 52
30127 599 657 13
30128 599 411 72
30129 599 623 100
30130 599 383 8
30131 599 474 14
30132 599 497 4
30133 599 224 47
30134 599 525 66
30135 599 295 92
30136 599 326 67
30137 599 413 38
30138 599 571 70
30139 599 824 54
30140 599 367 26
30141 599 867 41
30142 599 957 95
30143 599 263 1
30144 599 429 99
30145 599 568 26
30146 599 213 28
30147 599 165 55
30148 599 299 87
30149 599 637 39
30150 599 119 5
30151 599 255 85
30152 599 584 51
30153 599 735 7
30154 599 432 87
30155 599 533 28
30156 599 845 64
30157 599 921 15
30158 599 289 12
30159 599 22 24
30160 599 717 23
30161 599 363 47
30162 599 633 54
30163 599 511 79
30164 599 727 19
30165 599 407 66
30166 599 523 57
30167 599 6 27
30168 600 306 1
30169 600 386 87
30170 600 341 72
30171 600 269 10
30172 600 736 87
30173 600 469 14
30174 600 648 49
30175 600 566 70
30176 600 194 12
30177 600 802 51
30178 600 619 70
30179 600 793 65
30180 600 832 17
30181 600 907 76
30182 600 937 65
30183 600 158 72
30184 600 806 10
30185 600 670 50
30186 600 902 75
30187 600 722 97
30188 600 373 21
30189 600 557 71
30190 600 501 55
30191 600 502 5
30192 600 559 13
30193 600 975 61
30194 600 390 71
30195 600 97 26
30196 600 497 57
30197 600 977 10
30198 600 188 24
30199 600 940 90
30200 600 8 89
30201 600 362 32
30202 600 57 7
30203 600 886 72
30204 600 952 39
30205 600 136 59
30206 600 713 59
30207 600 26 56
30208 600 745 17
30209 600 750 91
30210 600 434 24
30211 601 832 66
30212 601 264 96
30213 601 777 14
30214 601 540 96
30215 601 181 67
30216 601 139 94
30217 601 173 43
30218 601 340 34
30219 601 97 38
30220 601 374 33
30221 601 254 63
30222 601 954 38
30223 601 512 74
30224 601 136 77
30225 601 223 24
30226 601 158 49
30227 601 302 68
30228 601 734 12
30229 601 279 33
30230 601 305 58
30231 601 119 12
30232 601 422 7
30233 601 665 18
30234 601 816 48
30235 601 335 49
30236 601 133 14
30237 601 532 100
30238 601 803 99
30239 601 276 54
30240 601 356 13
30241 601 623 24
30242 601 491 34
30243 601 150 86
30244 601 103 29
30245 601 530 37
30246 601 570 54
30247 601 666 28
30248 601 522 96
30249 601 529 30
30250 601 191 68
30251 601 576 98
30252 601 941 96
30253 601 595 14
30254 601 310 81
30255 601 12 39
30256 601 447 86
30257 601 513 59
30258 601 207 39
30259 602 531 84
30260 602 929 79
30261 602 219 53
30262 602 332 81
30263 602 553 81
30264 602 838 33
30265 602 375 25
30266 602 935 93
30267 602 936 60
30268 602 319 70
30269 602 998 36
30270 602 903 33
30271 602 925 11
30272 602 986 46
30273 602 522 54
30274 602 225 50
30275 602 116 3
30276 602 103 93
30277 602 191 38
30278 602 645 87
30279 602 513 25
30280 602 40 57
30281 602 183 21
30282 602 815 96
30283 602 274 7
30284 602 174 63
30285 602 248 78
30286 602 552 92
30287 602 980 60
30288 602 894 74
30289 602 519 39
30290 602 123 33
30291 602 906 51
30292 602 334 91
30293 602 870 40
30294 602 439 36
30295 602 635 51
30296 602 378 8
30297 602 878 12
30298 602 760 40
30299 602 22 14
30300 602 110 31
30301 602 328 48
30302 602 512 64
30303 602 637 19
30304 602 644 3
30305 602 37 14
30306 602 457 1
30307 602 356 38
30308 602 917 65
30309 603 164 95
30310 603 452 74
30311 603 179 9
30312 603 582 2
30313 603 401 36
30314 603 959 85
30315 603 691 42
30316 603 193 36
30317 603 237 76
30318 603 547 90
30319 603 791 43
30320 603 901 64
30321 603 64 44
30322 603 710 21
30323 603 600 9
30324 603 925 77
30325 603 771 94
30326 603 819 59
30327 603 851 55
30328 603 755 43
30329 603 836 98
30330 603 986 90
30331 603 105 51
30332 603 565 3
30333 603 829 6
30334 603 503 91
30335 603 642 89
30336 603 225 37
30337 603 238 70
30338 603 909 50
30339 603 462 73
30340 603 363 93
30341 603 816 48
30342 603 616 69
30343 603 730 50
30344 603 944 54
30345 603 804 31
30346 603 882 20
30347 603 212 56
30348 603 19 44
30349 603 838 74
30350 603 205 5
30351 603 961 94
30352 603 552 95
30353 603 580 74
30354 603 245 53
30355 604 560 85
30356 604 119 12
30357 604 773 16
30358 604 180 97
30359 604 396 62
30360 604 794 62
30361 604 398 100
30362 604 911 15
30363 604 106 84
30364 604 988 22
30365 604 137 39
30366 604 321 2
30367 604 450 33
30368 604 218 9
30369 604 930 36
30370 604 385 83
30371 604 811 46
30372 604 270 71
30373 604 534 99
30374 604 155 32
30375 604 165 16
30376 604 154 27
30377 604 832 12
30378 604 7 59
30379 604 880 57
30380 604 848 4
30381 604 983 97
30382 604 311 63
30383 604 902 100
30384 604 850 12
30385 604 324 81
30386 604 835 34
30387 604 768 99
30388 604 662 72
30389 604 123 85
30390 604 745 73
30391 604 845 39
30392 604 984 9
30393 604 918 15
30394 604 410 10
30395 604 95 19
30396 604 68 92
30397 604 507 60
30398 604 83 91
30399 604 139 29
30400 604 596 10
30401 604 562 16
30402 604 473 56
30403 604 632 50
30404 604 442 100
30405 604 345 28
30406 604 946 30
30407 604 97 14
30408 604 649 28
30409 605 964 12
30410 605 130 13
30411 605 539 100
30412 605 747 83
30413 605 664 88
30414 605 875 36
30415 605 646 67
30416 605 9 18
30417 605 447 75
30418 605 896 9
30419 605 250 42
30420 605 465 72
30421 605 323 55
30422 605 18 92
30423 605 861 66
30424 605 475 64
30425 605 401 62
30426 605 197 90
30427 605 403 45
30428 605 112 25
30429 605 421 46
30430 605 315 85
30431 605 12 26
30432 605 155 24
30433 605 442 97
30434 605 244 98
30435 605 783 10
30436 605 160 15
30437 605 154 84
30438 605 329 91
30439 605 977 99
30440 605 360 48
30441 605 922 47
30442 605 716 83
30443 605 770 54
30444 605 905 74
30445 606 501 3
30446 606 65 9
30447 606 826 58
30448 606 998 95
30449 606 691 26
30450 606 120 84
30451 606 723 16
30452 606 578 78
30453 606 22 6
30454 606 792 19
30455 606 174 23
30456 606 741 39
30457 606 374 97
30458 606 97 31
30459 606 830 62
30460 606 923 20
30461 606 843 37
30462 606 326 38
30463 606 24 37
30464 606 720 88
30465 606 84 13
30466 606 918 64
30467 606 699 65
30468 606 771 29
30469 606 835 31
30470 606 275 60
30471 606 583 50
30472 606 717 26
30473 606 188 29
30474 606 341 21
30475 606 472 71
30476 606 791 69
30477 606 837 40
30478 606 154 59
30479 606 265 96
30480 606 409 51
30481 606 512 27
30482 606 519 53
30483 606 586 61
30484 606 865 90
30485 607 321 17
30486 607 126 12
30487 607 706 15
30488 607 664 11
30489 607 582 34
30490 607 935 68
30491 607 885 17
30492 607 812 68
30493 607 76 45
30494 607 621 2
30495 607 729 69
30496 607 89 61
30497 607 20 36
30498 607 767 78
30499 607 372 27
30500 607 6 54
30501 607 319 57
30502 607 395 39
30503 607 659 69
30504 607 414 68
30505 607 857 9
30506 607 205 40
30507 607 743 14
30508 607 838 67
30509 607 288 52
30510 607 925 46
30511 607 189 40
30512 607 870 60
30513 607 291 41
30514 607 846 52
30515 607 175 79
30516 607 54 29
30517 607 612 4
30518 607 964 4
30519 607 364 87
30520 607 859 20
30521 607 464 22
30522 607 997 20
30523 607 585 21
30524 607 589 29
30525 607 475 89
30526 607 155 84
30527 607 611 13
30528 607 137 61
30529 607 889 90
30530 607 499 91
30531 607 954 32
30532 607 795 9
30533 607 735 56
30534 608 123 23
30535 608 210 48
30536 608 923 49
30537 608 514 12
30538 608 688 45
30539 608 82 75
30540 608 165 79
30541 608 727 81
30542 608 356 81
30543 608 702 48
30544 608 199 72
30545 608 431 94
30546 608 460 60
30547 608 335 1
30548 608 720 9
30549 608 555 22
30550 608 504 88
30551 608 634 5
30552 608 586 92
30553 608 559 92
30554 608 610 42
30555 608 371 42
30556 608 805 41
30557 608 372 22
30558 608 78 75
30559 608 434 25
30560 608 360 35
30561 608 465 55
30562 608 681 26
30563 608 788 13
30564 608 713 77
30565 608 898 1
30566 608 172 34
30567 608 96 11
30568 608 295 14
30569 608 954 14
30570 608 714 83
30571 608 28 7
30572 608 768 90
30573 608 550 2
30574 608 226 4
30575 608 949 49
30576 608 304 86
30577 608 204 60
30578 608 48 59
30579 608 486 15
30580 608 745 56
30581 608 884 22
30582 608 542 16
30583 608 938 48
30584 608 605 83
30585 608 38 79
30586 608 60 71
30587 608 599 24
30588 608 770 67
30589 609 871 16
30590 609 945 100
30591 609 151 18
30592 609 827 48
30593 609 525 48
30594 609 720 23
30595 609 503 25
30596 609 835 8
30597 609 401 7
30598 609 458 45
30599 609 649 98
30600 609 758 45
30601 609 644 75
30602 609 80 21
30603 609 155 77
30604 609 70 39
30605 609 317 40
30606 609 78 99
30607 609 587 60
30608 609 120 5
30609 609 613 74
30610 609 575 19
30611 609 433 43
30612 609 880 82
30613 609 734 12
30614 609 536 46
30615 609 254 25
30616 609 257 68
30617 609 907 80
30618 609 240 89
30619 609 859 60
30620 609 767 87
30621 609 32 4
30622 609 256 85
30623 609 162 69
30624 609 314 1
30625 609 57 62
30626 609 680 44
30627 609 216 12
30628 609 765 90
30629 609 740 24
30630 609 388 7
30631 609 881 2
30632 609 406 83
30633 609 906 68
30634 609 557 93
30635 609 567 83
30636 609 345 4
30637 609 172 52
30638 609 330 19
30639 609 413 16
30640 609 876 81
30641 609 36 8
30642 609 454 21
30643 609 331 59
30644 610 282 55
30645 610 717 6
30646 610 749 35
30647 610 125 86
30648 610 291 9
30649 610 574 37
30650 610 650 49
30651 610 756 61
30652 610 175 20
30653 610 703 56
30654 610 432 29
30655 610 268 58
30656 610 914 75
30657 610 891 34
30658 610 912 19
30659 610 477 67
30660 610 78 7
30661 610 870 14
30662 610 998 82
30663 610 778 21
30664 610 883 67
30665 610 337 92
30666 610 815 33
30667 610 513 76
30668 610 755 96
30669 610 965 56
30670 610 470 19
30671 610 916 36
30672 610 346 77
30673 610 682 10
30674 610 248 80
30675 610 583 7
30676 610 108 74
30677 610 157 91
30678 610 349 15
30679 610 942 96
30680 610 714 45
30681 610 590 66
30682 610 90 63
30683 610 143 15
30684 610 120 79
30685 610 239 60
30686 610 416 84
30687 610 793 23
30688 610 25 28
30689 610 773 73
30690 610 306 2
30691 610 438 44
30692 610 31 54
30693 610 129 30
30694 610 932 5
30695 610 940 97
30696 610 109 94
30697 610 617 7
30698 610 900 38
30699 611 489 37
30700 611 926 71
30701 611 762 79
30702 611 480 38
30703 611 249 38
30704 611 432 8
30705 611 189 53
30706 611 545 59
30707 611 396 5
30708 611 715 48
30709 611 936 78
30710 611 17 87
30711 611 255 77
30712 611 446 33
30713 611 440 84
30714 611 944 14
30715 611 49 43
30716 611 159 78
30717 611 600 1
30718 611 274 11
30719 611 548 88
30720 611 485 95
30721 611 84 72
30722 611 76 52
30723 611 830 72
30724 611 484 65
30725 611 14 9
30726 611 469 38
30727 611 775 28
30728 611 206 24
30729 611 223 93
30730 611 479 55
30731 611 960 4
30732 611 932 78
30733 611 726 9
30734 611 22 96
30735 611 138 55
30736 611 812 6
30737 611 425 5
30738 611 915 74
30739 611 46 66
30740 611 612 82
30741 611 730 39
30742 611 601 81
30743 611 988 99
30744 611 219 3
30745 611 130 31
30746 611 213 92
30747 611 538 17
30748 611 603 86
30749 611 177 96
30750 612 657 99
30751 612 248 58
30752 612 271 58
30753 612 110 39
30754 612 404 44
30755 612 843 31
30756 612 755 40
30757 612 63 47
30758 612 393 37
30759 612 445 39
30760 612 207 96
30761 612 708 46
30762 612 265 74
30763 612 459 4
30764 612 731 49
30765 612 867 23
30766 612 478 88
30767 612 974 23
30768 612 732 22
30769 612 905 81
30770 612 124 72
30771 612 672 81
30772 612 728 79
30773 612 914 49
30774 612 108 24
30775 612 570 36
30776 612 111 91
30777 612 396 93
30778 612 575 76
30779 612 75 86
30780 612 364 13
30781 612 263 22
30782 612 907 83
30783 612 182 36
30784 612 143 56
30785 612 661 45
30786 612 650 88
30787 612 790 33
30788 612 973 31
30789 612 543 57
30790 612 992 100
30791 612 982 18
30792 612 866 14
30793 612 623 79
30794 612 688 77
30795 613 994 25
30796 613 411 11
30797 613 243 76
30798 613 229 31
30799 613 41 38
30800 613 118 48
30801 613 648 42
30802 613 181 38
30803 613 285 35
30804 613 185 16
30805 613 8 20
30806 613 90 66
30807 613 5 69
30808 613 9 87
30809 613 736 99
30810 613 343 32
30811 613 816 24
30812 613 438 94
30813 613 423 95
30814 613 187 5
30815 613 672 13
30816 613 833 99
30817 613 516 58
30818 613 36 1
30819 613 440 15
30820 613 322 50
30821 613 936 69
30822 613 778 100
30823 613 348 58
30824 613 84 42
30825 613 217 58
30826 613 506 10
30827 613 347 8
30828 613 630 66
30829 613 18 44
30830 613 279 85
30831 613 97 69
30832 613 327 89
30833 613 354 5
30834 613 387 17
30835 613 197 7
30836 613 468 31
30837 613 949 93
30838 613 338 9
30839 613 661 11
30840 613 792 61
30841 614 589 95
30842 614 773 87
30843 614 144 16
30844 614 411 76
30845 614 713 94
30846 614 260 20
30847 614 127 64
30848 614 51 62
30849 614 248 50
30850 614 306 77
30851 614 974 89
30852 614 201 23
30853 614 448 8
30854 614 619 3
30855 614 503 33
30856 614 791 90
30857 614 15 94
30858 614 52 43
30859 614 750 65
30860 614 507 43
30861 614 989 35
30862 614 656 21
30863 614 272 67
30864 614 582 67
30865 614 961 46
30866 614 827 22
30867 614 128 56
30868 614 652 51
30869 614 428 89
30870 614 451 80
30871 614 763 30
30872 614 694 94
30873 614 554 34
30874 614 98 55
30875 614 474 37
30876 614 254 18
30877 614 540 39
30878 614 573 95
30879 614 6 1
30880 614 146 27
30881 614 834 68
30882 614 659 60
30883 614 890 5
30884 614 712 35
30885 614 403 28
30886 614 216 13
30887 614 281 96
30888 614 56 77
30889 615 431 3
30890 615 714 1
30891 615 755 11
30892 615 18 80
30893 615 69 9
30894 615 113 85
30895 615 573 90
30896 615 359 10
30897 615 468 79
30898 615 753 37
30899 615 774 2
30900 615 354 71
30901 615 473 17
30902 615 605 65
30903 615 703 94
30904 615 609 17
30905 615 187 50
30906 615 925 61
30907 615 655 36
30908 615 992 85
30909 615 459 35
30910 615 457 47
30911 615 130 44
30912 615 387 59
30913 615 811 1
30914 615 477 45
30915 615 420 83
30916 615 928 93
30917 615 474 3
30918 615 608 39
30919 615 657 98
30920 615 553 15
30921 615 448 34
30922 615 383 44
30923 615 682 67
30924 615 450 76
30925 615 109 49
30926 615 458 56
30927 615 664 9
30928 615 830 48
30929 615 936 9
30930 615 108 81
30931 615 715 71
30932 615 891 18
30933 615 852 33
30934 615 940 38
30935 615 444 10
30936 615 99 72
30937 615 67 10
30938 615 101 75
30939 615 942 2
30940 616 193 23
30941 616 352 2
30942 616 480 49
30943 616 482 46
30944 616 551 25
30945 616 49 35
30946 616 521 46
30947 616 568 41
30948 616 252 77
30949 616 841 55
30950 616 656 58
30951 616 595 6
30952 616 24 77
30953 616 826 54
30954 616 374 41
30955 616 698 63
30956 616 207 47
30957 616 958 99
30958 616 899 95
30959 616 17 39
30960 616 916 44
30961 616 577 18
30962 616 20 10
30963 616 878 77
30964 616 238 46
30965 616 708 65
30966 616 529 37
30967 616 165 73
30968 616 867 73
30969 616 478 8
30970 616 987 82
30971 616 336 48
30972 616 144 17
30973 616 14 64
30974 616 430 48
30975 616 723 27
30976 616 366 38
30977 616 886 3
30978 616 349 87
30979 616 13 67
30980 616 217 1
30981 616 212 21
30982 616 345 14
30983 616 652 79
30984 616 865 41
30985 616 159 71
30986 616 871 51
30987 616 985 36
30988 616 618 49
30989 616 897 61
30990 616 957 54
30991 616 383 50
30992 616 234 38
30993 616 771 88
30994 616 905 44
30995 616 781 40
30996 616 989 40
30997 616 189 37
30998 617 378 49
30999 617 59 49
31000 617 256 54
31001 617 816 89
31002 617 437 27
31003 617 195 58
31004 617 925 81
31005 617 69 80
31006 617 638 76
31007 617 613 30
31008 617 769 83
31009 617 75 72
31010 617 516 20
31011 617 598 70
31012 617 405 61
31013 617 950 2
31014 617 672 73
31015 617 830 64
31016 617 413 35
31017 617 201 99
31018 617 363 48
31019 617 365 8
31020 617 646 80
31021 617 808 55
31022 617 820 57
31023 617 610 96
31024 617 298 15
31025 617 591 34
31026 617 985 62
31027 617 5 46
31028 617 330 61
31029 617 513 40
31030 617 514 20
31031 617 60 20
31032 617 206 40
31033 617 899 28
31034 617 320 62
31035 617 752 34
31036 617 420 55
31037 617 395 22
31038 617 730 19
31039 617 549 31
31040 617 790 63
31041 617 11 51
31042 617 635 30
31043 618 809 96
31044 618 467 54
31045 618 888 52
31046 618 611 10
31047 618 789 62
31048 618 721 48
31049 618 163 69
31050 618 48 81
31051 618 158 59
31052 618 668 29
31053 618 710 51
31054 618 363 1
31055 618 377 76
31056 618 424 32
31057 618 166 80
31058 618 623 62
31059 618 652 28
31060 618 605 88
31061 618 510 17
31062 618 529 52
31063 618 7 98
31064 618 43 40
31065 618 338 31
31066 618 526 30
31067 618 27 14
31068 618 428 66
31069 618 663 98
31070 618 68 82
31071 618 155 28
31072 618 258 96
31073 618 516 38
31074 618 577 55
31075 618 555 13
31076 618 298 7
31077 618 473 75
31078 618 917 57
31079 618 293 19
31080 618 818 54
31081 618 232 56
31082 618 564 87
31083 618 189 86
31084 618 571 60
31085 618 93 3
31086 618 573 39
31087 618 167 94
31088 618 836 27
31089 618 256 51
31090 618 774 25
31091 619 713 35
31092 619 404 3
31093 619 881 62
31094 619 217 80
31095 619 654 56
31096 619 620 93
31097 619 218 4
31098 619 189 48
31099 619 2 76
31100 619 534 31
31101 619 159 48
31102 619 997 23
31103 619 488 39
31104 619 454 13
31105 619 334 73
31106 619 933 9
31107 619 747 25
31108 619 521 34
31109 619 864 1
31110 619 808 56
31111 619 943 81
31112 619 17 49
31113 619 459 52
31114 619 44 21
31115 619 677 85
31116 619 336 38
31117 619 327 7
31118 619 577 38
31119 619 722 4
31120 619 865 65
31121 619 644 23
31122 619 804 70
31123 619 108 19
31124 619 192 81
31125 619 901 84
31126 619 323 24
31127 619 582 4
31128 619 551 11
31129 619 779 35
31130 619 424 14
31131 619 885 91
31132 619 453 55
31133 619 632 24
31134 620 761 83
31135 620 112 80
31136 620 293 73
31137 620 207 57
31138 620 877 19
31139 620 241 74
31140 620 706 96
31141 620 511 63
31142 620 786 1
31143 620 930 23
31144 620 15 97
31145 620 664 99
31146 620 510 8
31147 620 70 6
31148 620 296 1
31149 620 14 82
31150 620 925 96
31151 620 557 46
31152 620 464 69
31153 620 872 97
31154 620 451 28
31155 620 869 96
31156 620 533 33
31157 620 301 50
31158 620 256 65
31159 620 884 12
31160 620 403 73
31161 620 970 13
31162 620 999 43
31163 620 34 51
31164 620 49 5
31165 620 546 15
31166 620 989 81
31167 620 325 22
31168 620 199 15
31169 620 24 35
31170 620 494 65
31171 620 652 52
31172 620 304 40
31173 620 371 60
31174 620 48 74
31175 620 629 9
31176 620 249 23
31177 620 51 64
31178 620 224 54
31179 620 693 10
31180 620 130 40
31181 620 380 32
31182 620 719 37
31183 620 20 47
31184 620 163 81
31185 620 932 49
31186 620 811 95
31187 620 268 63
31188 621 134 84
31189 621 620 16
31190 621 288 66
31191 621 866 24
31192 621 861 32
31193 621 213 5
31194 621 884 98
31195 621 141 72
31196 621 347 88
31197 621 195 83
31198 621 824 37
31199 621 189 89
31200 621 963 51
31201 621 204 66
31202 621 128 61
31203 621 523 93
31204 621 257 92
31205 621 399 50
31206 621 645 20
31207 621 105 68
31208 621 863 86
31209 621 191 73
31210 621 754 96
31211 621 783 73
31212 621 116 92
31213 621 35 75
31214 621 117 93
31215 621 615 75
31216 621 136 81
31217 621 539 21
31218 621 501 35
31219 621 268 99
31220 621 907 31
31221 621 641 69
31222 621 445 57
31223 621 244 14
31224 621 266 17
31225 621 168 68
31226 621 476 2
31227 621 11 95
31228 621 165 100
31229 621 54 70
31230 621 113 68
31231 621 970 21
31232 622 493 27
31233 622 385 21
31234 622 922 81
31235 622 471 12
31236 622 317 53
31237 622 2 83
31238 622 476 20
31239 622 658 84
31240 622 915 35
31241 622 657 57
31242 622 414 86
31243 622 398 6
31244 622 932 95
31245 622 457 100
31246 622 71 62
31247 622 258 40
31248 622 977 79
31249 622 648 13
31250 622 393 18
31251 622 485 30
31252 622 172 31
31253 622 672 44
31254 622 169 99
31255 622 924 63
31256 622 627 77
31257 622 817 90
31258 622 703 79
31259 622 540 65
31260 622 515 98
31261 622 140 25
31262 622 245 17
31263 622 789 64
31264 622 41 49
31265 622 343 98
31266 622 363 58
31267 622 199 86
31268 622 417 44
31269 622 840 99
31270 622 905 24
31271 622 352 8
31272 622 752 97
31273 622 57 6
31274 622 630 18
31275 622 158 64
31276 622 584 32
31277 622 234 43
31278 622 855 29
31279 622 851 52
31280 622 918 78
31281 622 462 87
31282 622 281 83
31283 622 939 2
31284 622 226 45
31285 622 581 68
31286 622 384 46
31287 622 573 67
31288 622 842 60
31289 622 583 73
31290 622 252 99
31291 622 428 71
31292 622 945 97
31293 623 621 90
31294 623 344 98
31295 623 662 38
31296 623 592 22
31297 623 185 46
31298 623 957 2
31299 623 665 69
31300 623 451 59
31301 623 183 11
31302 623 606 20
31303 623 852 36
31304 623 551 46
31305 623 792 79
31306 623 964 51
31307 623 550 40
31308 623 446 99
31309 623 845 65
31310 623 307 6
31311 623 833 92
31312 623 174 29
31313 623 72 2
31314 623 165 67
31315 623 133 3
31316 623 102 51
31317 623 929 66
31318 623 664 24
31319 623 142 37
31320 623 692 88
31321 623 161 83
31322 623 830 88
31323 623 441 48
31324 623 485 11
31325 623 333 9
31326 623 316 73
31327 623 298 66
31328 623 189 42
31329 623 452 91
31330 623 412 30
31331 623 104 29
31332 623 839 10
31333 623 557 61
31334 623 64 3
31335 623 39 46
31336 623 782 9
31337 623 391 64
31338 623 945 88
31339 623 109 60
31340 623 103 47
31341 623 537 81
31342 623 877 36
31343 623 502 92
31344 623 463 19
31345 623 719 53
31346 623 765 34
31347 623 753 9
31348 624 702 75
31349 624 676 8
31350 624 60 22
31351 624 803 44
31352 624 698 51
31353 624 291 51
31354 624 576 12
31355 624 816 81
31356 624 393 67
31357 624 941 97
31358 624 484 50
31359 624 121 31
31360 624 744 39
31361 624 590 65
31362 624 389 99
31363 624 533 46
31364 624 152 27
31365 624 845 93
31366 624 693 91
31367 624 154 95
31368 624 249 55
31369 624 539 100
31370 624 595 65
31371 624 410 27
31372 624 664 57
31373 624 127 69
31374 624 358 44
31375 624 267 11
31376 624 502 90
31377 624 715 97
31378 624 581 54
31379 624 939 73
31380 624 678 42
31381 624 129 42
31382 624 16 12
31383 624 667 21
31384 624 339 1
31385 624 626 36
31386 624 396 32
31387 624 277 22
31388 624 961 18
31389 624 726 77
31390 624 834 88
31391 624 672 77
31392 624 541 17
31393 624 708 78
31394 624 934 78
31395 624 871 57
31396 624 404 80
31397 624 932 82
31398 624 229 99
31399 624 164 60
31400 624 517 25
31401 625 238 66
31402 625 747 79
31403 625 873 15
31404 625 612 33
31405 625 824 70
31406 625 285 91
31407 625 611 95
31408 625 676 70
31409 625 160 50
31410 625 465 88
31411 625 225 65
31412 625 954 37
31413 625 978 40
31414 625 244 63
31415 625 373 28
31416 625 298 64
31417 625 764 54
31418 625 127 80
31419 625 176 48
31420 625 544 3
31421 625 619 43
31422 625 185 29
31423 625 211 69
31424 625 512 33
31425 625 875 94
31426 625 416 75
31427 625 921 58
31428 625 689 20
31429 625 785 17
31430 625 812 25
31431 625 853 8
31432 625 495 50
31433 625 284 63
31434 625 38 4
31435 625 497 61
31436 625 369 63
31437 625 143 13
31438 625 943 96
31439 625 667 50
31440 625 797 15
31441 625 836 30
31442 625 121 90
31443 625 69 83
31444 625 63 9
31445 625 449 32
31446 625 791 93
31447 625 970 32
31448 625 469 27
31449 626 979 78
31450 626 15 70
31451 626 674 78
31452 626 344 56
31453 626 97 12
31454 626 545 61
31455 626 317 10
31456 626 537 19
31457 626 168 14
31458 626 922 15
31459 626 515 82
31460 626 263 67
31461 626 871 67
31462 626 750 26
31463 626 4 3
31464 626 478 36
31465 626 869 46
31466 626 687 97
31467 626 701 47
31468 626 2 87
31469 626 984 68
31470 626 305 51
31471 626 716 43
31472 626 999 70
31473 626 791 100
31474 626 715 90
31475 626 973 22
31476 626 464 57
31477 626 242 40
31478 626 635 34
31479 626 413 23
31480 626 896 46
31481 626 518 43
31482 626 568 28
31483 626 348 12
31484 626 120 7
31485 626 350 86
31486 626 976 33
31487 626 69 33
31488 626 797 58
31489 626 65 46
31490 626 209 20
31491 626 921 42
31492 626 376 56
31493 626 909 92
31494 626 517 42
31495 626 18 14
31496 626 563 43
31497 627 492 54
31498 627 831 35
31499 627 572 23
31500 627 432 40
31501 627 851 82
31502 627 101 91
31503 627 703 46
31504 627 714 53
31505 627 520 51
31506 627 844 41
31507 627 584 83
31508 627 794 60
31509 627 26 99
31510 627 228 21
31511 627 757 85
31512 627 845 43
31513 627 706 52
31514 627 111 88
31515 627 931 15
31516 627 98 1
31517 627 405 80
31518 627 962 19
31519 627 283 46
31520 627 824 54
31521 627 502 48
31522 627 383 26
31523 627 892 3
31524 627 828 18
31525 627 461 80
31526 627 257 39
31527 627 379 100
31528 627 115 71
31529 627 542 63
31530 627 56 89
31531 627 333 39
31532 627 50 14
31533 627 885 92
31534 627 209 33
31535 627 31 73
31536 627 905 65
31537 627 77 47
31538 627 921 15
31539 627 194 29
31540 627 632 67
31541 627 404 82
31542 627 479 82
31543 627 686 62
31544 627 629 38
31545 627 176 83
31546 627 47 35
31547 627 493 54
31548 627 997 55
31549 627 507 97
31550 627 852 31
31551 627 458 15
31552 627 504 34
31553 627 131 39
31554 627 923 76
31555 627 920 13
31556 627 966 97
31557 627 68 93
31558 627 744 45
31559 628 790 54
31560 628 638 14
31561 628 519 73
31562 628 352 81
31563 628 359 2
31564 628 948 28
31565 628 987 84
31566 628 866 17
31567 628 697 48
31568 628 764 21
31569 628 806 41
31570 628 69 4
31571 628 3 6
31572 628 32 19
31573 628 739 3
31574 628 662 76
31575 628 705 8
31576 628 505 3
31577 628 63 44
31578 628 102 34
31579 628 867 93
31580 628 104 87
31581 628 950 98
31582 628 945 34
31583 628 685 99
31584 628 906 62
31585 628 695 36
31586 628 615 28
31587 628 961 99
31588 628 837 4
31589 628 820 51
31590 628 991 3
31591 628 45 26
31592 628 917 57
31593 628 181 49
31594 628 198 62
31595 628 356 42
31596 628 83 49
31597 628 493 76
31598 628 212 22
31599 628 80 59
31600 628 800 61
31601 628 568 27
31602 628 903 29
31603 628 342 80
31604 628 933 20
31605 629 617 35
31606 629 710 76
31607 629 232 30
31608 629 987 43
31609 629 903 23
31610 629 405 79
31611 629 225 59
31612 629 153 83
31613 629 534 96
31614 629 447 2
31615 629 773 61
31616 629 13 98
31617 629 493 65
31618 629 408 92
31619 629 212 22
31620 629 254 87
31621 629 39 30
31622 629 576 59
31623 629 108 9
31624 629 759 49
31625 629 975 57
31626 629 520 72
31627 629 434 41
31628 629 181 92
31629 629 53 39
31630 629 475 89
31631 629 326 81
31632 629 62 44
31633 629 946 48
31634 629 924 22
31635 629 874 13
31636 629 362 82
31637 629 846 74
31638 629 489 35
31639 629 482 4
31640 629 83 53
31641 629 561 39
31642 629 260 20
31643 629 666 38
31644 629 532 95
31645 629 400 76
31646 629 698 72
31647 629 19 95
31648 629 460 9
31649 629 164 2
31650 629 736 46
31651 629 869 9
31652 629 522 63
31653 629 547 40
31654 629 192 55
31655 629 442 34
31656 629 207 33
31657 629 626 15
31658 629 234 96
31659 629 619 30
31660 630 81 32
31661 630 826 5
31662 630 642 45
31663 630 117 29
31664 630 467 83
31665 630 870 4
31666 630 851 6
31667 630 989 67
31668 630 254 65
31669 630 64 74
31670 630 74 67
31671 630 105 10
31672 630 669 33
31673 630 806 71
31674 630 91 100
31675 630 808 27
31676 630 663 34
31677 630 850 31
31678 630 331 82
31679 630 476 3
31680 630 422 84
31681 630 356 51
31682 630 220 41
31683 630 350 94
31684 630 966 23
31685 630 248 37
31686 630 378 10
31687 630 376 90
31688 630 420 64
31689 630 67 64
31690 630 289 1
31691 630 432 87
31692 630 764 99
31693 630 787 42
31694 630 946 55
31695 630 499 12
31696 630 637 94
31697 630 363 65
31698 630 517 96
31699 630 954 63
31700 630 45 85
31701 630 930 90
31702 630 626 48
31703 630 691 71
31704 630 447 1
31705 630 650 39
31706 630 151 65
31707 630 245 74
31708 630 50 78
31709 630 405 34
31710 630 586 21
31711 630 391 25
31712 630 581 2
31713 630 992 24
31714 631 936 98
31715 631 632 65
31716 631 193 89
31717 631 854 46
31718 631 148 28
31719 631 629 16
31720 631 563 31
31721 631 348 39
31722 631 31 48
31723 631 84 51
31724 631 229 90
31725 631 846 21
31726 631 728 83
31727 631 240 84
31728 631 360 8
31729 631 649 3
31730 631 993 59
31731 631 608 96
31732 631 665 97
31733 631 460 23
31734 631 739 22
31735 631 6 46
31736 631 612 36
31737 631 489 79
31738 631 64 86
31739 631 121 100
31740 631 864 45
31741 631 123 22
31742 631 791 18
31743 631 277 62
31744 631 218 65
31745 631 832 6
31746 631 875 27
31747 631 533 39
31748 631 775 28
31749 631 126 100
31750 631 108 26
31751 631 378 27
31752 631 930 36
31753 631 341 69
31754 631 598 92
31755 631 640 19
31756 631 46 39
31757 631 735 9
31758 631 753 37
31759 631 13 89
31760 631 973 83
31761 631 325 59
31762 631 697 22
31763 631 861 57
31764 631 821 20
31765 631 984 32
31766 631 129 85
31767 631 473 32
31768 631 855 65
31769 631 384 82
31770 631 390 56
31771 631 319 29
31772 631 431 8
31773 632 20 80
31774 632 392 22
31775 632 974 44
31776 632 437 11
31777 632 152 89
31778 632 78 41
31779 632 177 27
31780 632 621 49
31781 632 498 68
31782 632 575 58
31783 632 295 87
31784 632 791 86
31785 632 921 84
31786 632 907 46
31787 632 366 35
31788 632 908 14
31789 632 486 55
31790 632 10 51
31791 632 849 74
31792 632 544 58
31793 632 882 71
31794 632 450 92
31795 632 553 47
31796 632 968 8
31797 632 935 22
31798 632 137 33
31799 632 824 93
31800 632 697 54
31801 632 6 1
31802 632 885 43
31803 632 520 1
31804 632 725 32
31805 632 699 16
31806 632 764 95
31807 632 951 72
31808 632 8 54
31809 632 308 92
31810 632 123 66
31811 632 213 3
31812 632 129 78
31813 632 501 42
31814 632 668 55
31815 632 967 100
31816 632 149 31
31817 632 940 84
31818 632 963 46
31819 632 634 79
31820 632 659 22
31821 632 576 95
31822 632 261 69
31823 632 302 16
31824 632 305 73
31825 632 214 21
31826 632 341 30
31827 632 952 56
31828 632 143 23
31829 632 784 5
31830 632 800 90
31831 632 650 41
31832 632 296 13
31833 633 899 78
31834 633 488 29
31835 633 63 27
31836 633 253 92
31837 633 765 92
31838 633 512 11
31839 633 160 96
31840 633 735 50
31841 633 604 96
31842 633 422 59
31843 633 922 11
31844 633 796 69
31845 633 570 9
31846 633 35 84
31847 633 890 68
31848 633 94 4
31849 633 503 60
31850 633 560 88
31851 633 939 49
31852 633 847 100
31853 633 924 82
31854 633 880 56
31855 633 454 80
31856 633 373 6
31857 633 948 76
31858 633 530 5
31859 633 426 60
31860 633 421 70
31861 633 258 57
31862 633 206 24
31863 633 270 46
31864 633 314 62
31865 633 580 42
31866 633 444 71
31867 633 333 76
31868 633 598 81
31869 633 138 99
31870 633 13 64
31871 633 712 60
31872 633 614 99
31873 633 555 88
31874 633 842 40
31875 634 731 46
31876 634 54 48
31877 634 292 9
31878 634 465 82
31879 634 784 14
31880 634 143 27
31881 634 416 13
31882 634 926 49
31883 634 98 37
31884 634 736 47
31885 634 681 41
31886 634 223 14
31887 634 393 74
31888 634 814 6
31889 634 756 80
31890 634 645 52
31891 634 715 46
31892 634 261 57
31893 634 417 49
31894 634 153 27
31895 634 68 44
31896 634 649 22
31897 634 479 88
31898 634 190 94
31899 634 646 94
31900 634 713 62
31901 634 159 49
31902 634 898 89
31903 634 581 40
31904 634 129 86
31905 634 426 81
31906 634 924 46
31907 634 282 86
31908 634 697 14
31909 634 366 4
31910 634 877 53
31911 634 133 12
31912 634 130 6
31913 634 102 19
31914 634 827 16
31915 634 641 89
31916 634 526 86
31917 634 165 24
31918 634 358 87
31919 634 240 99
31920 634 495 18
31921 634 679 61
31922 634 611 76
31923 635 922 4
31924 635 220 51
31925 635 553 45
31926 635 427 85
31927 635 772 54
31928 635 543 63
31929 635 227 4
31930 635 136 79
31931 635 378 91
31932 635 472 30
31933 635 879 8
31934 635 798 52
31935 635 67 29
31936 635 767 78
31937 635 377 84
31938 635 177 89
31939 635 651 33
31940 635 36 59
31941 635 470 83
31942 635 240 56
31943 635 382 63
31944 635 328 39
31945 635 344 77
31946 635 629 30
31947 635 254 71
31948 635 909 35
31949 635 573 38
31950 635 568 51
31951 635 356 46
31952 635 819 78
31953 635 669 89
31954 635 40 100
31955 635 503 84
31956 635 264 47
31957 635 326 6
31958 635 664 4
31959 635 221 47
31960 635 120 95
31961 635 773 8
31962 635 594 34
31963 635 307 3
31964 635 488 58
31965 635 556 85
31966 635 918 59
31967 635 205 39
31968 635 479 15
31969 635 6 57
31970 635 930 94
31971 635 18 33
31972 635 8 86
31973 635 898 58
31974 635 473 84
31975 636 579 28
31976 636 893 88
31977 636 105 10
31978 636 11 50
31979 636 185 22
31980 636 273 44
31981 636 191 70
31982 636 697 36
31983 636 436 85
31984 636 532 19
31985 636 565 49
31986 636 485 82
31987 636 245 29
31988 636 635 33
31989 636 379 56
31990 636 855 50
31991 636 814 25
31992 636 552 41
31993 636 684 9
31994 636 754 34
31995 636 261 42
31996 636 610 44
31997 636 331 95
31998 636 45 16
31999 636 818 86
32000 636 103 79
32001 636 895 12
32002 636 118 52
32003 636 125 73
32004 636 521 50
32005 636 662 75
32006 636 352 89
32007 637 443 39
32008 637 648 90
32009 637 96 84
32010 637 970 72
32011 637 512 78
32012 637 296 76
32013 637 711 57
32014 637 645 65
32015 637 29 16
32016 637 203 80
32017 637 956 85
32018 637 593 61
32019 637 13 33
32020 637 712 59
32021 637 168 58
32022 637 774 18
32023 637 725 72
32024 637 898 78
32025 637 770 29
32026 637 416 93
32027 637 340 90
32028 637 823 85
32029 637 548 32
32030 637 911 57
32031 637 654 70
32032 637 731 27
32033 637 925 47
32034 637 602 2
32035 637 78 33
32036 637 451 37
32037 637 57 27
32038 637 748 71
32039 637 271 75
32040 637 284 43
32041 637 206 40
32042 637 643 71
32043 637 134 12
32044 637 172 19
32045 637 376 12
32046 637 943 30
32047 637 544 1
32048 637 538 21
32049 637 640 44
32050 638 485 45
32051 638 269 60
32052 638 107 84
32053 638 286 40
32054 638 658 78
32055 638 88 47
32056 638 756 77
32057 638 387 17
32058 638 574 98
32059 638 801 15
32060 638 878 87
32061 638 784 64
32062 638 156 53
32063 638 34 45
32064 638 3 3
32065 638 524 5
32066 638 331 56
32067 638 265 74
32068 638 935 16
32069 638 201 36
32070 638 287 100
32071 638 481 55
32072 638 136 51
32073 638 180 67
32074 638 572 1
32075 638 789 82
32076 638 818 20
32077 638 172 34
32078 638 472 81
32079 638 31 58
32080 638 332 8
32081 638 535 56
32082 638 659 27
32083 638 63 4
32084 639 698 78
32085 639 49 28
32086 639 514 19
32087 639 53 99
32088 639 419 40
32089 639 620 21
32090 639 691 51
32091 639 517 19
32092 639 76 22
32093 639 212 19
32094 639 97 70
32095 639 477 17
32096 639 99 8
32097 639 214 72
32098 639 423 43
32099 639 907 57
32100 639 501 65
32101 639 717 29
32102 639 374 84
32103 639 438 80
32104 639 643 42
32105 639 361 89
32106 639 913 81
32107 639 921 43
32108 639 188 39
32109 639 992 12
32110 639 313 81
32111 639 87 29
32112 639 50 15
32113 639 42 40
32114 639 426 13
32115 639 149 46
32116 639 582 25
32117 639 957 90
32118 639 601 1
32119 639 834 24
32120 639 983 36
32121 639 86 68
32122 639 373 3
32123 639 765 86
32124 639 129 9
32125 639 425 39
32126 639 445 29
32127 640 465 52
32128 640 545 3
32129 640 829 60
32130 640 629 20
32131 640 927 34
32132 640 715 40
32133 640 73 93
32134 640 62 69
32135 640 248 44
32136 640 331 12
32137 640 189 30
32138 640 520 64
32139 640 900 87
32140 640 112 43
32141 640 593 17
32142 640 209 79
32143 640 388 90
32144 640 928 46
32145 640 121 46
32146 640 615 22
32147 640 649 86
32148 640 839 67
32149 640 491 28
32150 640 686 45
32151 640 5 82
32152 640 817 53
32153 640 946 20
32154 640 34 86
32155 640 256 66
32156 640 337 20
32157 640 644 38
32158 640 780 56
32159 640 59 64
32160 640 882 36
32161 640 522 10
32162 640 792 32
32163 640 332 90
32164 640 683 77
32165 640 29 82
32166 640 85 70
32167 640 755 52
32168 640 424 93
32169 640 0 70
32170 640 138 62
32171 640 581 12
32172 640 837 87
32173 640 357 77
32174 641 988 98
32175 641 500 25
32176 641 971 94
32177 641 189 5
32178 641 822 62
32179 641 377 82
32180 641 583 96
32181 641 473 80
32182 641 652 10
32183 641 171 99
32184 641 496 98
32185 641 755 50
32186 641 466 29
32187 641 474 31
32188 641 124 16
32189 641 623 10
32190 641 94 33
32191 641 162 81
32192 641 804 75
32193 641 577 85
32194 641 929 45
32195 641 677 47
32196 641 493 90
32197 641 44 6
32198 641 504 100
32199 641 334 53
32200 641 10 99
32201 641 193 20
32202 641 372 78
32203 641 531 19
32204 641 231 9
32205 641 400 43
32206 641 636 58
32207 641 795 10
32208 641 884 58
32209 641 432 79
32210 641 767 82
32211 641 78 85
32212 641 244 99
32213 641 342 90
32214 641 34 42
32215 641 989 20
32216 641 252 45
32217 641 284 15
32218 641 463 22
32219 641 524 51
32220 641 211 84
32221 641 302 51
32222 641 762 41
32223 642 288 92
32224 642 500 29
32225 642 645 29
32226 642 102 92
32227 642 260 19
32228 642 380 66
32229 642 75 72
32230 642 242 20
32231 642 710 72
32232 642 885 74
32233 642 194 90
32234 642 115 83
32235 642 258 13
32236 642 538 63
32237 642 60 38
32238 642 903 77
32239 642 846 55
32240 642 947 40
32241 642 233 3
32242 642 235 13
32243 642 132 11
32244 642 857 80
32245 642 942 56
32246 642 414 85
32247 642 769 43
32248 642 341 100
32249 642 893 36
32250 642 287 86
32251 642 516 36
32252 642 997 71
32253 642 616 37
32254 642 972 95
32255 642 689 10
32256 642 208 96
32257 642 643 84
32258 642 742 44
32259 642 38 90
32260 642 556 57
32261 642 967 38
32262 642 488 88
32263 642 539 58
32264 642 274 10
32265 642 305 53
32266 642 26 90
32267 642 478 41
32268 642 76 53
32269 642 345 11
32270 642 523 85
32271 642 840 73
32272 642 328 54
32273 642 203 82
32274 642 280 6
32275 642 256 51
32276 642 691 36
32277 642 466 99
32278 643 378 35
32279 643 979 59
32280 643 219 89
32281 643 153 88
32282 643 809 60
32283 643 850 37
32284 643 672 68
32285 643 722 53
32286 643 320 37
32287 643 490 24
32288 643 941 74
32289 643 540 48
32290 643 602 91
32291 643 78 52
32292 643 392 93
32293 643 840 45
32294 643 568 45
32295 643 143 78
32296 643 601 11
32297 643 543 53
32298 643 988 27
32299 643 388 34
32300 643 171 24
32301 643 120 49
32302 643 731 4
32303 643 506 96
32304 643 559 15
32305 643 115 53
32306 643 55 15
32307 643 483 6
32308 643 518 97
32309 643 8 47
32310 643 7 78
32311 643 549 41
32312 643 321 61
32313 643 60 61
32314 643 324 86
32315 643 116 24
32316 643 589 47
32317 643 773 5
32318 643 256 40
32319 643 359 59
32320 643 997 23
32321 643 74 25
32322 643 272 21
32323 643 375 86
32324 643 397 75
32325 643 123 5
32326 643 856 69
32327 643 561 58
32328 644 703 38
32329 644 853 1
32330 644 804 54
32331 644 942 65
32332 644 104 83
32333 644 424 44
32334 644 331 49
32335 644 548 30
32336 644 546 67
32337 644 461 64
32338 644 91 12
32339 644 827 57
32340 644 168 43
32341 644 814 17
32342 644 590 69
32343 644 162 9
32344 644 601 20
32345 644 433 55
32346 644 965 3
32347 644 256 50
32348 644 16 59
32349 644 374 1
32350 644 149 19
32351 644 743 66
32352 644 426 22
32353 644 906 12
32354 644 342 22
32355 644 611 100
32356 644 119 95
32357 644 24 45
32358 644 275 54
32359 644 821 60
32360 644 441 39
32361 644 105 29
32362 644 385 13
32363 644 930 25
32364 644 719 87
32365 644 232 97
32366 644 269 69
32367 644 729 34
32368 644 951 82
32369 644 487 35
32370 644 375 9
32371 645 702 61
32372 645 247 26
32373 645 646 85
32374 645 798 94
32375 645 332 72
32376 645 4 58
32377 645 365 25
32378 645 351 75
32379 645 517 82
32380 645 581 8
32381 645 150 77
32382 645 17 1
32383 645 215 13
32384 645 804 70
32385 645 527 91
32386 645 276 72
32387 645 906 4
32388 645 145 24
32389 645 734 90
32390 645 38 55
32391 645 175 4
32392 645 802 17
32393 645 174 82
32394 645 281 59
32395 645 852 44
32396 645 74 10
32397 645 25 42
32398 645 940 17
32399 645 815 10
32400 645 380 28
32401 645 413 23
32402 645 119 36
32403 645 491 4
32404 645 181 49
32405 645 627 34
32406 645 509 99
32407 645 448 47
32408 645 91 39
32409 645 54 26
32410 645 668 13
32411 645 447 95
32412 645 0 86
32413 645 774 32
32414 645 617 38
32415 645 706 80
32416 645 999 75
32417 645 381 67
32418 645 10 99
32419 645 701 100
32420 645 983 26
32421 645 42 24
32422 645 656 12
32423 646 377 30
32424 646 706 100
32425 646 976 54
32426 646 855 30
32427 646 310 80
32428 646 350 29
32429 646 370 72
32430 646 202 51
32431 646 225 98
32432 646 943 75
32433 646 246 7
32434 646 146 52
32435 646 988 56
32436 646 751 37
32437 646 537 43
32438 646 509 99
32439 646 562 91
32440 646 843 27
32441 646 431 72
32442 646 244 2
32443 646 282 48
32444 646 197 14
32445 646 238 11
32446 646 957 64
32447 646 653 85
32448 646 41 57
32449 646 155 50
32450 646 242 72
32451 646 890 41
32452 646 266 16
32453 646 108 81
32454 646 102 25
32455 646 639 7
32456 646 55 4
32457 646 595 71
32458 646 650 26
32459 646 644 14
32460 646 477 45
32461 646 120 49
32462 646 239 56
32463 646 9 14
32464 646 486 31
32465 646 13 91
32466 646 471 7
32467 646 388 39
32468 646 539 40
32469 646 447 96
32470 646 868 59
32471 646 383 42
32472 646 296 69
32473 646 309 1
32474 646 591 67
32475 646 49 87
32476 646 727 65
32477 647 592 45
32478 647 878 26
32479 647 840 83
32480 647 369 4
32481 647 713 50
32482 647 100 80
32483 647 269 77
32484 647 472 4
32485 647 319 28
32486 647 353 93
32487 647 866 3
32488 647 37 60
32489 647 906 83
32490 647 896 20
32491 647 557 6
32492 647 586 17
32493 647 618 38
32494 647 926 21
32495 647 192 54
32496 647 975 73
32497 647 701 16
32498 647 966 96
32499 647 7 36
32500 647 245 8
32501 647 177 74
32502 647 290 4
32503 647 315 50
32504 647 757 14
32505 647 122 43
32506 647 407 26
32507 647 858 61
32508 647 872 38
32509 647 171 75
32510 647 580 2
32511 647 748 42
32512 647 714 85
32513 647 911 73
32514 647 810 66
32515 647 710 65
32516 647 814 21
32517 647 800 90
32518 647 742 15
32519 647 53 48
32520 647 277 29
32521 647 36 44
32522 647 83 57
32523 647 416 20
32524 647 242 43
32525 647 23 75
32526 647 446 15
32527 647 916 81
32528 647 20 43
32529 647 551 98
32530 647 228 61
32531 647 855 53
32532 648 445 96
32533 648 64 56
32534 648 168 46
32535 648 864 97
32536 648 538 99
32537 648 634 52
32538 648 47 99
32539 648 442 79
32540 648 566 63
32541 648 886 30
32542 648 785 87
32543 648 194 24
32544 648 55 99
32545 648 503 19
32546 648 54 13
32547 648 595 74
32548 648 72 28
32549 648 756 21
32550 648 960 86
32551 648 60 46
32552 648 710 78
32553 648 269 93
32554 648 446 21
32555 648 901 2
32556 648 405 96
32557 648 89 86
32558 648 896 53
32559 648 495 72
32560 648 499 76
32561 648 778 98
32562 648 959 36
32563 648 428 92
32564 648 292 33
32565 648 298 64
32566 648 267 92
32567 648 646 57
32568 648 8 52
32569 648 981 73
32570 648 37 46
32571 648 885 1
32572 648 316 100
32573 648 363 56
32574 648 99 95
32575 648 893 67
32576 648 586 75
32577 648 505 44
32578 648 690 79
32579 648 561 44
32580 648 660 83
32581 648 53 89
32582 648 923 22
32583 648 404 99
32584 648 40 84
32585 648 288 90
32586 648 621 98
32587 648 332 82
32588 648 631 54
32589 649 15 33
32590 649 886 54
32591 649 931 74
32592 649 820 20
32593 649 696 99
32594 649 101 42
32595 649 354 37
32596 649 63 80
32597 649 808 34
32598 649 912 21
32599 649 51 30
32600 649 926 81
32601 649 223 41
32602 649 97 68
32603 649 657 20
32604 649 158 98
32605 649 33 43
32606 649 24 80
32607 649 513 12
32608 649 602 28
32609 649 723 15
32610 649 253 82
32611 649 490 8
32612 649 554 74
32613 649 305 88
32614 649 3 45
32615 649 318 83
32616 649 864 62
32617 649 703 53
32618 649 260 20
32619 649 522 75
32620 649 263 14
32621 649 92 1
32622 649 986 15
32623 649 415 78
32624 649 858 30
32625 649 470 15
32626 649 948 12
32627 649 191 68
32628 649 436 44
32629 649 334 14
32630 649 516 49
32631 649 176 15
32632 649 549 53
32633 649 623 44
32634 649 373 21
32635 649 27 82
32636 649 75 83
32637 649 701 10
32638 649 125 26
32639 649 505 41
32640 649 66 4
32641 649 280 34
32642 649 139 74
32643 649 637 59
32644 649 937 7
32645 650 262 36
32646 650 27 32
32647 650 947 61
32648 650 908 32
32649 650 755 72
32650 650 643 58
32651 650 617 81
32652 650 449 61
32653 650 464 68
32654 650 837 80
32655 650 613 61
32656 650 519 99
32657 650 818 55
32658 650 925 100
32659 650 119 84
32660 650 625 66
32661 650 334 43
32662 650 245 60
32663 650 569 22
32664 650 621 68
32665 650 332 17
32666 650 221 18
32667 650 744 35
32668 650 618 7
32669 650 121 52
32670 650 558 82
32671 650 209 38
32672 650 15 80
32673 650 906 53
32674 650 317 21
32675 650 64 93
32676 650 961 20
32677 650 126 28
32678 650 497 43
32679 650 852 4
32680 650 862 21
32681 650 283 70
32682 650 941 16
32683 650 107 48
32684 650 163 6
32685 650 847 52
32686 650 416 74
32687 650 296 24
32688 650 244 44
32689 650 611 46
32690 651 310 55
32691 651 708 80
32692 651 754 18
32693 651 552 37
32694 651 272 99
32695 651 87 53
32696 651 955 8
32697 651 466 37
32698 651 311 17
32699 651 627 66
32700 651 616 88
32701 651 727 100
32702 651 247 14
32703 651 449 61
32704 651 450 30
32705 651 826 54
32706 651 379 44
32707 651 772 61
32708 651 100 85
32709 651 564 53
32710 651 277 41
32711 651 301 90
32712 651 345 39
32713 651 149 66
32714 651 40 79
32715 651 152 74
32716 651 22 52
32717 651 975 30
32718 651 47 2
32719 651 954 16
32720 651 36 18
32721 651 136 65
32722 651 261 20
32723 651 960 26
32724 651 480 65
32725 651 376 17
32726 651 629 54
32727 651 384 40
32728 651 864 18
32729 651 559 52
32730 651 940 90
32731 651 644 93
32732 651 604 49
32733 651 477 3
32734 651 344 80
32735 651 599 11
32736 651 932 61
32737 651 776 26
32738 651 938 19
32739 651 774 78
32740 651 244 97
32741 651 360 100
32742 651 588 29
32743 651 292 97
32744 651 581 96
32745 651 639 9
32746 651 215 35
32747 652 425 8
32748 652 819 42
32749 652 743 19
32750 652 894 18
32751 652 753 55
32752 652 451 85
32753 652 784 22
32754 652 241 35
32755 652 942 24
32756 652 835 29
32757 652 758 1
32758 652 360 100
32759 652 86 20
32760 652 225 44
32761 652 34 17
32762 652 416 2
32763 652 703 91
32764 652 460 43
32765 652 910 92
32766 652 796 87
32767 652 679 27
32768 652 849 42
32769 652 699 20
32770 652 540 57
32771 652 575 22
32772 652 195 1
32773 652 60 64
32774 652 977 74
32775 652 184 76
32776 652 526 38
32777 652 103 25
32778 652 682 22
32779 652 50 88
32780 652 141 13
32781 652 798 3
32782 652 223 87
32783 652 738 90
32784 652 144 40
32785 652 6 34
32786 652 131 94
32787 652 757 64
32788 652 842 90
32789 652 554 17
32790 652 311 71
32791 652 934 45
32792 652 98 30
32793 652 506 73
32794 652 919 99
32795 652 893 19
32796 652 854 98
32797 652 951 69
32798 652 62 29
32799 652 860 9
32800 652 391 7
32801 652 904 91
32802 652 580 46
32803 652 501 80
32804 652 592 58
32805 652 334 57
32806 653 989 100
32807 653 753 60
32808 653 119 15
32809 653 597 64
32810 653 776 25
32811 653 181 81
32812 653 790 75
32813 653 530 8
32814 653 380 49
32815 653 499 21
32816 653 850 74
32817 653 774 15
32818 653 886 35
32819 653 867 23
32820 653 799 62
32821 653 599 54
32822 653 291 41
32823 653 656 48
32824 653 708 77
32825 653 922 98
32826 653 8 67
32827 653 906 96
32828 653 106 66
32829 653 52 99
32830 653 531 95
32831 653 831 94
32832 653 425 79
32833 653 43 63
32834 653 154 27
32835 653 217 56
32836 653 59 37
32837 653 534 23
32838 653 498 48
32839 653 294 86
32840 653 698 10
32841 653 665 75
32842 653 307 8
32843 653 999 85
32844 653 647 14
32845 653 828 39
32846 653 240 7
32847 653 281 91
32848 653 555 100
32849 653 547 8
32850 653 5 4
32851 653 66 76
32852 653 321 37
32853 653 553 85
32854 654 421 10
32855 654 968 56
32856 654 635 24
32857 654 818 79
32858 654 320 4
32859 654 406 67
32860 654 419 22
32861 654 955 88
32862 654 214 27
32863 654 524 82
32864 654 347 72
32865 654 581 85
32866 654 607 40
32867 654 769 97
32868 654 616 18
32869 654 783 89
32870 654 95 47
32871 654 961 55
32872 654 236 92
32873 654 698 90
32874 654 443 70
32875 654 789 11
32876 654 6 98
32877 654 242 78
32878 654 588 45
32879 654 917 26
32880 654 977 42
32881 654 168 17
32882 654 106 26
32883 654 882 100
32884 654 962 9
32885 654 702 78
32886 654 657 26
32887 654 790 8
32888 654 438 71
32889 654 325 75
32890 654 346 72
32891 654 460 100
32892 654 392 52
32893 654 722 88
32894 654 946 44
32895 654 925 97
32896 654 32 17
32897 654 489 43
32898 654 139 9
32899 654 147 24
32900 654 44 93
32901 654 238 6
32902 654 840 42
32903 654 503 44
32904 654 434 91
32905 654 213 55
32906 654 68 79
32907 654 352 73
32908 654 966 83
32909 654 9 33
32910 654 265 21
32911 654 832 70
32912 654 911 79
32913 654 114 74
32914 654 239 33
32915 654 493 67
32916 654 584 44
32917 654 59 48
32918 655 131 72
32919 655 589 69
32920 655 288 65
32921 655 796 9
32922 655 694 50
32923 655 611 60
32924 655 957 1
32925 655 908 37
32926 655 488 35
32927 655 964 14
32928 655 941 23
32929 655 180 68
32930 655 76 54
32931 655 338 88
32932 655 346 64
32933 655 907 52
32934 655 406 11
32935 655 344 48
32936 655 298 95
32937 655 319 71
32938 655 290 31
32939 655 586 81
32940 655 738 39
32941 655 732 89
32942 655 263 72
32943 655 492 9
32944 655 237 18
32945 655 968 51
32946 655 78 71
32947 655 919 43
32948 655 658 82
32949 655 219 99
32950 655 520 33
32951 655 898 77
32952 655 758 81
32953 655 339 23
32954 655 864 79
32955 655 147 93
32956 655 407 62
32957 655 513 95
32958 655 695 24
32959 655 432 88
32960 655 648 67
32961 655 212 75
32962 655 949 24
32963 655 22 62
32964 655 98 63
32965 655 86 79
32966 655 396 17
32967 655 884 45
32968 655 264 4
32969 655 800 8
32970 655 224 25
32971 655 853 12
32972 655 236 29
32973 655 128 48
32974 656 141 19
32975 656 892 65
32976 656 378 78
32977 656 742 47
32978 656 759 24
32979 656 692 25
32980 656 856 94
32981 656 537 73
32982 656 432 32
32983 656 341 64
32984 656 200 40
32985 656 351 59
32986 656 652 74
32987 656 26 21
32988 656 50 5
32989 656 966 54
32990 656 539 11
32991 656 552 81
32992 656 560 25
32993 656 207 43
32994 656 908 7
32995 656 310 45
32996 656 900 60
32997 656 355 20
32998 656 233 39
32999 656 472 25
33000 656 171 33
33001 656 929 24
33002 656 379 79
33003 656 395 15
33004 656 478 35
33005 656 844 20
33006 656 131 61
33007 656 888 65
33008 656 576 39
33009 656 312 57
33010 656 633 18
33011 656 550 50
33012 656 184 79
33013 656 116 4
33014 656 991 68
33015 656 622 83
33016 656 388 18
33017 656 968 61
33018 656 253 71
33019 656 479 42
33020 656 862 84
33021 656 483 78
33022 656 167 60
33023 656 793 99
33024 656 294 56
33025 656 1 35
33026 657 324 48
33027 657 209 91
33028 657 795 49
33029 657 887 50
33030 657 637 22
33031 657 990 61
33032 657 292 89
33033 657 417 85
33034 657 297 57
33035 657 58 47
33036 657 278 46
33037 657 136 32
33038 657 175 83
33039 657 319 81
33040 657 226 2
33041 657 736 83
33042 657 88 61
33043 657 963 41
33044 657 619 45
33045 657 607 91
33046 657 819 38
33047 657 860 12
33048 657 510 43
33049 657 888 72
33050 657 710 50
33051 657 784 24
33052 657 462 11
33053 657 787 1
33054 657 582 22
33055 657 758 87
33056 657 764 13
33057 657 527 59
33058 657 234 72
33059 657 99 55
33060 657 331 18
33061 657 141 44
33062 657 696 90
33063 657 973 83
33064 657 832 86
33065 657 508 45
33066 657 45 10
33067 657 380 94
33068 658 769 48
33069 658 533 54
33070 658 942 31
33071 658 586 94
33072 658 84 55
33073 658 779 28
33074 658 187 52
33075 658 149 88
33076 658 969 88
33077 658 82 36
33078 658 904 24
33079 658 513 1
33080 658 292 82
33081 658 709 51
33082 658 336 74
33083 658 167 53
33084 658 104 14
33085 658 853 74
33086 658 700 21
33087 658 352 57
33088 658 238 74
33089 658 438 48
33090 658 428 56
33091 658 531 18
33092 658 262 88
33093 658 50 38
33094 658 855 5
33095 658 56 58
33096 658 570 98
33097 658 716 45
33098 658 317 6
33099 658 44 44
33100 658 916 31
33101 658 190 7
33102 658 447 48
33103 658 373 66
33104 658 244 44
33105 658 32 72
33106 658 63 46
33107 658 893 18
33108 658 21 82
33109 658 34 57
33110 658 61 30
33111 658 255 92
33112 658 382 21
33113 658 657 15
33114 658 464 63
33115 658 668 22
33116 658 642 54
33117 658 628 77
33118 658 306 10
33119 658 260 26
33120 658 744 87
33121 658 996 9
33122 658 731 86
33123 658 385 26
33124 658 158 7
33125 658 489 5
33126 659 801 71
33127 659 565 40
33128 659 187 41
33129 659 47 32
33130 659 545 6
33131 659 159 95
33132 659 589 15
33133 659 811 8
33134 659 737 83
33135 659 591 36
33136 659 633 14
33137 659 246 21
33138 659 172 58
33139 659 519 14
33140 659 781 39
33141 659 753 21
33142 659 642 53
33143 659 762 35
33144 659 631 82
33145 659 606 71
33146 659 734 51
33147 659 265 92
33148 659 426 89
33149 659 350 77
33150 659 262 62
33151 659 116 93
33152 659 564 50
33153 659 576 54
33154 659 64 22
33155 659 508 56
33156 659 704 79
33157 659 469 4
33158 659 569 3
33159 659 114 15
33160 659 587 100
33161 659 378 23
33162 659 271 47
33163 659 796 71
33164 659 840 94
33165 659 140 19
33166 659 922 89
33167 659 237 76
33168 659 97 1
33169 659 726 40
33170 659 185 61
33171 659 467 78
33172 660 997 55
33173 660 758 38
33174 660 663 17
33175 660 810 55
33176 660 26 47
33177 660 774 68
33178 660 10 51
33179 660 292 46
33180 660 606 56
33181 660 385 84
33182 660 364 61
33183 660 40 44
33184 660 862 4
33185 660 829 83
33186 660 347 36
33187 660 846 29
33188 660 321 19
33189 660 290 70
33190 660 817 72
33191 660 281 9
33192 660 263 13
33193 660 429 92
33194 660 767 37
33195 660 33 34
33196 660 860 59
33197 660 187 29
33198 660 667 19
33199 660 377 85
33200 660 387 55
33201 660 954 8
33202 660 861 83
33203 660 716 5
33204 660 100 34
33205 660 452 49
33206 660 615 34
33207 660 233 58
33208 660 917 57
33209 660 645 100
33210 660 648 82
33211 660 870 12
33212 660 650 65
33213 660 91 79
33214 660 254 92
33215 660 457 65
33216 661 576 5
33217 661 856 64
33218 661 486 46
33219 661 802 91
33220 661 622 38
33221 661 268 16
33222 661 495 99
33223 661 539 77
33224 661 833 27
33225 661 118 87
33226 661 758 93
33227 661 864 34
33228 661 795 28
33229 661 136 51
33230 661 944 26
33231 661 910 50
33232 661 389 87
33233 661 886 9
33234 661 917 40
33235 661 85 94
33236 661 278 76
33237 661 492 44
33238 661 301 50
33239 661 586 68
33240 661 319 95
33241 661 16 56
33242 661 24 72
33243 661 151 28
33244 661 823 30
33245 661 449 29
33246 661 373 34
33247 661 642 100
33248 661 678 15
33249 661 505 29
33250 661 513 42
33251 661 74 83
33252 661 924 71
33253 661 624 15
33254 661 273 90
33255 661 946 78
33256 661 726 42
33257 661 993 69
33258 661 106 43
33259 661 481 38
33260 661 341 58
33261 661 14 76
33262 661 682 89
33263 661 987 14
33264 661 604 49
33265 661 653 83
33266 661 849 17
33267 662 218 88
33268 662 776 27
33269 662 333 46
33270 662 214 93
33271 662 524 63
33272 662 155 28
33273 662 288 15
33274 662 996 74
33275 662 522 98
33276 662 376 13
33277 662 971 37
33278 662 224 74
33279 662 727 87
33280 662 557 38
33281 662 156 97
33282 662 852 31
33283 662 187 8
33284 662 247 25
33285 662 858 36
33286 662 248 50
33287 662 974 28
33288 662 865 63
33289 662 815 87
33290 662 276 32
33291 662 620 44
33292 662 351 22
33293 662 535 100
33294 662 109 48
33295 662 18 44
33296 662 862 8
33297 662 542 9
33298 662 885 98
33299 662 915 17
33300 662 242 76
33301 662 36 57
33302 662 679 35
33303 662 426 49
33304 662 944 71
33305 662 565 91
33306 662 105 52
33307 662 65 82
33308 663 60 83
33309 663 521 94
33310 663 664 88
33311 663 764 4
33312 663 134 48
33313 663 195 83
33314 663 688 89
33315 663 513 35
33316 663 299 54
33317 663 200 90
33318 663 586 34
33319 663 375 38
33320 663 662 32
33321 663 112 79
33322 663 575 47
33323 663 874 52
33324 663 900 38
33325 663 306 80
33326 663 243 73
33327 663 963 40
33328 663 859 35
33329 663 731 11
33330 663 399 87
33331 663 865 13
33332 663 119 48
33333 663 836 17
33334 663 509 65
33335 663 101 81
33336 663 613 83
33337 663 784 2
33338 663 893 89
33339 663 627 78
33340 663 327 42
33341 663 114 31
33342 663 847 47
33343 663 430 28
33344 663 817 70
33345 663 203 24
33346 663 790 86
33347 663 967 51
33348 663 626 72
33349 663 232 63
33350 663 922 51
33351 663 93 84
33352 663 561 59
33353 664 479 99
33354 664 208 36
33355 664 53 15
33356 664 970 73
33357 664 764 74
33358 664 631 52
33359 664 451 83
33360 664 909 11
33361 664 167 20
33362 664 204 69
33363 664 110 45
33364 664 723 62
33365 664 221 87
33366 664 796 15
33367 664 960 31
33368 664 681 82
33369 664 633 68
33370 664 275 11
33371 664 366 85
33372 664 274 34
33373 664 747 34
33374 664 160 20
33375 664 893 1
33376 664 245 61
33377 664 147 99
33378 664 89 20
33379 664 641 15
33380 664 321 11
33381 664 717 56
33382 664 947 1
33383 664 439 85
33384 664 268 41
33385 664 601 76
33386 664 916 42
33387 664 91 37
33388 664 44 10
33389 664 495 82
33390 664 534 73
33391 664 928 37
33392 664 77 41
33393 664 251 42
33394 664 762 52
33395 664 943 13
33396 664 190 71
33397 664 714 69
33398 664 126 95
33399 664 228 96
33400 664 99 71
33401 664 65 61
33402 664 259 26
33403 664 622 29
33404 664 524 32
33405 665 697 33
33406 665 805 50
33407 665 433 19
33408 665 717 40
33409 665 653 6
33410 665 791 78
33411 665 853 84
33412 665 39 60
33413 665 939 83
33414 665 83 3
33415 665 202 70
33416 665 742 62
33417 665 694 59
33418 665 91 42
33419 665 435 96
33420 665 686 75
33421 665 340 11
33422 665 814 34
33423 665 174 9
33424 665 574 93
33425 665 287 76
33426 665 474 94
33427 665 549 48
33428 665 45 74
33429 665 76 12
33430 665 892 29
33431 665 871 76
33432 665 893 65
33433 665 353 43
33434 665 994 5
33435 665 130 84
33436 665 940 74
33437 665 954 38
33438 665 839 64
33439 665 203 68
33440 665 313 86
33441 665 48 66
33442 665 137 10
33443 665 986 22
33444 665 565 89
33445 665 620 10
33446 666 147 98
33447 666 602 12
33448 666 862 39
33449 666 586 87
33450 666 880 33
33451 666 234 35
33452 666 368 13
33453 666 115 94
33454 666 13 12
33455 666 923 69
33456 666 753 97
33457 666 775 6
33458 666 728 100
33459 666 599 54
33460 666 210 36
33461 666 298 26
33462 666 639 13
33463 666 174 51
33464 666 573 32
33465 666 454 58
33466 666 392 55
33467 666 79 90
33468 666 277 16
33469 666 366 18
33470 666 80 52
33471 666 220 71
33472 666 160 25
33473 666 279 17
33474 666 692 55
33475 666 900 14
33476 666 494 27
33477 666 668 44
33478 666 894 64
33479 666 81 74
33480 666 502 18
33481 667 121 67
33482 667 391 7
33483 667 82 88
33484 667 909 4
33485 667 920 72
33486 667 584 23
33487 667 891 10
33488 667 828 33
33489 667 649 40
33490 667 220 52
33491 667 327 30
33492 667 442 71
33493 667 501 95
33494 667 383 60
33495 667 971 27
33496 667 81 100
33497 667 573 73
33498 667 658 54
33499 667 825 45
33500 667 530 35
33501 667 356 81
33502 667 22 30
33503 667 86 30
33504 667 641 66
33505 667 540 79
33506 667 429 9
33507 667 123 21
33508 667 780 38
33509 667 130 76
33510 667 334 63
33511 667 527 77
33512 667 651 17
33513 667 857 5
33514 667 145 72
33515 667 594 79
33516 667 281 47
33517 667 951 89
33518 667 957 46
33519 667 986 56
33520 667 351 26
33521 667 397 79
33522 667 506 5
33523 667 38 77
33524 667 590 4
33525 667 446 88
33526 668 80 14
33527 668 236 79
33528 668 375 63
33529 668 767 76
33530 668 457 90
33531 668 787 61
33532 668 310 28
33533 668 834 59
33534 668 969 62
33535 668 143 61
33536 668 480 60
33537 668 110 19
33538 668 38 20
33539 668 358 53
33540 668 444 7
33541 668 409 82
33542 668 931 72
33543 668 901 68
33544 668 785 62
33545 668 415 24
33546 668 800 83
33547 668 81 83
33548 668 373 100
33549 668 273 69
33550 668 647 36
33551 668 476 64
33552 668 951 39
33553 668 369 37
33554 668 567 45
33555 668 603 8
33556 668 276 60
33557 668 311 86
33558 668 416 41
33559 668 942 86
33560 668 459 44
33561 668 243 81
33562 668 687 31
33563 668 718 95
33564 668 324 70
33565 668 228 93
33566 668 586 24
33567 668 215 81
33568 668 322 17
33569 668 696 22
33570 668 235 19
33571 668 470 57
33572 668 434 62
33573 668 976 80
33574 668 353 90
33575 668 577 94
33576 668 268 20
33577 668 657 6
33578 669 567 82
33579 669 715 1
33580 669 591 53
33581 669 731 52
33582 669 437 26
33583 669 409 29
33584 669 330 23
33585 669 827 74
33586 669 290 47
33587 669 120 91
33588 669 965 80
33589 669 124 59
33590 669 679 16
33591 669 107 59
33592 669 253 100
33593 669 635 77
33594 669 782 92
33595 669 688 3
33596 669 36 91
33597 669 810 99
33598 669 232 84
33599 669 844 47
33600 669 703 53
33601 669 716 40
33602 669 217 38
33603 669 905 81
33604 669 971 71
33605 669 328 6
33606 669 559 49
33607 669 27 17
33608 669 84 99
33609 669 745 100
33610 669 32 68
33611 669 940 73
33612 669 702 61
33613 669 139 6
33614 669 571 97
33615 669 362 86
33616 669 524 47
33617 669 444 18
33618 669 655 62
33619 669 608 93
33620 669 575 14
33621 669 713 76
33622 669 821 12
33623 669 621 80
33624 669 100 96
33625 670 748 45
33626 670 449 57
33627 670 972 87
33628 670 923 57
33629 670 112 38
33630 670 692 69
33631 670 685 11
33632 670 399 9
33633 670 320 18
33634 670 521 89
33635 670 522 6
33636 670 632 72
33637 670 711 41
33638 670 693 59
33639 670 452 34
33640 670 708 68
33641 670 538 36
33642 670 132 70
33643 670 239 48
33644 670 167 37
33645 670 576 1
33646 670 343 7
33647 670 175 82
33648 670 909 38
33649 670 637 93
33650 670 870 70
33651 670 497 86
33652 670 22 32
33653 670 475 74
33654 670 185 23
33655 670 561 73
33656 670 680 61
33657 670 354 88
33658 670 677 37
33659 670 310 13
33660 670 971 41
33661 670 537 69
33662 670 193 9
33663 670 113 79
33664 670 264 8
33665 670 671 45
33666 670 745 3
33667 670 673 95
33668 670 86 18
33669 670 85 90
33670 670 473 30
33671 670 503 18
33672 670 222 88
33673 670 269 4
33674 670 702 80
33675 670 24 44
33676 670 280 66
33677 670 862 8
33678 670 434 87
33679 670 785 46
33680 670 358 49
33681 670 159 92
33682 671 469 62
33683 671 74 9
33684 671 917 8
33685 671 679 98
33686 671 344 91
33687 671 975 53
33688 671 18 64
33689 671 184 100
33690 671 652 86
33691 671 673 8
33692 671 675 54
33693 671 745 83
33694 671 286 55
33695 671 22 24
33696 671 91 72
33697 671 432 3
33698 671 226 22
33699 671 75 23
33700 671 536 1
33701 671 700 79
33702 671 334 70
33703 671 280 3
33704 671 930 9
33705 671 260 22
33706 671 766 7
33707 671 10 63
33708 671 999 55
33709 671 45 95
33710 671 383 85
33711 671 337 40
33712 671 805 76
33713 671 137 59
33714 671 95 58
33715 671 439 37
33716 671 625 75
33717 671 240 41
33718 671 293 20
33719 671 389 27
33720 671 147 59
33721 671 590 78
33722 671 394 26
33723 671 842 3
33724 671 852 63
33725 671 820 94
33726 671 66 25
33727 671 346 44
33728 671 602 66
33729 671 806 43
33730 671 422 50
33731 671 545 43
33732 671 520 70
33733 672 154 34
33734 672 392 62
33735 672 695 66
33736 672 307 73
33737 672 841 32
33738 672 267 47
33739 672 965 29
33740 672 623 68
33741 672 938 90
33742 672 702 33
33743 672 804 36
33744 672 402 67
33745 672 232 26
33746 672 862 25
33747 672 893 78
33748 672 662 16
33749 672 579 39
33750 672 739 71
33751 672 367 55
33752 672 418 88
33753 672 218 89
33754 672 128 38
33755 672 463 20
33756 672 346 90
33757 672 612 39
33758 672 282 46
33759 672 590 20
33760 672 5 76
33761 672 801 66
33762 672 865 35
33763 672 610 94
33764 672 360 1
33765 672 137 15
33766 672 488 82
33767 672 431 64
33768 672 95 93
33769 672 63 69
33770 672 554 95
33771 672 493 52
33772 672 43 48
33773 672 591 37
33774 672 1 18
33775 672 265 40
33776 672 480 81
33777 672 867 28
33778 672 832 56
33779 672 597 68
33780 672 101 2
33781 672 499 35
33782 672 119 90
33783 672 452 89
33784 672 853 72
33785 672 918 93
33786 672 808 14
33787 672 10 58
33788 672 980 10
33789 672 160 84
33790 673 343 31
33791 673 431 29
33792 673 45 64
33793 673 796 97
33794 673 325 9
33795 673 371 98
33796 673 342 60
33797 673 171 17
33798 673 10 12
33799 673 388 35
33800 673 679 85
33801 673 111 11
33802 673 736 28
33803 673 319 91
33804 673 682 2
33805 673 480 3
33806 673 117 34
33807 673 114 31
33808 673 897 95
33809 673 193 35
33810 673 872 80
33811 673 519 10
33812 673 834 77
33813 673 35 85
33814 673 914 1
33815 673 292 31
33816 673 390 29
33817 673 726 44
33818 673 62 40
33819 673 583 73
33820 673 477 82
33821 673 668 5
33822 673 417 50
33823 673 627 99
33824 673 900 51
33825 673 752 19
33826 673 415 98
33827 673 691 73
33828 673 875 50
33829 673 162 32
33830 673 252 1
33831 673 926 65
33832 674 945 76
33833 674 469 92
33834 674 524 1
33835 674 12 73
33836 674 370 91
33837 674 160 39
33838 674 792 12
33839 674 290 6
33840 674 896 82
33841 674 910 31
33842 674 418 38
33843 674 841 2
33844 674 263 70
33845 674 946 18
33846 674 443 98
33847 674 267 52
33848 674 205 33
33849 674 146 86
33850 674 937 38
33851 674 522 44
33852 674 186 51
33853 674 428 79
33854 674 979 35
33855 674 596 33
33856 674 359 25
33857 674 447 10
33858 674 574 18
33859 674 65 4
33860 674 866 31
33861 674 503 30
33862 674 996 56
33863 674 84 88
33864 674 754 50
33865 674 29 80
33866 674 960 91
33867 674 415 32
33868 674 96 13
33869 674 634 53
33870 674 311 22
33871 674 911 73
33872 674 282 27
33873 674 618 76
33874 674 868 93
33875 674 409 79
33876 674 122 73
33877 674 303 17
33878 675 504 13
33879 675 779 47
33880 675 774 68
33881 675 42 47
33882 675 611 55
33883 675 581 39
33884 675 485 49
33885 675 316 91
33886 675 480 96
33887 675 329 5
33888 675 186 96
33889 675 601 26
33890 675 129 90
33891 675 203 41
33892 675 688 11
33893 675 428 80
33894 675 17 14
33895 675 677 76
33896 675 15 35
33897 675 673 55
33898 675 519 58
33899 675 333 28
33900 675 724 50
33901 675 870 55
33902 675 97 80
33903 675 572 29
33904 675 763 94
33905 675 440 94
33906 675 652 7
33907 675 144 66
33908 675 145 47
33909 675 155 3
33910 675 165 17
33911 675 399 7
33912 675 596 86
33913 675 770 54
33914 675 873 46
33915 675 268 82
33916 675 381 87
33917 675 340 29
33918 675 243 81
33919 675 369 59
33920 675 267 100
33921 675 972 84
33922 676 445 85
33923 676 987 39
33924 676 287 99
33925 676 493 19
33926 676 585 6
33927 676 359 67
33928 676 526 31
33929 676 983 71
33930 676 978 6
33931 676 646 78
33932 676 265 74
33933 676 191 50
33934 676 339 68
33935 676 469 56
33936 676 876 77
33937 676 102 7
33938 676 172 4
33939 676 995 78
33940 676 378 45
33941 676 500 95
33942 676 976 69
33943 676 853 28
33944 676 681 75
33945 676 127 70
33946 676 316 8
33947 676 569 59
33948 676 942 12
33949 676 534 56
33950 676 665 85
33951 676 503 23
33952 676 653 5
33953 676 396 4
33954 676 687 43
33955 676 530 29
33956 676 358 76
33957 676 920 65
33958 676 965 93
33959 676 168 26
33960 676 699 68
33961 676 815 13
33962 676 936 87
33963 676 801 24
33964 676 169 81
33965 676 735 61
33966 676 701 63
33967 676 786 65
33968 676 15 55
33969 676 242 11
33970 676 809 3
33971 676 380 88
33972 676 531 28
33973 676 190 54
33974 676 70 12
33975 676 696 39
33976 676 48 70
33977 676 638 11
33978 676 228 26
33979 677 795 52
33980 677 167 38
33981 677 702 39
33982 677 943 63
33983 677 442 30
33984 677 380 79
33985 677 872 65
33986 677 636 18
33987 677 493 49
33988 677 478 6
33989 677 629 18
33990 677 491 11
33991 677 315 97
33992 677 15 18
33993 677 499 7
33994 677 572 29
33995 677 361 10
33996 677 665 8
33997 677 176 97
33998 677 484 70
33999 677 987 99
34000 677 362 35
34001 677 26 48
34002 677 900 73
34003 677 919 16
34004 677 675 65
34005 677 971 89
34006 677 271 75
34007 677 705 13
34008 677 615 2
34009 677 183 8
34010 677 186 93
34011 677 389 39
34012 677 135 56
34013 677 247 1
34014 677 149 38
34015 677 546 95
34016 677 892 40
34017 677 206 86
34018 678 400 96
34019 678 72 13
34020 678 426 75
34021 678 366 62
34022 678 45 15
34023 678 997 97
34024 678 846 95
34025 678 836 61
34026 678 930 12
34027 678 455 14
34028 678 388 92
34029 678 187 76
34030 678 803 19
34031 678 447 25
34032 678 423 73
34033 678 977 40
34034 678 775 54
34035 678 952 15
34036 678 972 34
34037 678 406 95
34038 678 365 55
34039 678 798 86
34040 678 219 48
34041 678 287 55
34042 678 713 60
34043 678 560 41
34044 678 326 3
34045 678 347 9
34046 678 152 64
34047 678 188 68
34048 678 42 34
34049 678 725 66
34050 678 716 54
34051 678 486 10
34052 678 393 17
34053 678 101 97
34054 678 154 29
34055 678 199 46
34056 678 824 37
34057 678 417 96
34058 678 969 60
34059 678 520 29
34060 678 93 98
34061 678 865 93
34062 678 573 80
34063 678 889 31
34064 678 967 58
34065 678 899 10
34066 678 946 96
34067 678 850 79
34068 679 494 32
34069 679 390 73
34070 679 638 23
34071 679 959 25
34072 679 532 55
34073 679 98 92
34074 679 467 43
34075 679 751 1
34076 679 985 97
34077 679 772 54
34078 679 739 88
34079 679 154 87
34080 679 558 71
34081 679 228 38
34082 679 8 78
34083 679 454 40
34084 679 931 47
34085 679 832 85
34086 679 113 63
34087 679 306 80
34088 679 370 30
34089 679 117 32
34090 679 313 34
34091 679 874 71
34092 679 364 85
34093 679 43 84
34094 679 617 72
34095 679 14 41
34096 679 166 81
34097 679 158 86
34098 679 935 42
34099 679 995 21
34100 679 783 7
34101 679 401 90
34102 679 59 79
34103 679 493 86
34104 679 708 43
34105 679 176 83
34106 679 463 60
34107 679 511 25
34108 679 219 17
34109 679 746 61
34110 679 900 18
34111 679 873 92
34112 679 65 56
34113 679 804 57
34114 679 922 23
34115 679 70 45
34116 679 742 11
34117 679 490 52
34118 679 169 24
34119 680 950 84
34120 680 559 34
34121 680 409 79
34122 680 294 4
34123 680 254 10
34124 680 333 97
34125 680 615 50
34126 680 876 39
34127 680 532 5
34128 680 606 4
34129 680 736 6
34130 680 473 35
34131 680 756 44
34132 680 467 30
34133 680 471 42
34134 680 508 5
34135 680 84 94
34136 680 463 79
34137 680 595 52
34138 680 766 80
34139 680 931 34
34140 680 695 2
34141 680 942 38
34142 680 197 77
34143 680 710 21
34144 680 561 61
34145 680 458 36
34146 680 7 4
34147 680 323 71
34148 680 80 71
34149 680 784 28
34150 680 55 45
34151 680 269 57
34152 680 377 16
34153 680 158 97
34154 680 150 77
34155 680 227 61
34156 680 534 3
34157 680 882 19
34158 680 179 16
34159 680 67 100
34160 680 242 54
34161 680 684 20
34162 680 128 41
34163 680 309 53
34164 680 420 55
34165 680 854 47
34166 680 514 26
34167 680 830 25
34168 680 640 21
34169 681 385 3
34170 681 441 13
34171 681 539 21
34172 681 193 90
34173 681 237 14
34174 681 403 89
34175 681 757 21
34176 681 739 28
34177 681 888 2
34178 681 770 19
34179 681 673 52
34180 681 350 24
34181 681 895 100
34182 681 53 41
34183 681 181 9
34184 681 262 7
34185 681 794 17
34186 681 992 81
34187 681 623 64
34188 681 715 99
34189 681 867 95
34190 681 54 17
34191 681 305 10
34192 681 587 63
34193 681 178 66
34194 681 484 33
34195 681 977 26
34196 681 851 53
34197 681 544 91
34198 681 898 55
34199 681 125 37
34200 681 129 62
34201 681 36 68
34202 681 955 7
34203 681 806 68
34204 681 565 45
34205 681 529 68
34206 681 401 59
34207 681 92 35
34208 681 706 45
34209 681 555 20
34210 681 721 7
34211 681 742 99
34212 681 472 48
34213 681 746 77
34214 681 296 94
34215 681 578 34
34216 681 968 34
34217 681 642 32
34218 681 652 24
34219 681 634 39
34220 682 103 86
34221 682 378 38
34222 682 635 26
34223 682 82 69
34224 682 327 79
34225 682 675 67
34226 682 301 94
34227 682 15 44
34228 682 268 21
34229 682 210 84
34230 682 482 41
34231 682 634 55
34232 682 447 81
34233 682 19 30
34234 682 193 76
34235 682 886 54
34236 682 572 4
34237 682 77 87
34238 682 680 95
34239 682 528 41
34240 682 624 33
34241 682 365 35
34242 682 315 88
34243 682 83 35
34244 682 344 45
34245 682 980 86
34246 682 172 67
34247 682 255 46
34248 682 273 83
34249 682 467 21
34250 682 392 19
34251 682 688 40
34252 682 127 32
34253 682 593 53
34254 682 607 10
34255 682 822 29
34256 682 601 46
34257 682 463 69
34258 682 163 73
34259 682 747 80
34260 682 924 6
34261 682 107 84
34262 682 8 97
34263 682 961 40
34264 682 991 33
34265 682 175 83
34266 682 516 64
34267 682 359 88
34268 682 541 5
34269 682 149 85
34270 682 438 65
34271 682 714 39
34272 682 629 20
34273 682 873 56
34274 683 905 91
34275 683 766 22
34276 683 106 94
34277 683 800 45
34278 683 813 27
34279 683 710 48
34280 683 730 15
34281 683 901 84
34282 683 612 9
34283 683 479 23
34284 683 809 8
34285 683 854 98
34286 683 359 45
34287 683 509 46
34288 683 806 48
34289 683 75 76
34290 683 918 45
34291 683 107 70
34292 683 84 90
34293 683 270 75
34294 683 228 81
34295 683 702 6
34296 683 415 8
34297 683 795 88
34298 683 173 77
34299 683 586 70
34300 683 12 80
34301 683 23 71
34302 683 552 49
34303 683 259 26
34304 683 378 84
34305 683 557 75
34306 683 709 47
34307 683 511 55
34308 683 821 71
34309 683 57 38
34310 683 651 62
34311 683 793 1
34312 683 492 17
34313 683 418 42
34314 683 367 9
34315 683 9 97
34316 683 985 88
34317 683 303 29
34318 683 325 27
34319 684 919 62
34320 684 388 9
34321 684 187 94
34322 684 829 76
34323 684 888 13
34324 684 407 33
34325 684 382 55
34326 684 390 66
34327 684 7 90
34328 684 895 17
34329 684 438 43
34330 684 220 56
34331 684 184 35
34332 684 658 49
34333 684 98 25
34334 684 313 62
34335 684 24 7
34336 684 698 3
34337 684 834 32
34338 684 148 71
34339 684 901 81
34340 684 755 32
34341 684 335 15
34342 684 264 21
34343 684 284 17
34344 684 978 72
34345 684 497 7
34346 684 179 79
34347 684 99 62
34348 684 912 49
34349 684 172 69
34350 684 598 73
34351 684 260 90
34352 684 465 75
34353 684 405 54
34354 684 894 100
34355 684 828 80
34356 684 401 7
34357 684 726 4
34358 684 983 56
34359 684 347 56
34360 684 270 30
34361 684 939 32
34362 684 263 4
34363 685 779 73
34364 685 789 9
34365 685 75 59
34366 685 591 79
34367 685 681 63
34368 685 81 80
34369 685 739 5
34370 685 991 86
34371 685 896 99
34372 685 165 96
34373 685 441 10
34374 685 893 11
34375 685 476 17
34376 685 546 77
34377 685 745 34
34378 685 281 99
34379 685 895 14
34380 685 31 16
34381 685 3 3
34382 685 941 85
34383 685 677 53
34384 685 665 27
34385 685 788 78
34386 685 928 63
34387 685 35 81
34388 685 64 55
34389 685 988 6
34390 685 254 95
34391 685 141 66
34392 685 753 95
34393 685 247 70
34394 685 68 36
34395 685 624 94
34396 685 314 1
34397 685 86 49
34398 685 419 100
34399 685 362 64
34400 685 981 81
34401 685 948 36
34402 685 83 94
34403 685 198 45
34404 685 987 19
34405 685 731 34
34406 685 156 66
34407 685 873 28
34408 685 434 42
34409 685 894 83
34410 685 719 79
34411 685 673 27
34412 685 867 71
34413 686 738 7
34414 686 598 34
34415 686 993 44
34416 686 53 86
34417 686 90 66
34418 686 660 59
34419 686 652 3
34420 686 404 64
34421 686 333 80
34422 686 149 87
34423 686 967 43
34424 686 416 39
34425 686 122 70
34426 686 214 12
34427 686 356 91
34428 686 978 78
34429 686 635 56
34430 686 898 72
34431 686 976 49
34432 686 8 26
34433 686 186 49
34434 686 240 7
34435 686 183 29
34436 686 662 47
34437 686 551 79
34438 686 529 30
34439 686 484 6
34440 686 80 14
34441 686 48 6
34442 686 449 89
34443 686 135 45
34444 686 627 76
34445 686 381 52
34446 686 174 25
34447 686 777 88
34448 686 72 93
34449 686 425 51
34450 686 862 50
34451 686 868 55
34452 686 234 42
34453 686 773 30
34454 686 486 88
34455 686 668 6
34456 686 539 100
34457 686 673 89
34458 686 919 7
34459 686 703 3
34460 686 756 81
34461 686 591 6
34462 686 816 36
34463 687 420 85
34464 687 471 31
34465 687 552 62
34466 687 545 94
34467 687 161 7
34468 687 433 36
34469 687 539 64
34470 687 992 69
34471 687 95 47
34472 687 630 6
34473 687 46 95
34474 687 612 79
34475 687 582 39
34476 687 396 67
34477 687 381 73
34478 687 463 65
34479 687 770 52
34480 687 865 74
34481 687 796 86
34482 687 550 53
34483 687 228 56
34484 687 809 79
34485 687 558 96
34486 687 331 19
34487 687 174 70
34488 687 142 3
34489 687 343 99
34490 687 26 98
34491 687 828 63
34492 687 820 38
34493 687 41 19
34494 687 444 25
34495 687 496 78
34496 687 338 58
34497 687 595 88
34498 687 425 4
34499 687 164 32
34500 687 277 27
34501 687 178 44
34502 687 462 86
34503 687 969 88
34504 687 858 35
34505 687 771 24
34506 687 754 98
34507 687 43 37
34508 687 236 80
34509 688 835 100
34510 688 77 95
34511 688 805 17
34512 688 947 33
34513 688 697 96
34514 688 440 100
34515 688 645 21
34516 688 609 98
34517 688 245 16
34518 688 620 13
34519 688 123 72
34520 688 48 61
34521 688 995 10
34522 688 750 4
34523 688 654 27
34524 688 197 11
34525 688 12 94
34526 688 422 100
34527 688 477 75
34528 688 81 100
34529 688 82 41
34530 688 767 42
34531 688 44 57
34532 688 26 30
34533 688 663 58
34534 688 190 92
34535 688 623 80
34536 688 358 97
34537 688 473 92
34538 688 435 4
34539 688 979 40
34540 688 599 57
34541 688 505 79
34542 688 481 18
34543 688 766 68
34544 688 21 41
34545 688 117 82
34546 688 454 36
34547 688 699 73
34548 688 801 18
34549 688 540 12
34550 688 129 50
34551 688 888 39
34552 688 143 75
34553 688 827 23
34554 688 163 89
34555 689 540 32
34556 689 919 15
34557 689 272 97
34558 689 106 98
34559 689 139 8
34560 689 984 18
34561 689 975 34
34562 689 522 55
34563 689 59 55
34564 689 710 58
34565 689 334 45
34566 689 222 60
34567 689 560 23
34568 689 229 100
34569 689 262 95
34570 689 824 4
34571 689 375 88
34572 689 7 18
34573 689 915 76
34574 689 498 3
34575 689 818 94
34576 689 994 86
34577 689 148 5
34578 689 979 43
34579 689 839 94
34580 689 727 52
34581 689 392 54
34582 689 97 5
34583 689 462 74
34584 689 950 23
34585 689 376 51
34586 689 423 67
34587 689 815 4
34588 689 535 81
34589 689 328 39
34590 689 332 6
34591 689 759 34
34592 689 837 17
34593 689 920 65
34594 689 881 40
34595 689 286 94
34596 689 421 38
34597 689 40 13
34598 689 856 30
34599 689 253 59
34600 689 926 38
34601 689 934 74
34602 689 333 22
34603 689 880 23
34604 689 149 6
34605 689 953 52
34606 689 542 45
34607 689 408 9
34608 689 708 78
34609 689 432 27
34610 689 715 21
34611 689 716 34
34612 689 778 33
34613 689 256 57
34614 689 707 14
34615 690 167 75
34616 690 341 51
34617 690 263 46
34618 690 884 20
34619 690 204 31
34620 690 273 93
34621 690 894 3
34622 690 989 79
34623 690 571 57
34624 690 50 69
34625 690 333 59
34626 690 151 25
34627 690 429 74
34628 690 568 40
34629 690 747 17
34630 690 750 27
34631 690 573 72
34632 690 888 54
34633 690 112 57
34634 690 830 2
34635 690 529 34
34636 690 702 76
34637 690 274 19
34638 690 136 22
34639 690 122 95
34640 690 909 67
34641 690 738 95
34642 690 720 92
34643 690 610 23
34644 690 98 83
34645 690 26 13
34646 690 425 21
34647 690 505 7
34648 690 749 86
34649 690 542 94
34650 690 969 54
34651 690 519 60
34652 690 332 5
34653 690 879 61
34654 690 252 47
34655 690 807 10
34656 690 613 50
34657 690 105 59
34658 690 109 66
34659 690 662 15
34660 690 549 65
34661 690 804 14
34662 690 63 32
34663 691 556 13
34664 691 858 10
34665 691 605 2
34666 691 202 48
34667 691 680 57
34668 691 653 20
34669 691 328 74
34670 691 886 94
34671 691 856 13
34672 691 761 21
34673 691 320 80
34674 691 376 67
34675 691 563 87
34676 691 276 77
34677 691 273 84
34678 691 782 7
34679 691 734 14
34680 691 508 82
34681 691 475 18
34682 691 487 47
34683 691 275 77
34684 691 463 11
34685 691 377 7
34686 691 510 63
34687 691 303 93
34688 691 531 2
34689 691 967 1
34690 691 767 68
34691 691 358 63
34692 691 37 25
34693 691 717 41
34694 691 620 13
34695 691 999 100
34696 691 657 33
34697 691 62 99
34698 691 745 81
34699 691 74 29
34700 691 464 74
34701 691 70 31
34702 691 22 100
34703 691 308 81
34704 691 255 88
34705 691 126 5
34706 691 330 12
34707 691 404 4
34708 691 409 28
34709 691 395 55
34710 691 869 78
34711 691 178 51
34712 691 679 54
34713 691 938 7
34714 692 381 12
34715 692 821 86
34716 692 488 84
34717 692 877 47
34718 692 492 39
34719 692 885 18
34720 692 894 97
34721 692 633 56
34722 692 38 65
34723 692 459 89
34724 692 592 48
34725 692 609 71
34726 692 820 18
34727 692 662 100
34728 692 982 12
34729 692 530 94
34730 692 116 87
34731 692 440 65
34732 692 967 28
34733 692 188 72
34734 692 107 27
34735 692 628 9
34736 692 551 46
34737 692 51 93
34738 692 568 60
34739 692 969 10
34740 692 161 29
34741 692 253 50
34742 692 622 10
34743 692 767 88
34744 692 588 70
34745 692 411 84
34746 692 610 3
34747 692 444 46
34748 692 712 37
34749 692 734 56
34750 692 401 4
34751 692 656 48
34752 692 22 20
34753 692 837 80
34754 692 144 79
34755 692 760 1
34756 693 475 23
34757 693 60 85
34758 693 920 45
34759 693 786 78
34760 693 172 58
34761 693 750 51
34762 693 131 25
34763 693 382 100
34764 693 69 68
34765 693 749 70
34766 693 985 74
34767 693 879 74
34768 693 183 55
34769 693 580 100
34770 693 859 55
34771 693 704 4
34772 693 871 93
34773 693 812 33
34774 693 216 82
34775 693 181 35
34776 693 586 90
34777 693 826 16
34778 693 426 53
34779 693 202 20
34780 693 990 3
34781 693 239 33
34782 693 988 88
34783 693 869 63
34784 693 319 49
34785 693 122 66
34786 693 141 48
34787 693 171 61
34788 693 978 92
34789 693 254 14
34790 693 764 88
34791 693 463 71
34792 693 12 41
34793 693 400 34
34794 693 828 56
34795 693 716 45
34796 693 634 38
34797 693 647 72
34798 693 720 15
34799 693 292 1
34800 693 722 54
34801 693 536 23
34802 693 523 60
34803 693 221 68
34804 693 962 26
34805 693 973 1
34806 693 539 66
34807 693 870 41
34808 693 943 12
34809 693 646 89
34810 693 253 72
34811 693 975 20
34812 693 739 48
34813 694 353 88
34814 694 567 31
34815 694 177 63
34816 694 777 19
34817 694 611 35
34818 694 646 1
34819 694 993 48
34820 694 295 37
34821 694 330 33
34822 694 577 79
34823 694 901 83
34824 694 348 47
34825 694 650 67
34826 694 936 60
34827 694 535 92
34828 694 106 65
34829 694 505 67
34830 694 617 98
34831 694 968 85
34832 694 902 46
34833 694 590 70
34834 694 300 38
34835 694 507 62
34836 694 898 100
34837 694 19 4
34838 694 556 43
34839 694 23 48
34840 694 89 33
34841 694 361 78
34842 694 366 83
34843 694 625 57
34844 694 751 72
34845 694 355 44
34846 694 939 93
34847 694 493 69
34848 694 60 8
34849 694 634 6
34850 694 764 27
34851 694 61 40
34852 694 195 84
34853 694 655 9
34854 694 99 91
34855 694 711 5
34856 694 405 68
34857 694 515 99
34858 694 103 37
34859 695 855 53
34860 695 345 20
34861 695 878 75
34862 695 191 1
34863 695 207 42
34864 695 92 83
34865 695 18 33
34866 695 615 38
34867 695 59 28
34868 695 28 70
34869 695 422 33
34870 695 478 46
34871 695 578 53
34872 695 710 85
34873 695 600 38
34874 695 476 18
34875 695 560 81
34876 695 283 80
34877 695 604 57
34878 695 669 72
34879 695 465 93
34880 695 912 66
34881 695 441 94
34882 695 525 42
34883 695 792 34
34884 695 221 1
34885 695 392 71
34886 695 989 94
34887 695 78 75
34888 695 661 23
34889 695 497 81
34890 695 506 12
34891 695 641 25
34892 695 80 16
34893 695 84 13
34894 695 90 58
34895 696 574 8
34896 696 866 59
34897 696 345 23
34898 696 258 45
34899 696 940 86
34900 696 757 77
34901 696 261 28
34902 696 550 26
34903 696 686 82
34904 696 90 4
34905 696 302 25
34906 696 977 30
34907 696 899 22
34908 696 117 33
34909 696 272 47
34910 696 196 23
34911 696 449 96
34912 696 394 41
34913 696 701 46
34914 696 407 14
34915 696 817 92
34916 696 67 92
34917 696 448 29
34918 696 858 63
34919 696 401 10
34920 696 247 39
34921 696 66 59
34922 696 959 97
34923 696 778 53
34924 696 168 32
34925 696 52 41
34926 696 116 82
34927 696 31 95
34928 696 291 49
34929 696 468 25
34930 696 246 60
34931 696 309 49
34932 696 531 96
34933 696 27 75
34934 696 773 57
34935 696 921 77
34936 696 41 1
34937 696 143 78
34938 696 578 89
34939 696 653 86
34940 696 155 77
34941 696 201 93
34942 696 999 64
34943 696 540 6
34944 696 222 61
34945 696 359 24
34946 696 30 17
34947 696 20 50
34948 696 929 5
34949 696 376 92
34950 697 239 33
34951 697 554 92
34952 697 664 6
34953 697 613 18
34954 697 77 13
34955 697 533 6
34956 697 649 38
34957 697 693 47
34958 697 877 2
34959 697 900 45
34960 697 6 91
34961 697 666 86
34962 697 606 79
34963 697 357 65
34964 697 961 47
34965 697 819 31
34966 697 608 89
34967 697 847 54
34968 697 469 91
34969 697 953 35
34970 697 612 55
34971 697 86 91
34972 697 800 72
34973 697 889 48
34974 697 821 92
34975 697 230 23
34976 697 28 25
34977 697 752 67
34978 697 983 23
34979 697 820 68
34980 697 14 33
34981 697 201 71
34982 697 624 12
34983 697 347 100
34984 697 561 94
34985 697 874 64
34986 697 655 78
34987 697 943 21
34988 697 367 53
34989 697 285 32
34990 697 178 57
34991 697 692 39
34992 697 982 24
34993 697 510 57
34994 697 796 64
34995 697 359 61
34996 697 328 52
34997 697 61 71
34998 697 434 31
34999 697 477 48
35000 697 474 7
35001 697 829 95
35002 697 862 59
35003 697 762 58
35004 697 592 46
35005 697 499 34
35006 697 873 95
35007 697 708 71
35008 697 915 56
35009 698 930 70
35010 698 428 51
35011 698 587 76
35012 698 73 38
35013 698 68 55
35014 698 578 72
35015 698 625 88
35016 698 781 86
35017 698 925 76
35018 698 186 51
35019 698 669 17
35020 698 882 34
35021 698 379 48
35022 698 1 59
35023 698 39 49
35024 698 686 97
35025 698 628 48
35026 698 160 88
35027 698 601 81
35028 698 883 85
35029 698 683 92
35030 698 272 16
35031 698 809 81
35032 698 770 34
35033 698 191 64
35034 698 350 68
35035 698 247 89
35036 698 29 81
35037 698 87 62
35038 698 32 97
35039 698 994 60
35040 698 733 61
35041 698 237 79
35042 698 314 77
35043 698 933 95
35044 698 310 47
35045 698 226 63
35046 698 534 3
35047 698 11 66
35048 698 90 34
35049 698 717 29
35050 698 565 44
35051 699 313 28
35052 699 790 62
35053 699 654 53
35054 699 298 24
35055 699 133 18
35056 699 724 77
35057 699 233 68
35058 699 139 12
35059 699 194 64
35060 699 942 98
35061 699 467 11
35062 699 603 72
35063 699 225 48
35064 699 213 7
35065 699 914 1
35066 699 266 11
35067 699 810 97
35068 699 188 89
35069 699 251 4
35070 699 547 86
35071 699 422 82
35072 699 368 33
35073 699 383 7
35074 699 364 94
35075 699 57 43
35076 699 574 25
35077 699 315 8
35078 699 276 61
35079 699 397 76
35080 699 104 49
35081 699 842 98
35082 699 911 57
35083 699 511 32
35084 699 841 72
35085 699 10 43
35086 699 774 88
35087 699 963 83
35088 699 532 91
35089 699 13 4
35090 699 80 74
35091 699 514 30
35092 699 267 64
35093 699 279 58
35094 699 939 67
35095 699 180 73
35096 699 196 5
35097 699 489 35
35098 699 367 82
35099 699 343 79
35100 699 760 54
35101 700 930 4
35102 700 708 31
35103 700 338 32
35104 700 471 70
35105 700 968 5
35106 700 120 90
35107 700 514 65
35108 700 660 36
35109 700 759 70
35110 700 165 48
35111 700 855 30
35112 700 8 39
35113 700 833 25
35114 700 328 64
35115 700 366 61
35116 700 125 5
35117 700 321 68
35118 700 623 22
35119 700 163 55
35120 700 744 83
35121 700 813 17
35122 700 936 43
35123 700 436 78
35124 700 138 94
35125 700 892 53
35126 700 558 6
35127 700 194 92
35128 700 662 35
35129 700 689 57
35130 700 62 83
35131 700 273 46
35132 700 503 53
35133 700 926 90
35134 700 6 12
35135 700 490 62
35136 700 483 56
35137 700 784 7
35138 700 917 18
35139 700 371 15
35140 700 893 23
35141 700 318 29
35142 700 166 43
35143 700 160 61
35144 700 961 16
35145 700 532 9
35146 700 657 32
35147 700 150 99
35148 700 33 74
35149 700 548 22
35150 701 709 65
35151 701 790 26
35152 701 711 52
35153 701 38 59
35154 701 124 26
35155 701 713 17
35156 701 213 31
35157 701 151 43
35158 701 723 43
35159 701 163 45
35160 701 105 84
35161 701 605 3
35162 701 720 57
35163 701 560 33
35164 701 32 35
35165 701 142 93
35166 701 352 66
35167 701 576 75
35168 701 104 98
35169 701 60 98
35170 701 901 81
35171 701 129 97
35172 701 484 99
35173 701 500 43
35174 701 11 1
35175 701 882 29
35176 701 270 66
35177 701 683 85
35178 701 434 49
35179 701 976 61
35180 701 619 88
35181 701 314 30
35182 701 675 90
35183 701 40 86
35184 701 671 18
35185 701 114 50
35186 701 835 25
35187 701 85 94
35188 701 746 24
35189 701 846 45
35190 701 261 66
35191 701 431 35
35192 701 975 5
35193 701 760 53
35194 701 235 18
35195 702 761 31
35196 702 499 39
35197 702 686 58
35198 702 445 92
35199 702 426 82
35200 702 303 15
35201 702 807 95
35202 702 684 14
35203 702 440 15
35204 702 867 94
35205 702 530 75
35206 702 990 60
35207 702 104 57
35208 702 979 5
35209 702 316 42
35210 702 634 55
35211 702 206 62
35212 702 208 1
35213 702 755 69
35214 702 788 14
35215 702 482 77
35216 702 297 48
35217 702 256 44
35218 702 971 93
35219 702 588 34
35220 702 318 3
35221 702 915 78
35222 702 931 85
35223 702 182 65
35224 702 16 72
35225 702 879 30
35226 702 286 19
35227 702 331 74
35228 702 283 43
35229 702 30 99
35230 702 732 62
35231 702 548 36
35232 702 723 21
35233 702 480 93
35234 702 127 63
35235 702 250 25
35236 702 158 99
35237 702 242 40
35238 702 335 96
35239 702 976 24
35240 702 863 64
35241 702 644 73
35242 702 329 12
35243 702 21 84
35244 702 144 83
35245 702 776 72
35246 702 857 51
35247 702 818 50
35248 702 850 53
35249 702 997 2
35250 702 118 52
35251 703 162 12
35252 703 935 20
35253 703 570 54
35254 703 399 39
35255 703 775 10
35256 703 672 45
35257 703 142 61
35258 703 827 51
35259 703 50 58
35260 703 627 97
35261 703 902 4
35262 703 398 35
35263 703 722 100
35264 703 920 84
35265 703 2 21
35266 703 879 6
35267 703 823 42
35268 703 845 1
35269 703 393 79
35270 703 790 76
35271 703 271 77
35272 703 662 1
35273 703 632 93
35274 703 216 72
35275 703 520 12
35276 703 851 100
35277 703 826 45
35278 703 352 22
35279 703 275 15
35280 703 164 19
35281 703 392 14
35282 703 888 67
35283 703 316 67
35284 703 583 94
35285 703 370 18
35286 703 178 97
35287 703 239 39
35288 703 640 38
35289 703 664 25
35290 703 778 37
35291 703 170 3
35292 703 361 24
35293 703 286 63
35294 703 837 8
35295 704 150 89
35296 704 856 12
35297 704 716 26
35298 704 564 31
35299 704 24 17
35300 704 305 10
35301 704 334 72
35302 704 134 6
35303 704 612 65
35304 704 140 85
35305 704 300 39
35306 704 314 4
35307 704 219 94
35308 704 715 65
35309 704 485 42
35310 704 930 23
35311 704 133 90
35312 704 401 76
35313 704 87 86
35314 704 199 98
35315 704 975 53
35316 704 476 61
35317 704 366 1
35318 704 820 52
35319 704 779 42
35320 704 717 18
35321 704 839 87
35322 704 202 52
35323 704 136 37
35324 704 81 26
35325 704 362 73
35326 704 571 10
35327 704 61 38
35328 704 182 25
35329 704 493 5
35330 704 944 5
35331 704 606 28
35332 704 690 31
35333 704 817 85
35334 704 348 9
35335 704 12 100
35336 705 101 18
35337 705 24 66
35338 705 897 32
35339 705 308 49
35340 705 227 28
35341 705 161 95
35342 705 585 2
35343 705 322 53
35344 705 325 8
35345 705 76 16
35346 705 592 27
35347 705 348 44
35348 705 680 46
35349 705 461 45
35350 705 881 94
35351 705 588 50
35352 705 273 36
35353 705 404 69
35354 705 859 47
35355 705 169 11
35356 705 153 10
35357 705 174 49
35358 705 296 13
35359 705 813 50
35360 705 621 15
35361 705 7 48
35362 705 985 5
35363 705 103 28
35364 705 531 24
35365 705 530 13
35366 705 3 25
35367 705 538 40
35368 705 120 74
35369 705 145 35
35370 705 781 47
35371 705 472 12
35372 705 636 73
35373 705 286 68
35374 705 673 69
35375 705 500 5
35376 705 798 68
35377 705 609 29
35378 705 522 96
35379 705 66 90
35380 705 36 31
35381 706 790 38
35382 706 743 42
35383 706 496 93
35384 706 241 61
35385 706 38 90
35386 706 799 96
35387 706 780 9
35388 706 140 95
35389 706 481 45
35390 706 260 47
35391 706 736 91
35392 706 430 47
35393 706 224 20
35394 706 662 58
35395 706 861 20
35396 706 465 59
35397 706 818 12
35398 706 844 36
35399 706 55 28
35400 706 71 49
35401 706 813 65
35402 706 621 100
35403 706 214 71
35404 706 364 99
35405 706 320 96
35406 706 58 68
35407 706 613 70
35408 706 922 16
35409 706 862 52
35410 706 487 11
35411 706 350 21
35412 706 747 4
35413 706 273 55
35414 706 553 33
35415 706 63 61
35416 706 834 73
35417 706 7 68
35418 706 359 48
35419 706 170 13
35420 707 544 66
35421 707 370 40
35422 707 190 72
35423 707 739 15
35424 707 305 23
35425 707 275 72
35426 707 804 40
35427 707 934 25
35428 707 712 78
35429 707 773 26
35430 707 135 49
35431 707 983 58
35432 707 406 94
35433 707 950 3
35434 707 98 81
35435 707 672 1
35436 707 894 8
35437 707 730 37
35438 707 46 7
35439 707 109 76
35440 707 953 47
35441 707 214 93
35442 707 901 19
35443 707 882 34
35444 707 915 33
35445 707 498 77
35446 707 516 65
35447 707 236 91
35448 707 629 38
35449 707 762 85
35450 707 500 91
35451 707 567 74
35452 707 722 96
35453 707 381 82
35454 707 676 88
35455 707 211 48
35456 707 479 55
35457 707 339 47
35458 707 330 78
35459 707 644 36
35460 707 487 40
35461 707 336 28
35462 707 656 28
35463 708 861 97
35464 708 882 47
35465 708 302 74
35466 708 711 70
35467 708 18 93
35468 708 368 73
35469 708 497 16
35470 708 51 92
35471 708 430 17
35472 708 365 8
35473 708 160 66
35474 708 815 23
35475 708 466 26
35476 708 619 52
35477 708 189 68
35478 708 191 4
35479 708 976 86
35480 708 63 6
35481 708 893 47
35482 708 636 16
35483 708 202 39
35484 708 874 8
35485 708 38 59
35486 708 900 60
35487 708 429 5
35488 708 887 29
35489 708 482 99
35490 708 720 22
35491 708 690 12
35492 708 775 63
35493 708 306 79
35494 708 752 43
35495 708 181 41
35496 708 64 20
35497 708 523 29
35498 708 767 100
35499 708 578 75
35500 708 532 32
35501 708 70 90
35502 708 626 88
35503 708 456 28
35504 708 841 23
35505 708 105 99
35506 708 662 56
35507 708 491 13
35508 708 938 21
35509 708 78 11
35510 708 564 94
35511 708 260 81
35512 708 237 36
35513 708 922 3
35514 708 931 2
35515 708 510 11
35516 708 92 66
35517 708 462 92
35518 708 272 67
35519 708 366 8
35520 708 919 38
35521 708 845 30
35522 708 770 2
35523 709 633 97
35524 709 830 61
35525 709 77 76
35526 709 579 11
35527 709 49 98
35528 709 8 66
35529 709 230 53
35530 709 581 31
35531 709 593 27
35532 709 26 75
35533 709 244 13
35534 709 296 17
35535 709 528 66
35536 709 973 60
35537 709 813 63
35538 709 667 87
35539 709 311 38
35540 709 624 80
35541 709 14 50
35542 709 515 37
35543 709 761 84
35544 709 811 8
35545 709 805 13
35546 709 623 94
35547 709 81 56
35548 709 592 27
35549 709 324 90
35550 709 611 30
35551 709 998 92
35552 709 310 41
35553 709 222 24
35554 709 997 97
35555 709 155 32
35556 709 173 78
35557 709 47 84
35558 709 936 53
35559 709 23 94
35560 709 639 25
35561 709 492 11
35562 709 522 8
35563 709 970 31
35564 709 582 47
35565 709 937 43
35566 709 616 26
35567 709 64 88
35568 709 213 43
35569 709 479 90
35570 709 690 63
35571 709 967 81
35572 709 307 46
35573 709 187 89
35574 709 137 5
35575 709 521 27
35576 710 592 31
35577 710 663 35
35578 710 673 73
35579 710 316 46
35580 710 134 80
35581 710 495 26
35582 710 781 29
35583 710 179 93
35584 710 768 80
35585 710 750 38
35586 710 391 84
35587 710 807 30
35588 710 566 63
35589 710 148 7
35590 710 714 3
35591 710 433 58
35592 710 731 55
35593 710 965 30
35594 710 968 55
35595 710 627 93
35596 710 24 2
35597 710 902 83
35598 710 746 82
35599 710 86 66
35600 710 141 11
35601 710 921 50
35602 710 871 98
35603 710 656 12
35604 710 877 74
35605 710 355 3
35606 710 401 20
35607 710 60 66
35608 710 4 48
35609 710 851 52
35610 710 227 55
35611 711 695 57
35612 711 809 25
35613 711 46 82
35614 711 400 2
35615 711 16 1
35616 711 232 39
35617 711 514 53
35618 711 256 56
35619 711 652 97
35620 711 431 70
35621 711 883 28
35622 711 705 4
35623 711 85 77
35624 711 922 62
35625 711 981 23
35626 711 149 28
35627 711 857 35
35628 711 713 77
35629 711 783 6
35630 711 477 70
35631 711 228 74
35632 711 672 36
35633 711 459 55
35634 711 886 79
35635 711 825 36
35636 711 1 67
35637 711 78 78
35638 711 310 40
35639 711 579 64
35640 711 669 90
35641 711 813 84
35642 711 258 71
35643 711 734 23
35644 711 914 81
35645 711 161 3
35646 711 454 60
35647 711 536 51
35648 711 553 62
35649 711 447 98
35650 711 72 44
35651 711 180 54
35652 711 267 10
35653 711 279 65
35654 711 347 34
35655 711 501 38
35656 711 584 83
35657 711 446 31
35658 711 810 90
35659 711 978 90
35660 711 376 76
35661 711 862 73
35662 711 413 22
35663 711 250 12
35664 711 972 54
35665 711 542 76
35666 711 934 66
35667 711 460 13
35668 712 526 10
35669 712 260 51
35670 712 268 46
35671 712 612 20
35672 712 176 37
35673 712 942 24
35674 712 506 89
35675 712 618 69
35676 712 346 35
35677 712 787 92
35678 712 716 18
35679 712 663 97
35680 712 151 30
35681 712 948 29
35682 712 783 59
35683 712 423 4
35684 712 954 87
35685 712 287 98
35686 712 369 25
35687 712 373 26
35688 712 771 15
35689 712 678 87
35690 712 325 100
35691 712 283 37
35692 712 577 59
35693 712 19 92
35694 712 846 18
35695 712 24 47
35696 712 96 73
35697 712 299 73
35698 712 295 80
35699 712 415 1
35700 712 998 21
35701 712 481 84
35702 712 214 35
35703 712 969 40
35704 712 308 13
35705 712 453 8
35706 712 106 93
35707 712 455 27
35708 712 280 11
35709 712 326 49
35710 712 485 66
35711 713 987 18
35712 713 505 10
35713 713 703 20
35714 713 740 4
35715 713 724 45
35716 713 442 11
35717 713 542 76
35718 713 766 93
35719 713 396 24
35720 713 980 89
35721 713 887 38
35722 713 919 40
35723 713 929 38
35724 713 917 55
35725 713 824 32
35726 713 190 18
35727 713 262 94
35728 713 705 64
35729 713 462 1
35730 713 125 5
35731 713 390 80
35732 713 333 3
35733 713 701 17
35734 713 848 8
35735 713 520 23
35736 713 131 29
35737 713 109 76
35738 713 650 31
35739 713 402 54
35740 713 327 4
35741 713 199 19
35742 713 24 8
35743 713 698 75
35744 713 709 27
35745 713 696 69
35746 713 91 70
35747 713 962 45
35748 713 702 3
35749 713 994 40
35750 713 519 36
35751 713 283 67
35752 713 97 29
35753 713 913 63
35754 713 555 97
35755 713 775 91
35756 713 144 98
35757 713 815 19
35758 713 601 8
35759 713 846 61
35760 713 32 56
35761 713 814 59
35762 713 297 53
35763 713 771 41
35764 713 911 27
35765 713 459 79
35766 713 526 28
35767 713 111 74
35768 713 234 46
35769 713 279 28
35770 713 151 28
35771 714 76 67
35772 714 405 54
35773 714 161 60
35774 714 344 94
35775 714 589 84
35776 714 928 67
35777 714 85 63
35778 714 472 36
35779 714 110 55
35780 714 189 93
35781 714 946 12
35782 714 80 14
35783 714 543 87
35784 714 83 12
35785 714 880 85
35786 714 564 77
35787 714 459 85
35788 714 465 74
35789 714 914 11
35790 714 656 92
35791 714 599 49
35792 714 676 44
35793 714 4 3
35794 714 73 5
35795 714 169 24
35796 714 781 95
35797 714 524 49
35798 714 263 97
35799 714 204 81
35800 714 293 79
35801 714 644 26
35802 714 75 94
35803 714 217 81
35804 714 400 33
35805 714 92 84
35806 714 548 73
35807 714 546 55
35808 714 55 36
35809 714 363 1
35810 714 357 26
35811 714 513 41
35812 714 654 49
35813 714 18 86
35814 714 417 81
35815 714 907 52
35816 714 550 40
35817 714 674 11
35818 714 241 83
35819 714 7 71
35820 715 556 26
35821 715 542 79
35822 715 884 62
35823 715 354 76
35824 715 666 62
35825 715 954 31
35826 715 302 68
35827 715 30 63
35828 715 506 16
35829 715 693 41
35830 715 522 48
35831 715 316 84
35832 715 9 100
35833 715 766 19
35834 715 671 24
35835 715 805 100
35836 715 329 65
35837 715 121 13
35838 715 849 25
35839 715 674 93
35840 715 922 51
35841 715 366 57
35842 715 27 75
35843 715 258 41
35844 715 96 26
35845 715 718 98
35846 715 321 36
35847 715 98 52
35848 715 753 33
35849 715 185 13
35850 715 182 20
35851 715 648 1
35852 715 409 11
35853 715 974 64
35854 715 297 10
35855 715 55 87
35856 715 194 8
35857 715 183 9
35858 715 4 1
35859 715 603 40
35860 715 367 83
35861 715 577 71
35862 715 348 88
35863 715 841 77
35864 715 332 58
35865 715 558 81
35866 715 471 7
35867 715 415 46
35868 715 939 12
35869 715 524 28
35870 716 997 67
35871 716 199 12
35872 716 934 82
35873 716 676 46
35874 716 355 18
35875 716 417 20
35876 716 89 22
35877 716 159 52
35878 716 903 56
35879 716 589 1
35880 716 142 46
35881 716 771 36
35882 716 196 86
35883 716 469 27
35884 716 515 17
35885 716 282 71
35886 716 51 98
35887 716 592 68
35888 716 1 7
35889 716 15 3
35890 716 57 7
35891 716 599 25
35892 716 782 91
35893 716 694 71
35894 716 628 92
35895 716 634 44
35896 716 795 44
35897 716 643 33
35898 716 690 89
35899 716 381 14
35900 716 938 57
35901 716 833 79
35902 716 340 17
35903 716 495 99
35904 716 306 20
35905 716 359 18
35906 716 772 75
35907 716 259 58
35908 716 767 44
35909 716 885 36
35910 716 650 61
35911 716 798 67
35912 716 329 63
35913 716 72 2
35914 716 0 41
35915 717 965 7
35916 717 235 47
35917 717 101 12
35918 717 435 73
35919 717 993 25
35920 717 444 9
35921 717 470 55
35922 717 846 49
35923 717 663 29
35924 717 483 11
35925 717 195 76
35926 717 536 82
35927 717 759 21
35928 717 328 65
35929 717 67 84
35930 717 244 75
35931 717 976 43
35932 717 537 55
35933 717 561 16
35934 717 776 97
35935 717 824 34
35936 717 28 62
35937 717 272 7
35938 717 734 45
35939 717 664 71
35940 717 457 52
35941 717 832 38
35942 717 886 54
35943 717 131 68
35944 717 91 67
35945 717 213 52
35946 717 497 63
35947 717 713 85
35948 717 512 59
35949 717 705 22
35950 717 303 30
35951 717 286 78
35952 717 10 79
35953 717 160 59
35954 717 65 84
35955 717 130 1
35956 717 242 85
35957 717 203 76
35958 717 801 87
35959 717 642 75
35960 717 71 57
35961 718 261 48
35962 718 613 35
35963 718 615 61
35964 718 643 11
35965 718 22 80
35966 718 961 8
35967 718 475 80
35968 718 333 68
35969 718 841 5
35970 718 188 49
35971 718 61 73
35972 718 363 4
35973 718 285 45
35974 718 574 16
35975 718 294 64
35976 718 922 56
35977 718 199 22
35978 718 45 4
35979 718 614 7
35980 718 483 28
35981 718 721 20
35982 718 395 60
35983 718 451 97
35984 718 953 98
35985 718 448 36
35986 718 32 2
35987 718 337 100
35988 718 439 27
35989 718 728 82
35990 718 984 16
35991 718 52 69
35992 718 501 90
35993 718 893 72
35994 718 645 14
35995 718 369 75
35996 718 914 33
35997 718 244 41
35998 718 932 14
35999 718 989 88
36000 718 688 28
36001 718 887 22
36002 718 814 91
36003 718 603 56
36004 718 125 47
36005 718 977 44
36006 718 625 89
36007 718 465 93
36008 718 18 13
36009 718 575 27
36010 719 897 69
36011 719 252 90
36012 719 254 36
36013 719 107 38
36014 719 782 11
36015 719 139 60
36016 719 51 1
36017 719 177 65
36018 719 576 92
36019 719 122 95
36020 719 324 97
36021 719 939 64
36022 719 37 63
36023 719 476 58
36024 719 999 97
36025 719 487 1
36026 719 199 69
36027 719 921 80
36028 719 797 3
36029 719 40 23
36030 719 974 51
36031 719 21 82
36032 719 334 73
36033 719 528 88
36034 719 390 46
36035 719 380 9
36036 719 901 38
36037 719 200 95
36038 719 863 72
36039 719 184 60
36040 719 545 18
36041 719 775 51
36042 719 247 75
36043 719 302 80
36044 719 148 11
36045 719 712 75
36046 719 65 40
36047 719 739 72
36048 719 352 62
36049 719 875 35
36050 719 224 18
36051 719 864 78
36052 719 231 85
36053 719 230 55
36054 719 703 80
36055 719 308 34
36056 719 360 7
36057 719 904 44
36058 719 0 41
36059 719 682 25
36060 719 291 84
36061 719 457 6
36062 719 565 8
36063 719 662 11
36064 720 516 26
36065 720 189 80
36066 720 763 34
36067 720 831 98
36068 720 776 46
36069 720 739 42
36070 720 699 21
36071 720 653 57
36072 720 939 18
36073 720 363 16
36074 720 274 39
36075 720 834 47
36076 720 117 8
36077 720 614 58
36078 720 711 11
36079 720 844 19
36080 720 610 12
36081 720 783 48
36082 720 968 4
36083 720 684 83
36084 720 696 58
36085 720 455 58
36086 720 951 38
36087 720 10 16
36088 720 224 1
36089 720 531 28
36090 720 767 6
36091 720 384 74
36092 720 687 65
36093 720 880 74
36094 720 69 24
36095 720 453 69
36096 720 360 69
36097 720 899 29
36098 720 716 8
36099 720 408 92
36100 720 443 63
36101 720 864 45
36102 720 21 85
36103 720 502 26
36104 720 647 29
36105 720 119 2
36106 720 597 63
36107 720 904 35
36108 720 316 52
36109 720 255 56
36110 720 698 7
36111 720 505 31
36112 720 747 51
36113 720 301 45
36114 720 51 96
36115 720 983 76
36116 720 964 53
36117 720 701 94
36118 720 993 5
36119 720 98 45
36120 720 498 93
36121 721 974 80
36122 721 576 19
36123 721 483 21
36124 721 548 97
36125 721 855 81
36126 721 492 95
36127 721 873 77
36128 721 164 93
36129 721 973 43
36130 721 531 76
36131 721 283 64
36132 721 836 62
36133 721 993 26
36134 721 683 29
36135 721 828 5
36136 721 593 68
36137 721 923 32
36138 721 961 90
36139 721 753 50
36140 721 672 88
36141 721 361 32
36142 721 260 60
36143 721 595 61
36144 721 315 28
36145 721 113 82
36146 721 502 49
36147 721 89 41
36148 721 506 24
36149 721 617 98
36150 721 350 47
36151 721 665 3
36152 721 212 56
36153 721 932 90
36154 721 396 49
36155 722 771 8
36156 722 457 37
36157 722 102 12
36158 722 899 83
36159 722 897 19
36160 722 685 28
36161 722 306 1
36162 722 932 69
36163 722 585 41
36164 722 564 20
36165 722 412 24
36166 722 908 66
36167 722 648 89
36168 722 128 69
36169 722 934 30
36170 722 287 68
36171 722 48 13
36172 722 309 21
36173 722 806 44
36174 722 837 2
36175 722 79 2
36176 722 968 27
36177 722 211 38
36178 722 214 9
36179 722 47 68
36180 722 441 17
36181 722 479 5
36182 722 201 41
36183 722 510 68
36184 722 191 11
36185 722 285 13
36186 722 965 46
36187 722 727 11
36188 722 400 90
36189 722 808 39
36190 722 947 61
36191 722 360 38
36192 722 638 35
36193 722 362 26
36194 722 270 16
36195 722 540 91
36196 722 330 11
36197 722 18 85
36198 722 387 66
36199 722 653 21
36200 722 414 41
36201 722 942 37
36202 722 273 25
36203 722 313 38
36204 722 790 61
36205 722 886 88
36206 722 746 33
36207 722 174 96
36208 723 194 57
36209 723 48 65
36210 723 617 33
36211 723 206 39
36212 723 730 85
36213 723 160 6
36214 723 721 26
36215 723 92 25
36216 723 413 75
36217 723 953 46
36218 723 845 47
36219 723 962 93
36220 723 740 17
36221 723 478 62
36222 723 561 31
36223 723 248 61
36224 723 424 61
36225 723 450 16
36226 723 414 17
36227 723 725 39
36228 723 62 73
36229 723 33 15
36230 723 306 92
36231 723 156 28
36232 723 826 15
36233 723 961 15
36234 723 773 88
36235 723 791 89
36236 723 348 53
36237 723 487 67
36238 723 631 71
36239 723 662 9
36240 723 420 70
36241 723 808 3
36242 723 110 37
36243 723 267 76
36244 723 701 49
36245 723 511 91
36246 723 345 83
36247 723 346 64
36248 723 182 60
36249 723 669 93
36250 723 824 61
36251 723 179 82
36252 723 21 11
36253 723 941 14
36254 723 981 53
36255 723 551 92
36256 723 151 36
36257 723 537 28
36258 723 329 24
36259 723 573 66
36260 723 11 46
36261 723 536 87
36262 723 47 32
36263 723 142 4
36264 723 264 25
36265 723 109 75
36266 723 476 39
36267 723 338 39
36268 723 677 64
36269 723 635 79
36270 724 91 28
36271 724 276 5
36272 724 630 71
36273 724 598 63
36274 724 797 11
36275 724 740 80
36276 724 433 5
36277 724 987 72
36278 724 749 1
36279 724 500 100
36280 724 114 100
36281 724 684 35
36282 724 810 30
36283 724 701 36
36284 724 204 21
36285 724 606 98
36286 724 9 75
36287 724 198 57
36288 724 250 43
36289 724 969 89
36290 724 362 89
36291 724 853 93
36292 724 742 21
36293 724 271 60
36294 724 464 5
36295 724 516 29
36296 724 492 46
36297 724 756 72
36298 724 715 90
36299 724 415 4
36300 724 317 15
36301 724 854 62
36302 724 946 83
36303 724 752 83
36304 724 350 43
36305 724 578 7
36306 724 754 26
36307 724 7 75
36308 724 221 53
36309 724 528 46
36310 724 457 74
36311 724 905 67
36312 724 879 9
36313 724 920 6
36314 724 937 32
36315 724 774 16
36316 724 289 7
36317 725 377 80
36318 725 934 100
36319 725 119 77
36320 725 117 45
36321 725 801 66
36322 725 818 55
36323 725 276 53
36324 725 60 99
36325 725 94 46
36326 725 894 34
36327 725 576 95
36328 725 438 91
36329 725 58 12
36330 725 152 71
36331 725 230 20
36332 725 647 54
36333 725 920 63
36334 725 870 47
36335 725 811 49
36336 725 97 61
36337 725 228 38
36338 725 956 86
36339 725 23 61
36340 725 743 45
36341 725 83 91
36342 725 915 88
36343 725 666 77
36344 725 16 86
36345 725 717 27
36346 725 603 98
36347 725 65 96
36348 725 975 14
36349 725 462 79
36350 725 572 28
36351 725 886 90
36352 725 213 9
36353 725 404 79
36354 725 129 13
36355 725 953 33
36356 725 126 51
36357 725 784 16
36358 725 125 50
36359 725 677 85
36360 725 700 28
36361 725 659 77
36362 725 955 83
36363 725 840 38
36364 726 617 15
36365 726 335 34
36366 726 372 4
36367 726 236 1
36368 726 496 13
36369 726 256 9
36370 726 90 100
36371 726 917 40
36372 726 838 81
36373 726 876 1
36374 726 501 24
36375 726 753 78
36376 726 755 1
36377 726 228 7
36378 726 660 25
36379 726 456 58
36380 726 294 31
36381 726 60 44
36382 726 909 10
36383 726 673 16
36384 726 554 86
36385 726 619 39
36386 726 744 47
36387 726 729 91
36388 726 395 15
36389 726 659 55
36390 726 868 15
36391 726 356 4
36392 726 59 26
36393 726 282 48
36394 726 780 88
36395 726 798 69
36396 726 749 1
36397 726 18 32
36398 726 604 2
36399 726 404 90
36400 726 50 60
36401 726 520 76
36402 726 462 24
36403 726 523 73
36404 726 411 60
36405 726 690 80
36406 726 44 16
36407 727 369 78
36408 727 420 86
36409 727 632 48
36410 727 38 89
36411 727 424 16
36412 727 83 46
36413 727 769 68
36414 727 504 71
36415 727 725 85
36416 727 398 91
36417 727 845 89
36418 727 946 26
36419 727 529 59
36420 727 74 19
36421 727 468 64
36422 727 616 6
36423 727 537 41
36424 727 61 27
36425 727 165 66
36426 727 602 19
36427 727 679 70
36428 727 383 21
36429 727 621 75
36430 727 500 14
36431 727 350 75
36432 727 677 95
36433 727 437 100
36434 727 670 1
36435 727 5 41
36436 727 638 86
36437 727 995 97
36438 727 591 49
36439 727 439 6
36440 727 204 88
36441 727 49 67
36442 727 659 84
36443 727 278 49
36444 727 65 90
36445 727 977 52
36446 727 926 51
36447 727 576 66
36448 727 637 37
36449 727 36 61
36450 727 291 34
36451 727 914 32
36452 727 863 19
36453 727 954 83
36454 727 970 92
36455 727 444 22
36456 727 834 95
36457 727 416 65
36458 727 551 100
36459 728 813 45
36460 728 159 42
36461 728 781 23
36462 728 865 78
36463 728 883 4
36464 728 475 33
36465 728 203 7
36466 728 806 59
36467 728 550 39
36468 728 676 2
36469 728 282 43
36470 728 836 44
36471 728 351 60
36472 728 787 62
36473 728 756 70
36474 728 142 32
36475 728 8 21
36476 728 993 56
36477 728 423 61
36478 728 512 83
36479 728 978 63
36480 728 973 56
36481 728 498 37
36482 728 299 52
36483 728 840 29
36484 728 831 90
36485 728 202 4
36486 728 771 3
36487 728 839 5
36488 728 136 44
36489 728 303 42
36490 728 201 92
36491 728 177 61
36492 728 686 15
36493 728 519 49
36494 728 584 47
36495 728 275 42
36496 728 927 67
36497 728 188 80
36498 729 627 1
36499 729 366 63
36500 729 996 44
36501 729 639 41
36502 729 724 71
36503 729 440 11
36504 729 426 34
36505 729 31 19
36506 729 690 82
36507 729 427 36
36508 729 857 11
36509 729 405 29
36510 729 887 57
36511 729 613 23
36512 729 141 38
36513 729 237 58
36514 729 248 74
36515 729 574 5
36516 729 900 33
36517 729 957 31
36518 729 677 86
36519 729 145 73
36520 729 54 71
36521 729 692 31
36522 729 395 41
36523 729 716 1
36524 729 499 97
36525 729 812 52
36526 729 683 60
36527 729 816 8
36528 729 297 29
36529 729 563 11
36530 729 158 53
36531 729 737 68
36532 729 103 52
36533 729 597 64
36534 729 491 8
36535 729 154 11
36536 729 804 69
36537 729 493 89
36538 729 56 94
36539 729 456 85
36540 729 68 32
36541 729 149 49
36542 729 358 66
36543 729 82 77
36544 729 636 46
36545 729 882 34
36546 729 402 9
36547 729 184 4
36548 729 685 6
36549 729 176 11
36550 729 570 6
36551 729 45 18
36552 729 79 58
36553 729 127 66
36554 729 960 100
36555 729 198 83
36556 729 877 39
36557 730 963 45
36558 730 634 48
36559 730 631 44
36560 730 745 72
36561 730 861 72
36562 730 32 80
36563 730 582 63
36564 730 123 1
36565 730 171 9
36566 730 253 94
36567 730 966 87
36568 730 707 30
36569 730 870 76
36570 730 127 36
36571 730 700 27
36572 730 687 30
36573 730 33 30
36574 730 49 26
36575 730 980 46
36576 730 258 66
36577 730 781 66
36578 730 975 92
36579 730 817 5
36580 730 327 91
36581 730 143 46
36582 730 594 5
36583 730 528 72
36584 730 581 38
36585 730 524 40
36586 730 186 82
36587 730 320 1
36588 730 574 86
36589 730 62 23
36590 730 499 74
36591 730 363 16
36592 730 332 45
36593 730 364 21
36594 730 564 59
36595 730 854 59
36596 730 970 1
36597 730 746 21
36598 730 566 73
36599 730 451 68
36600 730 708 36
36601 730 608 89
36602 730 518 41
36603 730 939 21
36604 730 257 46
36605 730 996 47
36606 730 568 28
36607 730 867 39
36608 730 86 97
36609 730 862 98
36610 730 85 13
36611 730 101 42
36612 730 249 16
36613 730 4 26
36614 730 760 11
36615 731 62 69
36616 731 758 89
36617 731 710 61
36618 731 512 28
36619 731 540 51
36620 731 56 96
36621 731 357 51
36622 731 772 65
36623 731 789 83
36624 731 751 36
36625 731 303 63
36626 731 968 73
36627 731 854 64
36628 731 549 58
36629 731 780 43
36630 731 44 42
36631 731 673 86
36632 731 660 83
36633 731 999 30
36634 731 686 46
36635 731 749 76
36636 731 774 87
36637 731 248 6
36638 731 932 93
36639 731 620 88
36640 731 671 59
36641 731 747 91
36642 731 124 33
36643 731 210 12
36644 731 351 15
36645 731 793 10
36646 731 94 85
36647 731 473 53
36648 731 883 14
36649 731 542 94
36650 731 379 94
36651 731 721 81
36652 731 532 96
36653 731 189 2
36654 731 46 52
36655 731 700 90
36656 731 559 29
36657 731 263 76
36658 731 188 73
36659 731 129 73
36660 731 605 48
36661 731 658 67
36662 731 943 100
36663 731 447 58
36664 731 918 43
36665 731 432 12
36666 731 791 64
36667 731 1 56
36668 731 608 40
36669 731 934 96
36670 731 573 98
36671 731 704 26
36672 731 762 3
36673 732 610 4
36674 732 140 68
36675 732 159 37
36676 732 427 65
36677 732 809 53
36678 732 630 43
36679 732 744 73
36680 732 193 51
36681 732 430 50
36682 732 900 82
36683 732 209 33
36684 732 86 64
36685 732 45 6
36686 732 132 74
36687 732 808 27
36688 732 639 34
36689 732 510 71
36690 732 353 50
36691 732 479 54
36692 732 986 43
36693 732 525 89
36694 732 957 12
36695 732 99 24
36696 732 326 2
36697 732 798 93
36698 732 868 79
36699 732 123 22
36700 732 784 34
36701 732 620 19
36702 732 199 30
36703 732 372 44
36704 732 540 11
36705 732 274 43
36706 732 34 35
36707 732 165 89
36708 732 483 58
36709 732 299 91
36710 732 191 5
36711 732 661 10
36712 732 420 45
36713 732 921 86
36714 732 814 33
36715 732 862 3
36716 732 394 66
36717 732 718 20
36718 732 589 83
36719 732 849 98
36720 732 772 96
36721 732 812 46
36722 732 734 30
36723 732 838 94
36724 732 997 65
36725 732 634 18
36726 733 322 33
36727 733 887 92
36728 733 970 28
36729 733 304 70
36730 733 46 42
36731 733 451 8
36732 733 332 38
36733 733 318 65
36734 733 547 4
36735 733 228 34
36736 733 904 39
36737 733 24 76
36738 733 42 87
36739 733 807 47
36740 733 462 23
36741 733 293 10
36742 733 692 8
36743 733 367 55
36744 733 871 27
36745 733 11 9
36746 733 863 90
36747 733 40 88
36748 733 763 70
36749 733 767 52
36750 733 369 14
36751 733 568 47
36752 733 103 25
36753 733 90 32
36754 733 944 8
36755 733 940 53
36756 733 70 21
36757 733 338 79
36758 733 242 78
36759 733 635 85
36760 733 978 42
36761 733 522 35
36762 733 652 61
36763 733 946 88
36764 733 926 62
36765 733 2 92
36766 733 317 96
36767 733 444 82
36768 733 298 88
36769 733 43 49
36770 733 703 73
36771 733 224 11
36772 733 973 31
36773 733 388 15
36774 733 270 34
36775 733 248 78
36776 733 579 89
36777 733 127 3
36778 733 907 57
36779 733 762 47
36780 734 187 5
36781 734 978 47
36782 734 390 10
36783 734 394 90
36784 734 974 35
36785 734 142 52
36786 734 70 27
36787 734 557 87
36788 734 406 13
36789 734 367 70
36790 734 778 94
36791 734 528 20
36792 734 243 43
36793 734 228 23
36794 734 88 24
36795 734 959 10
36796 734 239 52
36797 734 168 67
36798 734 733 28
36799 734 310 61
36800 734 604 54
36801 734 267 19
36802 734 505 88
36803 734 831 13
36804 734 861 40
36805 734 343 18
36806 734 372 44
36807 734 405 41
36808 734 92 59
36809 734 839 71
36810 734 376 84
36811 734 802 43
36812 734 180 31
36813 734 506 57
36814 734 768 28
36815 734 821 34
36816 734 65 65
36817 734 439 61
36818 734 869 48
36819 734 71 10
36820 734 695 42
36821 734 795 15
36822 734 790 61
36823 734 688 56
36824 734 513 42
36825 734 664 5
36826 734 750 67
36827 734 639 44
36828 734 143 34
36829 734 545 37
36830 734 21 76
36831 734 614 34
36832 734 652 21
36833 734 85 44
36834 734 329 67
36835 734 249 42
36836 734 426 58
36837 734 934 55
36838 734 911 51
36839 734 427 20
36840 734 823 91
36841 734 610 87
36842 734 309 61
36843 734 708 70
36844 734 231 17
36845 735 165 57
36846 735 725 40
36847 735 709 96
36848 735 795 48
36849 735 659 78
36850 735 327 52
36851 735 42 73
36852 735 605 8
36853 735 810 40
36854 735 341 93
36855 735 961 49
36856 735 249 73
36857 735 999 10
36858 735 587 98
36859 735 732 96
36860 735 503 64
36861 735 211 59
36862 735 489 67
36863 735 305 17
36864 735 543 15
36865 735 762 66
36866 735 47 23
36867 735 104 57
36868 735 390 83
36869 735 408 42
36870 735 529 8
36871 735 348 90
36872 735 736 67
36873 735 137 72
36874 735 463 83
36875 735 268 96
36876 735 761 27
36877 735 994 68
36878 735 644 84
36879 735 837 39
36880 735 764 13
36881 735 502 16
36882 735 419 20
36883 735 125 52
36884 735 7 18
36885 735 948 42
36886 735 496 33
36887 735 439 24
36888 735 805 39
36889 735 577 39
36890 735 2 65
36891 735 158 44
36892 735 61 97
36893 735 673 32
36894 735 142 18
36895 735 639 47
36896 735 425 57
36897 735 631 30
36898 735 929 14
36899 735 771 76
36900 735 5 13
36901 735 911 49
36902 736 658 33
36903 736 54 74
36904 736 523 96
36905 736 62 88
36906 736 179 58
36907 736 289 25
36908 736 843 92
36909 736 947 83
36910 736 991 57
36911 736 459 26
36912 736 371 24
36913 736 434 81
36914 736 153 73
36915 736 87 21
36916 736 994 86
36917 736 85 67
36918 736 439 80
36919 736 998 91
36920 736 335 23
36921 736 779 34
36922 736 88 68
36923 736 7 33
36924 736 295 66
36925 736 845 91
36926 736 723 25
36927 736 292 95
36928 736 706 72
36929 736 717 9
36930 736 278 98
36931 736 713 28
36932 736 330 78
36933 736 792 55
36934 736 548 34
36935 736 801 3
36936 736 165 11
36937 736 93 12
36938 736 662 96
36939 736 690 93
36940 736 118 72
36941 736 268 35
36942 736 745 9
36943 736 411 53
36944 736 862 95
36945 736 123 92
36946 736 535 11
36947 736 516 58
36948 736 0 13
36949 736 407 54
36950 736 741 35
36951 736 425 71
36952 736 327 4
36953 736 914 59
36954 737 711 54
36955 737 687 59
36956 737 563 93
36957 737 699 4
36958 737 995 17
36959 737 612 12
36960 737 555 48
36961 737 429 40
36962 737 184 48
36963 737 167 97
36964 737 971 1
36965 737 20 26
36966 737 886 66
36967 737 857 51
36968 737 551 5
36969 737 396 30
36970 737 679 33
36971 737 383 23
36972 737 768 81
36973 737 545 94
36974 737 150 79
36975 737 808 69
36976 737 947 95
36977 737 826 62
36978 737 614 91
36979 737 265 39
36980 737 180 41
36981 737 243 46
36982 737 940 15
36983 737 131 51
36984 737 445 90
36985 737 195 38
36986 737 374 77
36987 737 501 47
36988 737 77 2
36989 737 428 87
36990 737 2 65
36991 737 8 35
36992 737 152 39
36993 737 803 16
36994 737 449 52
36995 737 622 69
36996 737 149 41
36997 737 682 20
36998 737 754 21
36999 737 848 94
37000 737 114 11
37001 737 353 65
37002 737 969 24
37003 737 136 93
37004 737 373 84
37005 738 679 68
37006 738 591 14
37007 738 84 40
37008 738 152 51
37009 738 528 61
37010 738 985 95
37011 738 920 57
37012 738 819 51
37013 738 132 57
37014 738 372 73
37015 738 334 53
37016 738 649 55
37017 738 455 12
37018 738 883 80
37019 738 600 47
37020 738 680 13
37021 738 838 70
37022 738 692 67
37023 738 150 15
37024 738 303 84
37025 738 97 99
37026 738 88 80
37027 738 527 59
37028 738 654 46
37029 738 269 15
37030 738 526 95
37031 738 74 40
37032 738 538 16
37033 738 82 7
37034 738 166 22
37035 738 359 76
37036 738 755 43
37037 738 584 1
37038 738 867 62
37039 738 886 4
37040 738 416 98
37041 738 62 78
37042 738 482 87
37043 738 812 7
37044 738 52 77
37045 738 76 79
37046 738 518 68
37047 738 77 29
37048 738 872 62
37049 738 32 87
37050 738 626 34
37051 738 530 88
37052 738 355 50
37053 738 159 79
37054 739 566 57
37055 739 448 19
37056 739 344 29
37057 739 929 83
37058 739 338 30
37059 739 486 40
37060 739 508 6
37061 739 26 90
37062 739 984 55
37063 739 631 64
37064 739 788 77
37065 739 987 85
37066 739 930 3
37067 739 96 55
37068 739 507 12
37069 739 275 9
37070 739 902 24
37071 739 364 71
37072 739 113 90
37073 739 665 31
37074 739 250 27
37075 739 92 85
37076 739 913 34
37077 739 637 94
37078 739 445 17
37079 739 476 36
37080 739 265 99
37081 739 859 48
37082 739 224 59
37083 739 108 80
37084 739 784 60
37085 739 783 21
37086 739 854 92
37087 739 689 91
37088 739 843 59
37089 740 332 81
37090 740 24 29
37091 740 53 28
37092 740 939 55
37093 740 158 100
37094 740 800 41
37095 740 973 34
37096 740 477 93
37097 740 679 92
37098 740 929 80
37099 740 60 15
37100 740 923 5
37101 740 84 87
37102 740 71 46
37103 740 141 31
37104 740 649 71
37105 740 651 68
37106 740 409 59
37107 740 278 78
37108 740 291 40
37109 740 597 27
37110 740 970 75
37111 740 672 48
37112 740 725 69
37113 740 119 67
37114 740 585 63
37115 740 485 5
37116 740 1 27
37117 740 971 13
37118 740 268 29
37119 740 178 96
37120 740 58 97
37121 740 491 88
37122 740 449 81
37123 740 28 22
37124 740 924 46
37125 740 240 10
37126 740 626 19
37127 740 861 60
37128 740 641 72
37129 740 990 11
37130 740 462 14
37131 740 147 79
37132 740 984 72
37133 740 769 48
37134 740 258 96
37135 740 422 42
37136 740 237 81
37137 741 766 85
37138 741 605 20
37139 741 554 49
37140 741 701 33
37141 741 303 84
37142 741 564 1
37143 741 744 68
37144 741 465 98
37145 741 614 26
37146 741 63 9
37147 741 256 92
37148 741 195 94
37149 741 21 85
37150 741 663 43
37151 741 411 5
37152 741 664 46
37153 741 192 66
37154 741 449 16
37155 741 389 8
37156 741 306 78
37157 741 455 25
37158 741 729 1
37159 741 27 38
37160 741 999 7
37161 741 453 36
37162 741 679 74
37163 741 754 75
37164 741 594 50
37165 741 352 1
37166 741 152 68
37167 741 933 64
37168 741 885 86
37169 741 478 29
37170 741 33 71
37171 741 388 27
37172 741 258 19
37173 741 226 63
37174 741 482 56
37175 741 886 39
37176 741 232 23
37177 741 596 74
37178 741 974 47
37179 741 61 28
37180 741 798 88
37181 741 186 92
37182 741 476 73
37183 741 499 34
37184 741 761 99
37185 741 599 96
37186 741 134 92
37187 741 579 53
37188 741 976 18
37189 741 168 72
37190 741 190 69
37191 741 304 87
37192 741 100 25
37193 741 174 41
37194 741 241 80
37195 741 14 34
37196 741 780 57
37197 742 249 39
37198 742 19 17
37199 742 681 87
37200 742 358 95
37201 742 540 14
37202 742 337 51
37203 742 473 17
37204 742 839 35
37205 742 713 73
37206 742 740 79
37207 742 47 67
37208 742 368 37
37209 742 129 54
37210 742 721 92
37211 742 512 21
37212 742 224 24
37213 742 706 67
37214 742 311 46
37215 742 380 32
37216 742 414 48
37217 742 689 75
37218 742 496 37
37219 742 978 40
37220 742 82 42
37221 742 450 93
37222 742 762 81
37223 742 269 54
37224 742 44 73
37225 742 566 80
37226 742 136 26
37227 742 406 60
37228 742 465 77
37229 742 399 13
37230 742 416 23
37231 742 259 48
37232 742 864 75
37233 742 949 13
37234 742 181 76
37235 742 634 46
37236 742 684 70
37237 742 626 99
37238 742 189 17
37239 742 66 63
37240 742 788 58
37241 742 373 85
37242 742 180 14
37243 742 738 57
37244 742 893 86
37245 742 682 59
37246 742 516 97
37247 742 273 52
37248 742 896 42
37249 742 989 73
37250 742 265 93
37251 742 13 56
37252 742 993 63
37253 742 605 91
37254 742 57 36
37255 742 739 82
37256 742 898 65
37257 743 353 84
37258 743 329 34
37259 743 701 70
37260 743 903 69
37261 743 922 33
37262 743 208 6
37263 743 31 82
37264 743 317 95
37265 743 831 65
37266 743 405 33
37267 743 622 16
37268 743 629 51
37269 743 739 3
37270 743 668 87
37271 743 654 15
37272 743 576 52
37273 743 51 87
37274 743 853 8
37275 743 337 40
37276 743 916 28
37277 743 929 54
37278 743 810 75
37279 743 14 74
37280 743 765 39
37281 743 264 57
37282 743 662 100
37283 743 944 9
37284 743 675 46
37285 743 964 8
37286 743 816 25
37287 743 891 19
37288 743 539 80
37289 743 390 43
37290 743 673 55
37291 743 9 85
37292 743 480 3
37293 743 793 30
37294 743 627 60
37295 743 224 28
37296 743 468 39
37297 743 895 89
37298 743 663 56
37299 743 209 93
37300 743 988 44
37301 743 726 75
37302 743 456 36
37303 743 594 83
37304 743 11 61
37305 743 7 3
37306 743 91 89
37307 743 609 92
37308 743 363 99
37309 743 607 84
37310 743 128 83
37311 743 818 69
37312 743 921 54
37313 744 52 73
37314 744 349 31
37315 744 820 36
37316 744 474 76
37317 744 922 31
37318 744 795 78
37319 744 336 88
37320 744 540 46
37321 744 502 1
37322 744 932 92
37323 744 458 85
37324 744 185 61
37325 744 222 99
37326 744 396 93
37327 744 297 92
37328 744 135 49
37329 744 848 82
37330 744 515 73
37331 744 704 39
37332 744 227 12
37333 744 783 15
37334 744 634 16
37335 744 493 41
37336 744 780 56
37337 744 657 82
37338 744 54 35
37339 744 696 2
37340 744 550 21
37341 744 184 22
37342 744 386 7
37343 744 182 93
37344 744 4 41
37345 744 268 99
37346 744 667 74
37347 744 483 79
37348 744 479 90
37349 744 235 23
37350 744 307 41
37351 744 716 62
37352 744 195 73
37353 744 740 18
37354 744 468 27
37355 744 985 100
37356 744 565 80
37357 744 112 34
37358 744 947 4
37359 744 738 100
37360 744 225 31
37361 744 881 72
37362 744 46 14
37363 744 168 32
37364 744 627 6
37365 744 612 76
37366 744 490 3
37367 744 296 75
37368 744 626 44
37369 744 248 81
37370 745 868 43
37371 745 780 81
37372 745 169 19
37373 745 421 10
37374 745 537 90
37375 745 954 6
37376 745 131 36
37377 745 847 99
37378 745 252 30
37379 745 286 94
37380 745 60 59
37381 745 908 84
37382 745 899 79
37383 745 482 76
37384 745 290 43
37385 745 665 84
37386 745 971 89
37387 745 342 83
37388 745 419 7
37389 745 73 10
37390 745 722 27
37391 745 348 82
37392 745 203 43
37393 745 978 50
37394 745 683 97
37395 745 759 18
37396 745 147 17
37397 745 489 82
37398 745 291 55
37399 745 611 35
37400 745 150 80
37401 745 180 32
37402 745 732 35
37403 745 500 78
37404 745 242 37
37405 745 494 52
37406 745 447 87
37407 745 502 6
37408 745 115 90
37409 745 770 9
37410 745 988 41
37411 745 155 46
37412 745 550 72
37413 745 391 54
37414 745 817 67
37415 745 481 78
37416 745 466 93
37417 745 897 45
37418 745 871 15
37419 745 449 96
37420 745 512 34
37421 745 768 91
37422 745 752 95
37423 745 784 46
37424 745 435 24
37425 745 576 100
37426 746 510 18
37427 746 902 9
37428 746 498 29
37429 746 872 86
37430 746 307 69
37431 746 47 8
37432 746 841 83
37433 746 138 37
37434 746 134 1
37435 746 993 41
37436 746 3 83
37437 746 920 43
37438 746 741 61
37439 746 954 27
37440 746 678 10
37441 746 940 45
37442 746 287 49
37443 746 35 78
37444 746 254 23
37445 746 967 70
37446 746 66 16
37447 746 286 21
37448 746 604 69
37449 746 731 23
37450 746 610 12
37451 746 508 27
37452 746 596 47
37453 746 724 87
37454 746 950 95
37455 746 384 89
37456 746 836 60
37457 746 454 76
37458 746 158 15
37459 746 202 45
37460 746 391 32
37461 746 904 23
37462 746 478 87
37463 746 493 26
37464 746 673 65
37465 746 698 51
37466 746 332 19
37467 746 939 93
37468 746 154 70
37469 746 106 23
37470 746 518 72
37471 746 553 6
37472 746 593 6
37473 746 459 61
37474 746 272 72
37475 746 170 17
37476 746 787 43
37477 746 671 14
37478 746 421 44
37479 746 313 37
37480 746 818 78
37481 746 799 73
37482 747 817 99
37483 747 173 64
37484 747 925 18
37485 747 417 31
37486 747 772 46
37487 747 235 91
37488 747 521 11
37489 747 322 60
37490 747 447 25
37491 747 14 26
37492 747 629 61
37493 747 542 51
37494 747 634 71
37495 747 878 74
37496 747 138 97
37497 747 49 90
37498 747 573 23
37499 747 22 17
37500 747 513 45
37501 747 502 93
37502 747 615 4
37503 747 237 96
37504 747 782 89
37505 747 27 64
37506 747 559 83
37507 747 912 60
37508 747 952 58
37509 747 263 73
37510 747 231 68
37511 747 783 74
37512 747 58 46
37513 747 676 18
37514 747 111 86
37515 747 224 71
37516 747 996 98
37517 747 24 75
37518 747 271 55
37519 747 34 69
37520 747 420 93
37521 747 477 96
37522 747 62 58
37523 747 779 94
37524 747 768 74
37525 747 222 67
37526 747 764 47
37527 747 259 62
37528 748 499 65
37529 748 79 51
37530 748 333 31
37531 748 337 45
37532 748 249 71
37533 748 352 22
37534 748 252 97
37535 748 597 79
37536 748 511 47
37537 748 347 23
37538 748 807 15
37539 748 237 36
37540 748 827 31
37541 748 443 63
37542 748 803 48
37543 748 583 50
37544 748 911 94
37545 748 346 10
37546 748 724 87
37547 748 818 77
37548 748 110 83
37549 748 981 69
37550 748 573 65
37551 748 687 12
37552 748 180 55
37553 748 209 42
37554 748 121 77
37555 748 392 6
37556 748 921 1
37557 748 975 8
37558 748 564 96
37559 748 568 84
37560 748 208 77
37561 748 165 55
37562 748 241 35
37563 748 756 25
37564 748 670 21
37565 748 378 50
37566 748 912 72
37567 748 920 44
37568 748 664 37
37569 748 50 87
37570 749 101 49
37571 749 981 37
37572 749 73 93
37573 749 988 87
37574 749 678 81
37575 749 387 98
37576 749 17 64
37577 749 316 89
37578 749 90 97
37579 749 717 9
37580 749 965 26
37581 749 696 19
37582 749 571 22
37583 749 281 22
37584 749 913 7
37585 749 2 97
37586 749 638 47
37587 749 392 24
37588 749 882 37
37589 749 145 2
37590 749 673 69
37591 749 639 98
37592 749 914 38
37593 749 894 82
37594 749 34 16
37595 749 850 97
37596 749 237 49
37597 749 599 92
37598 749 692 2
37599 749 397 33
37600 749 754 52
37601 749 619 56
37602 749 833 25
37603 749 114 55
37604 749 220 62
37605 749 953 69
37606 749 736 6
37607 749 3 27
37608 749 709 74
37609 749 867 4
37610 749 448 6
37611 749 45 32
37612 749 787 9
37613 749 233 34
37614 749 751 99
37615 749 87 29
37616 749 265 75
37617 749 339 98
37618 749 580 67
37619 749 46 53
37620 749 534 95
37621 749 449 42
37622 749 373 46
37623 750 594 58
37624 750 726 78
37625 750 769 15
37626 750 702 64
37627 750 672 39
37628 750 275 96
37629 750 740 56
37630 750 562 82
37631 750 789 41
37632 750 493 66
37633 750 568 73
37634 750 850 60
37635 750 478 55
37636 750 343 28
37637 750 479 74
37638 750 148 74
37639 750 578 80
37640 750 106 86
37641 750 827 96
37642 750 169 20
37643 750 499 43
37644 750 723 40
37645 750 859 61
37646 750 114 93
37647 750 176 99
37648 750 919 68
37649 750 547 63
37650 750 84 60
37651 750 616 89
37652 750 75 60
37653 750 157 56
37654 750 954 87
37655 750 715 88
37656 750 196 98
37657 750 345 25
37658 750 504 60
37659 750 409 61
37660 750 71 5
37661 750 500 73
37662 750 136 64
37663 750 374 46
37664 750 389 21
37665 751 639 61
37666 751 275 53
37667 751 292 54
37668 751 930 25
37669 751 946 91
37670 751 738 98
37671 751 479 25
37672 751 18 41
37673 751 340 70
37674 751 317 11
37675 751 924 31
37676 751 492 33
37677 751 727 52
37678 751 641 50
37679 751 806 73
37680 751 354 95
37681 751 355 57
37682 751 335 35
37683 751 631 42
37684 751 783 55
37685 751 892 18
37686 751 480 14
37687 751 642 18
37688 751 661 83
37689 751 955 1
37690 751 529 3
37691 751 916 79
37692 751 547 63
37693 751 550 68
37694 751 682 81
37695 751 145 11
37696 751 827 34
37697 751 931 53
37698 751 698 29
37699 751 521 48
37700 751 941 88
37701 751 589 41
37702 751 189 22
37703 751 812 52
37704 751 221 38
37705 751 234 20
37706 751 667 34
37707 751 542 54
37708 751 309 27
37709 751 755 7
37710 751 447 27
37711 751 968 89
37712 751 879 88
37713 751 679 49
37714 751 568 14
37715 751 8 74
37716 751 703 78
37717 751 29 40
37718 751 834 79
37719 751 868 58
37720 751 146 62
37721 751 232 69
37722 752 231 90
37723 752 334 4
37724 752 487 75
37725 752 874 88
37726 752 235 78
37727 752 821 5
37728 752 896 28
37729 752 603 48
37730 752 179 92
37731 752 822 34
37732 752 117 74
37733 752 942 90
37734 752 233 38
37735 752 732 3
37736 752 186 98
37737 752 634 52
37738 752 429 98
37739 752 609 36
37740 752 164 39
37741 752 851 4
37742 752 195 80
37743 752 838 33
37744 752 32 24
37745 752 126 43
37746 752 142 12
37747 752 733 68
37748 752 37 16
37749 752 408 45
37750 752 693 7
37751 752 578 2
37752 752 453 74
37753 752 943 22
37754 752 959 14
37755 752 411 37
37756 752 397 43
37757 752 891 23
37758 752 531 46
37759 752 567 95
37760 752 351 86
37761 752 252 33
37762 752 713 13
37763 752 861 91
37764 752 320 37
37765 752 484 42
37766 752 582 77
37767 752 502 96
37768 752 274 31
37769 752 663 64
37770 752 618 40
37771 752 804 70
37772 752 671 36
37773 752 769 100
37774 752 622 37
37775 752 136 81
37776 753 912 20
37777 753 431 43
37778 753 62 8
37779 753 229 13
37780 753 13 50
37781 753 719 64
37782 753 419 30
37783 753 887 38
37784 753 4 34
37785 753 425 8
37786 753 187 45
37787 753 191 87
37788 753 58 95
37789 753 936 95
37790 753 155 15
37791 753 575 13
37792 753 420 80
37793 753 89 95
37794 753 915 82
37795 753 902 82
37796 753 400 5
37797 753 32 89
37798 753 167 76
37799 753 985 35
37800 753 3 13
37801 753 728 62
37802 753 910 70
37803 753 965 17
37804 753 162 76
37805 753 455 78
37806 753 279 95
37807 753 793 94
37808 753 196 79
37809 753 778 34
37810 753 576 18
37811 753 38 20
37812 753 520 98
37813 753 762 41
37814 753 941 48
37815 753 445 6
37816 753 236 68
37817 753 562 1
37818 753 291 28
37819 753 755 45
37820 753 567 17
37821 753 440 68
37822 753 493 1
37823 753 327 52
37824 753 219 16
37825 753 396 54
37826 753 282 65
37827 754 581 32
37828 754 967 10
37829 754 686 34
37830 754 692 12
37831 754 571 32
37832 754 37 80
37833 754 62 77
37834 754 976 34
37835 754 185 53
37836 754 213 47
37837 754 709 90
37838 754 702 17
37839 754 663 79
37840 754 170 44
37841 754 898 32
37842 754 433 50
37843 754 552 77
37844 754 735 95
37845 754 217 41
37846 754 611 80
37847 754 258 71
37848 754 865 86
37849 754 962 57
37850 754 79 45
37851 754 380 73
37852 754 800 70
37853 754 828 87
37854 754 429 25
37855 754 351 85
37856 754 857 90
37857 754 67 18
37858 754 864 47
37859 754 946 52
37860 754 167 8
37861 754 909 58
37862 754 789 77
37863 754 44 61
37864 754 705 17
37865 754 323 19
37866 754 724 18
37867 754 458 49
37868 754 959 67
37869 754 878 84
37870 754 49 16
37871 754 733 23
37872 754 625 54
37873 754 206 59
37874 754 257 38
37875 755 777 49
37876 755 338 40
37877 755 617 57
37878 755 180 84
37879 755 451 94
37880 755 829 13
37881 755 760 21
37882 755 607 20
37883 755 337 23
37884 755 591 51
37885 755 656 92
37886 755 498 70
37887 755 123 70
37888 755 212 90
37889 755 810 75
37890 755 897 52
37891 755 492 2
37892 755 596 87
37893 755 633 59
37894 755 201 40
37895 755 155 72
37896 755 380 43
37897 755 254 10
37898 755 33 65
37899 755 486 92
37900 755 835 33
37901 755 407 43
37902 755 962 57
37903 755 250 12
37904 755 831 51
37905 755 24 90
37906 755 385 86
37907 755 793 60
37908 755 7 50
37909 755 743 67
37910 755 612 9
37911 755 762 50
37912 755 96 8
37913 755 371 77
37914 755 56 47
37915 755 812 69
37916 755 335 2
37917 755 270 79
37918 755 46 20
37919 755 938 84
37920 755 853 52
37921 755 739 62
37922 756 520 38
37923 756 649 93
37924 756 395 74
37925 756 715 46
37926 756 102 31
37927 756 330 42
37928 756 0 10
37929 756 870 15
37930 756 116 25
37931 756 82 1
37932 756 408 94
37933 756 658 15
37934 756 858 29
37935 756 345 70
37936 756 353 61
37937 756 81 65
37938 756 899 68
37939 756 34 54
37940 756 477 43
37941 756 230 82
37942 756 766 85
37943 756 131 89
37944 756 653 72
37945 756 714 41
37946 756 419 19
37947 756 260 71
37948 756 439 5
37949 756 695 1
37950 756 106 56
37951 756 462 73
37952 756 676 42
37953 756 599 36
37954 756 997 60
37955 756 402 77
37956 756 406 44
37957 756 335 96
37958 756 341 86
37959 756 944 22
37960 756 970 65
37961 756 791 89
37962 756 874 66
37963 756 522 89
37964 757 650 65
37965 757 330 100
37966 757 838 49
37967 757 605 14
37968 757 450 57
37969 757 674 61
37970 757 637 96
37971 757 400 29
37972 757 540 53
37973 757 941 16
37974 757 713 36
37975 757 164 49
37976 757 629 2
37977 757 425 2
37978 757 250 51
37979 757 723 66
37980 757 143 32
37981 757 411 80
37982 757 584 56
37983 757 307 97
37984 757 906 59
37985 757 633 11
37986 757 640 29
37987 757 798 10
37988 757 242 22
37989 757 608 24
37990 757 552 49
37991 757 319 40
37992 757 514 99
37993 757 82 52
37994 757 740 28
37995 757 25 22
37996 757 361 22
37997 757 515 4
37998 757 135 54
37999 757 277 83
38000 757 231 64
38001 757 771 32
38002 757 444 26
38003 757 883 2
38004 757 229 80
38005 757 159 24
38006 757 806 84
38007 757 837 21
38008 757 909 23
38009 757 985 44
38010 757 731 10
38011 757 119 55
38012 757 198 42
38013 757 358 78
38014 757 784 93
38015 757 51 28
38016 757 765 54
38017 757 531 91
38018 757 257 89
38019 757 610 51
38020 757 59 67
38021 758 906 34
38022 758 291 46
38023 758 566 65
38024 758 30 50
38025 758 555 69
38026 758 257 46
38027 758 659 35
38028 758 475 28
38029 758 444 3
38030 758 47 30
38031 758 862 75
38032 758 62 66
38033 758 710 83
38034 758 730 32
38035 758 96 100
38036 758 246 87
38037 758 824 50
38038 758 110 87
38039 758 666 51
38040 758 568 92
38041 758 101 98
38042 758 520 9
38043 758 281 44
38044 758 336 57
38045 758 872 19
38046 758 467 21
38047 758 402 67
38048 758 65 26
38049 758 461 93
38050 758 258 34
38051 758 948 63
38052 758 178 59
38053 758 714 90
38054 758 966 3
38055 758 489 84
38056 758 172 51
38057 758 899 16
38058 758 925 57
38059 758 501 84
38060 758 454 5
38061 758 805 1
38062 758 610 69
38063 758 514 77
38064 758 209 92
38065 759 753 51
38066 759 475 33
38067 759 502 86
38068 759 501 39
38069 759 948 58
38070 759 449 82
38071 759 401 21
38072 759 409 41
38073 759 498 93
38074 759 701 16
38075 759 558 27
38076 759 390 5
38077 759 803 57
38078 759 119 68
38079 759 258 34
38080 759 327 94
38081 759 702 88
38082 759 52 16
38083 759 698 91
38084 759 25 95
38085 759 967 55
38086 759 182 67
38087 759 425 32
38088 759 469 83
38089 759 849 88
38090 759 576 87
38091 759 450 88
38092 759 393 58
38093 759 247 72
38094 759 745 91
38095 759 279 32
38096 759 740 14
38097 759 411 95
38098 759 358 98
38099 759 645 75
38100 759 633 5
38101 759 741 17
38102 759 444 77
38103 759 691 89
38104 759 277 63
38105 759 570 73
38106 759 473 82
38107 759 459 47
38108 759 553 70
38109 759 260 57
38110 759 325 96
38111 759 400 21
38112 759 845 47
38113 759 777 88
38114 759 264 35
38115 759 812 52
38116 759 388 81
38117 760 940 68
38118 760 596 20
38119 760 170 84
38120 760 258 69
38121 760 430 18
38122 760 489 31
38123 760 602 25
38124 760 930 41
38125 760 325 72
38126 760 24 23
38127 760 902 74
38128 760 114 44
38129 760 857 67
38130 760 187 60
38131 760 984 46
38132 760 125 96
38133 760 998 18
38134 760 797 59
38135 760 899 15
38136 760 218 91
38137 760 59 24
38138 760 788 90
38139 760 876 67
38140 760 859 63
38141 760 801 29
38142 760 8 79
38143 760 318 2
38144 760 632 100
38145 760 691 99
38146 760 677 56
38147 760 791 17
38148 760 688 32
38149 760 913 58
38150 760 720 82
38151 760 747 96
38152 760 986 65
38153 760 584 78
38154 760 844 90
38155 760 946 2
38156 760 352 95
38157 760 625 48
38158 760 611 79
38159 760 764 1
38160 760 179 82
38161 760 203 12
38162 760 110 97
38163 760 636 32
38164 760 443 42
38165 760 50 18
38166 760 374 8
38167 760 839 97
38168 760 827 9
38169 760 624 26
38170 760 420 31
38171 761 295 58
38172 761 214 71
38173 761 3 51
38174 761 93 19
38175 761 960 51
38176 761 79 8
38177 761 891 35
38178 761 226 92
38179 761 791 47
38180 761 621 71
38181 761 843 37
38182 761 375 33
38183 761 728 68
38184 761 599 96
38185 761 291 17
38186 761 811 11
38187 761 208 39
38188 761 572 34
38189 761 989 91
38190 761 333 12
38191 761 542 83
38192 761 536 59
38193 761 851 28
38194 761 112 92
38195 761 695 12
38196 761 592 99
38197 761 20 80
38198 761 351 39
38199 761 308 96
38200 761 987 45
38201 761 265 98
38202 761 876 77
38203 761 752 66
38204 761 155 8
38205 761 367 82
38206 761 478 37
38207 761 638 12
38208 761 259 22
38209 761 70 93
38210 761 98 29
38211 761 910 34
38212 761 483 27
38213 761 1 93
38214 761 157 10
38215 761 255 19
38216 761 576 43
38217 761 189 45
38218 761 83 82
38219 761 864 37
38220 761 241 9
38221 761 261 28
38222 761 747 61
38223 762 43 2
38224 762 790 79
38225 762 942 7
38226 762 896 90
38227 762 512 56
38228 762 536 63
38229 762 756 11
38230 762 584 20
38231 762 326 100
38232 762 473 92
38233 762 747 32
38234 762 119 52
38235 762 246 91
38236 762 690 91
38237 762 637 34
38238 762 49 55
38239 762 396 2
38240 762 639 55
38241 762 361 93
38242 762 47 33
38243 762 933 96
38244 762 271 40
38245 762 150 40
38246 762 627 13
38247 762 419 98
38248 762 399 76
38249 762 838 100
38250 762 393 84
38251 762 73 17
38252 762 647 40
38253 762 290 66
38254 762 714 55
38255 762 869 44
38256 762 263 68
38257 762 992 20
38258 762 136 81
38259 762 203 86
38260 762 266 14
38261 762 461 95
38262 762 121 83
38263 762 288 81
38264 762 874 13
38265 762 470 13
38266 762 824 12
38267 762 31 19
38268 763 893 25
38269 763 404 49
38270 763 561 99
38271 763 884 46
38272 763 552 12
38273 763 964 16
38274 763 65 21
38275 763 687 36
38276 763 761 82
38277 763 563 7
38278 763 959 1
38279 763 932 47
38280 763 862 61
38281 763 295 72
38282 763 614 94
38283 763 586 36
38284 763 574 41
38285 763 318 83
38286 763 138 3
38287 763 557 96
38288 763 453 50
38289 763 202 41
38290 763 967 21
38291 763 920 74
38292 763 547 65
38293 763 721 31
38294 763 968 65
38295 763 58 90
38296 763 916 43
38297 763 688 71
38298 763 450 38
38299 763 748 18
38300 763 31 86
38301 763 483 97
38302 763 136 4
38303 763 977 57
38304 763 331 68
38305 763 681 38
38306 763 292 41
38307 763 153 9
38308 763 233 38
38309 763 85 61
38310 763 792 95
38311 763 625 46
38312 763 819 40
38313 763 312 43
38314 763 121 79
38315 763 310 77
38316 763 20 78
38317 763 722 65
38318 763 284 86
38319 763 416 77
38320 764 894 95
38321 764 89 52
38322 764 720 64
38323 764 647 51
38324 764 266 92
38325 764 115 93
38326 764 708 70
38327 764 365 61
38328 764 787 3
38329 764 231 33
38330 764 782 78
38331 764 504 14
38332 764 24 73
38333 764 47 89
38334 764 759 63
38335 764 827 16
38336 764 196 94
38337 764 296 72
38338 764 96 60
38339 764 979 70
38340 764 60 58
38341 764 756 49
38342 764 21 8
38343 764 459 52
38344 764 774 50
38345 764 158 34
38346 764 143 27
38347 764 768 7
38348 764 580 18
38349 764 651 33
38350 764 249 23
38351 764 432 76
38352 764 279 3
38353 764 17 21
38354 764 511 76
38355 764 928 98
38356 764 835 16
38357 764 453 94
38358 764 39 77
38359 764 852 36
38360 764 572 67
38361 764 957 90
38362 764 283 75
38363 764 542 86
38364 764 267 3
38365 764 736 64
38366 764 30 78
38367 764 689 66
38368 765 374 49
38369 765 696 26
38370 765 494 8
38371 765 757 92
38372 765 235 53
38373 765 512 66
38374 765 953 47
38375 765 692 20
38376 765 949 5
38377 765 396 99
38378 765 395 67
38379 765 32 41
38380 765 428 78
38381 765 634 6
38382 765 415 63
38383 765 509 23
38384 765 361 39
38385 765 743 3
38386 765 835 53
38387 765 160 68
38388 765 347 36
38389 765 238 67
38390 765 760 95
38391 765 868 93
38392 765 240 64
38393 765 397 66
38394 765 740 73
38395 765 954 5
38396 765 460 44
38397 765 552 58
38398 765 485 24
38399 765 174 71
38400 765 472 81
38401 765 82 37
38402 765 819 9
38403 765 496 98
38404 765 2 49
38405 765 773 26
38406 765 768 99
38407 765 904 20
38408 765 234 63
38409 765 392 69
38410 765 992 45
38411 765 691 53
38412 765 766 75
38413 766 654 76
38414 766 472 81
38415 766 808 10
38416 766 962 44
38417 766 910 36
38418 766 338 29
38419 766 391 21
38420 766 257 77
38421 766 888 58
38422 766 138 56
38423 766 845 73
38424 766 921 55
38425 766 718 53
38426 766 112 89
38427 766 202 39
38428 766 294 48
38429 766 142 96
38430 766 958 14
38431 766 126 8
38432 766 146 16
38433 766 482 85
38434 766 663 1
38435 766 219 52
38436 766 326 45
38437 766 548 51
38438 766 6 72
38439 766 5 16
38440 766 329 27
38441 766 516 39
38442 766 300 67
38443 766 207 15
38444 766 199 89
38445 766 580 35
38446 766 992 79
38447 766 1 60
38448 766 131 12
38449 766 714 25
38450 766 367 39
38451 766 289 4
38452 766 930 7
38453 766 424 20
38454 766 642 90
38455 766 87 12
38456 766 455 10
38457 766 396 72
38458 767 358 14
38459 767 474 33
38460 767 748 57
38461 767 677 79
38462 767 840 24
38463 767 913 88
38464 767 927 28
38465 767 661 1
38466 767 313 21
38467 767 812 56
38468 767 274 13
38469 767 15 93
38470 767 870 2
38471 767 299 90
38472 767 88 1
38473 767 445 8
38474 767 722 37
38475 767 117 92
38476 767 134 13
38477 767 291 15
38478 767 377 13
38479 767 633 100
38480 767 295 36
38481 767 209 95
38482 767 880 90
38483 767 344 52
38484 767 717 60
38485 767 453 53
38486 767 432 86
38487 767 867 40
38488 767 257 65
38489 767 619 99
38490 767 690 8
38491 767 698 77
38492 767 536 18
38493 767 225 31
38494 767 435 87
38495 767 122 79
38496 767 298 2
38497 767 324 19
38498 767 265 96
38499 767 772 96
38500 767 177 3
38501 767 300 39
38502 767 279 82
38503 767 384 6
38504 767 925 40
38505 767 67 43
38506 767 864 28
38507 767 155 7
38508 767 691 13
38509 767 5 63
38510 767 189 61
38511 768 414 10
38512 768 989 49
38513 768 803 26
38514 768 475 64
38515 768 959 52
38516 768 695 74
38517 768 513 58
38518 768 243 6
38519 768 731 62
38520 768 447 30
38521 768 222 94
38522 768 668 21
38523 768 206 27
38524 768 92 40
38525 768 165 49
38526 768 774 34
38527 768 180 29
38528 768 456 88
38529 768 877 17
38530 768 154 27
38531 768 838 93
38532 768 650 39
38533 768 346 83
38534 768 911 31
38535 768 299 1
38536 768 939 66
38537 768 137 33
38538 768 707 41
38539 768 947 60
38540 768 722 52
38541 768 740 17
38542 768 362 67
38543 768 226 41
38544 768 378 45
38545 768 816 9
38546 768 930 1
38547 768 804 76
38548 768 725 78
38549 768 393 45
38550 768 699 25
38551 768 926 33
38552 768 797 89
38553 768 469 54
38554 768 627 31
38555 768 717 38
38556 768 113 56
38557 768 550 60
38558 768 335 62
38559 768 479 76
38560 768 460 3
38561 768 231 44
38562 768 576 45
38563 768 47 66
38564 768 945 24
38565 768 900 9
38566 768 518 36
38567 768 348 25
38568 768 790 80
38569 769 698 47
38570 769 680 69
38571 769 583 2
38572 769 141 95
38573 769 530 22
38574 769 74 98
38575 769 921 72
38576 769 910 18
38577 769 942 82
38578 769 416 12
38579 769 977 63
38580 769 469 57
38581 769 762 39
38582 769 14 47
38583 769 529 1
38584 769 602 46
38585 769 893 34
38586 769 325 79
38587 769 107 89
38588 769 462 18
38589 769 985 10
38590 769 890 77
38591 769 863 40
38592 769 875 49
38593 769 201 48
38594 769 135 72
38595 769 649 59
38596 769 685 12
38597 769 368 15
38598 769 458 97
38599 769 629 31
38600 769 805 89
38601 769 954 58
38602 769 389 72
38603 769 65 80
38604 769 620 84
38605 769 200 38
38606 769 667 90
38607 769 535 6
38608 769 543 47
38609 769 555 46
38610 769 744 68
38611 769 311 70
38612 769 64 71
38613 769 622 13
38614 769 164 97
38615 769 192 83
38616 770 117 66
38617 770 180 21
38618 770 798 12
38619 770 183 57
38620 770 129 54
38621 770 110 67
38622 770 517 54
38623 770 325 70
38624 770 990 17
38625 770 989 2
38626 770 258 86
38627 770 836 10
38628 770 194 87
38629 770 459 31
38630 770 181 55
38631 770 617 95
38632 770 251 20
38633 770 188 71
38634 770 425 73
38635 770 386 98
38636 770 590 76
38637 770 487 59
38638 770 879 42
38639 770 334 45
38640 770 296 71
38641 770 947 49
38642 770 974 59
38643 770 20 17
38644 770 100 63
38645 770 711 78
38646 770 852 2
38647 770 387 99
38648 770 90 6
38649 770 753 7
38650 770 93 26
38651 770 448 12
38652 770 706 13
38653 770 673 85
38654 770 252 92
38655 770 568 94
38656 770 629 40
38657 770 928 65
38658 770 921 42
38659 770 734 2
38660 770 730 7
38661 770 255 5
38662 770 760 57
38663 770 889 72
38664 770 458 18
38665 770 867 79
38666 770 367 90
38667 771 741 94
38668 771 440 59
38669 771 486 22
38670 771 88 86
38671 771 58 84
38672 771 385 37
38673 771 525 63
38674 771 708 47
38675 771 370 3
38676 771 899 79
38677 771 744 13
38678 771 26 6
38679 771 157 5
38680 771 350 61
38681 771 424 46
38682 771 99 18
38683 771 687 58
38684 771 811 16
38685 771 18 92
38686 771 436 53
38687 771 508 84
38688 771 827 50
38689 771 785 97
38690 771 514 90
38691 771 244 28
38692 771 472 6
38693 771 456 64
38694 771 574 62
38695 771 143 6
38696 771 199 89
38697 771 591 63
38698 771 615 72
38699 771 55 30
38700 771 565 33
38701 771 696 96
38702 771 804 99
38703 771 10 87
38704 771 216 20
38705 771 772 80
38706 771 276 47
38707 771 164 29
38708 771 955 38
38709 771 475 19
38710 771 15 47
38711 772 702 35
38712 772 134 38
38713 772 148 66
38714 772 173 61
38715 772 221 94
38716 772 379 77
38717 772 709 72
38718 772 531 94
38719 772 676 5
38720 772 691 98
38721 772 486 54
38722 772 882 4
38723 772 713 29
38724 772 257 21
38725 772 668 55
38726 772 32 75
38727 772 518 6
38728 772 160 39
38729 772 750 87
38730 772 455 10
38731 772 335 9
38732 772 26 94
38733 772 650 56
38734 772 507 9
38735 772 123 89
38736 772 321 90
38737 772 623 89
38738 772 162 56
38739 772 517 78
38740 772 150 33
38741 772 407 94
38742 772 567 22
38743 772 747 33
38744 772 740 5
38745 772 981 12
38746 772 962 67
38747 772 35 32
38748 772 147 95
38749 772 349 11
38750 772 66 64
38751 772 243 14
38752 772 265 23
38753 772 526 70
38754 772 312 81
38755 772 891 49
38756 772 216 66
38757 772 703 70
38758 772 504 80
38759 772 79 25
38760 772 229 18
38761 773 985 23
38762 773 52 90
38763 773 467 20
38764 773 357 60
38765 773 869 49
38766 773 549 76
38767 773 201 23
38768 773 695 34
38769 773 142 45
38770 773 827 100
38771 773 303 12
38772 773 312 96
38773 773 391 16
38774 773 94 85
38775 773 98 79
38776 773 718 23
38777 773 944 14
38778 773 599 18
38779 773 117 61
38780 773 606 57
38781 773 186 95
38782 773 849 49
38783 773 57 60
38784 773 46 16
38785 773 15 83
38786 773 585 29
38787 773 666 81
38788 773 103 99
38789 773 471 23
38790 773 393 68
38791 773 149 74
38792 773 804 77
38793 773 91 85
38794 773 879 37
38795 773 229 90
38796 773 734 55
38797 773 487 92
38798 773 249 99
38799 773 178 81
38800 773 860 11
38801 773 830 18
38802 773 45 36
38803 773 395 26
38804 773 816 95
38805 773 389 11
38806 773 729 48
38807 773 417 70
38808 773 654 87
38809 773 770 79
38810 773 923 27
38811 773 682 29
38812 773 749 51
38813 774 357 68
38814 774 59 25
38815 774 672 8
38816 774 47 81
38817 774 323 46
38818 774 58 42
38819 774 711 73
38820 774 174 95
38821 774 891 72
38822 774 819 94
38823 774 226 27
38824 774 993 69
38825 774 573 100
38826 774 201 82
38827 774 178 96
38828 774 202 79
38829 774 542 91
38830 774 54 55
38831 774 399 41
38832 774 219 35
38833 774 964 73
38834 774 838 34
38835 774 584 16
38836 774 87 78
38837 774 664 77
38838 774 558 1
38839 774 815 81
38840 774 231 88
38841 774 681 64
38842 774 369 81
38843 774 259 84
38844 774 587 21
38845 774 813 93
38846 774 306 4
38847 774 798 3
38848 774 616 41
38849 774 998 59
38850 774 273 72
38851 774 130 18
38852 774 82 84
38853 774 950 10
38854 774 146 84
38855 774 958 44
38856 774 30 49
38857 774 494 25
38858 774 467 76
38859 774 944 29
38860 774 111 12
38861 774 905 85
38862 774 727 38
38863 774 946 96
38864 774 55 88
38865 774 629 47
38866 774 57 20
38867 775 26 88
38868 775 287 66
38869 775 398 89
38870 775 329 46
38871 775 395 36
38872 775 164 83
38873 775 968 73
38874 775 814 75
38875 775 879 71
38876 775 384 9
38877 775 487 55
38878 775 437 12
38879 775 912 50
38880 775 887 84
38881 775 189 77
38882 775 639 59
38883 775 730 71
38884 775 866 73
38885 775 831 76
38886 775 262 13
38887 775 993 17
38888 775 108 52
38889 775 218 94
38890 775 48 29
38891 775 210 62
38892 775 462 58
38893 775 74 23
38894 775 441 28
38895 775 491 93
38896 775 855 74
38897 775 514 42
38898 775 962 57
38899 775 1 66
38900 775 941 82
38901 775 32 21
38902 775 967 68
38903 775 550 90
38904 775 798 96
38905 775 470 22
38906 775 521 61
38907 775 457 14
38908 775 668 7
38909 775 606 71
38910 775 666 2
38911 775 198 29
38912 775 123 66
38913 775 33 40
38914 775 201 12
38915 775 660 10
38916 776 328 82
38917 776 104 55
38918 776 924 48
38919 776 679 72
38920 776 98 48
38921 776 874 95
38922 776 948 27
38923 776 828 77
38924 776 687 94
38925 776 810 84
38926 776 492 79
38927 776 507 58
38928 776 753 27
38929 776 539 84
38930 776 685 7
38931 776 855 76
38932 776 33 50
38933 776 794 23
38934 776 758 75
38935 776 740 74
38936 776 49 9
38937 776 82 78
38938 776 70 84
38939 776 441 25
38940 776 495 21
38941 776 512 8
38942 776 625 60
38943 776 645 86
38944 776 713 33
38945 776 727 18
38946 776 474 100
38947 776 102 89
38948 776 655 70
38949 776 77 55
38950 776 573 89
38951 776 505 73
38952 776 392 64
38953 776 527 41
38954 776 131 86
38955 776 607 4
38956 776 731 81
38957 777 58 14
38958 777 302 13
38959 777 16 84
38960 777 847 55
38961 777 792 5
38962 777 463 86
38963 777 366 54
38964 777 731 99
38965 777 445 51
38966 777 363 77
38967 777 490 88
38968 777 286 15
38969 777 510 77
38970 777 101 29
38971 777 729 100
38972 777 427 92
38973 777 425 15
38974 777 444 48
38975 777 744 70
38976 777 533 88
38977 777 795 90
38978 777 47 14
38979 777 595 90
38980 777 255 40
38981 777 725 76
38982 777 388 13
38983 777 201 74
38984 777 539 20
38985 777 141 8
38986 777 245 90
38987 777 212 10
38988 777 883 94
38989 777 791 49
38990 777 484 16
38991 777 751 66
38992 777 692 60
38993 777 645 50
38994 777 583 15
38995 777 145 70
38996 777 705 91
38997 777 419 61
38998 777 606 40
38999 777 447 9
39000 777 15 67
39001 777 973 54
39002 777 867 68
39003 777 102 58
39004 777 182 57
39005 777 121 54
39006 777 329 96
39007 778 458 9
39008 778 606 10
39009 778 532 6
39010 778 490 69
39011 778 969 64
39012 778 99 44
39013 778 839 36
39014 778 539 41
39015 778 958 63
39016 778 399 48
39017 778 344 18
39018 778 953 20
39019 778 763 79
39020 778 252 42
39021 778 568 26
39022 778 974 25
39023 778 689 6
39024 778 48 4
39025 778 601 66
39026 778 138 76
39027 778 651 38
39028 778 868 41
39029 778 223 93
39030 778 753 27
39031 778 905 100
39032 778 850 77
39033 778 510 4
39034 778 359 92
39035 778 642 83
39036 778 298 18
39037 778 385 49
39038 778 670 32
39039 778 978 68
39040 778 966 90
39041 778 856 28
39042 778 20 59
39043 778 197 46
39044 778 570 4
39045 778 648 70
39046 778 787 33
39047 778 557 48
39048 779 235 69
39049 779 296 76
39050 779 267 55
39051 779 65 18
39052 779 179 22
39053 779 492 51
39054 779 694 77
39055 779 30 32
39056 779 920 53
39057 779 666 43
39058 779 44 89
39059 779 732 14
39060 779 488 68
39061 779 959 26
39062 779 829 46
39063 779 303 45
39064 779 236 85
39065 779 136 91
39066 779 647 3
39067 779 2 55
39068 779 698 70
39069 779 262 7
39070 779 314 89
39071 779 874 71
39072 779 393 98
39073 779 451 54
39074 779 478 93
39075 779 351 79
39076 779 722 42
39077 779 661 39
39078 779 522 22
39079 779 595 23
39080 779 298 91
39081 779 342 34
39082 779 421 83
39083 779 287 74
39084 779 252 80
39085 779 89 51
39086 779 461 17
39087 779 542 70
39088 779 986 1
39089 779 53 80
39090 779 659 95
39091 779 537 82
39092 780 879 43
39093 780 661 96
39094 780 941 15
39095 780 192 83
39096 780 584 18
39097 780 31 96
39098 780 963 83
39099 780 196 51
39100 780 638 96
39101 780 494 1
39102 780 133 25
39103 780 975 67
39104 780 88 100
39105 780 673 97
39106 780 425 20
39107 780 312 77
39108 780 570 27
39109 780 365 34
39110 780 657 76
39111 780 313 7
39112 780 465 51
39113 780 240 26
39114 780 36 46
39115 780 42 52
39116 780 878 79
39117 780 714 38
39118 780 305 77
39119 780 252 47
39120 780 463 25
39121 780 506 25
39122 780 75 2
39123 780 306 29
39124 780 574 55
39125 780 563 34
39126 780 469 89
39127 780 111 63
39128 780 716 5
39129 780 35 2
39130 781 397 30
39131 781 759 90
39132 781 839 62
39133 781 801 86
39134 781 254 73
39135 781 766 21
39136 781 632 12
39137 781 364 41
39138 781 727 5
39139 781 666 56
39140 781 573 66
39141 781 472 77
39142 781 756 43
39143 781 925 37
39144 781 269 95
39145 781 7 20
39146 781 972 92
39147 781 387 74
39148 781 414 25
39149 781 285 41
39150 781 805 91
39151 781 204 4
39152 781 106 55
39153 781 451 41
39154 781 646 53
39155 781 320 84
39156 781 854 86
39157 781 129 95
39158 781 641 12
39159 781 969 68
39160 781 430 96
39161 781 30 26
39162 781 179 73
39163 781 8 61
39164 781 470 100
39165 781 17 68
39166 781 842 3
39167 781 882 21
39168 781 14 45
39169 781 950 78
39170 781 999 5
39171 781 644 82
39172 781 943 27
39173 781 241 24
39174 781 261 16
39175 781 638 18
39176 781 926 32
39177 781 757 69
39178 782 198 37
39179 782 862 65
39180 782 644 85
39181 782 846 29
39182 782 867 90
39183 782 979 27
39184 782 658 90
39185 782 576 100
39186 782 553 16
39187 782 648 32
39188 782 957 99
39189 782 792 55
39190 782 655 43
39191 782 431 39
39192 782 861 19
39193 782 814 8
39194 782 37 47
39195 782 315 1
39196 782 715 72
39197 782 484 38
39198 782 884 91
39199 782 523 79
39200 782 273 70
39201 782 186 2
39202 782 461 80
39203 782 661 60
39204 782 708 67
39205 782 797 98
39206 782 565 25
39207 782 299 70
39208 782 324 20
39209 782 615 66
39210 782 398 43
39211 782 256 9
39212 782 717 87
39213 782 320 25
39214 782 601 40
39215 782 927 97
39216 782 46 47
39217 782 759 83
39218 782 133 88
39219 782 194 43
39220 782 236 27
39221 782 695 43
39222 782 780 39
39223 782 289 44
39224 782 115 32
39225 782 910 18
39226 782 259 98
39227 782 774 99
39228 782 434 39
39229 782 845 34
39230 782 178 88
39231 782 897 95
39232 783 690 4
39233 783 309 66
39234 783 295 33
39235 783 903 15
39236 783 886 86
39237 783 821 77
39238 783 356 80
39239 783 216 9
39240 783 541 35
39241 783 509 33
39242 783 350 5
39243 783 161 47
39244 783 278 1
39245 783 54 4
39246 783 91 79
39247 783 449 7
39248 783 105 100
39249 783 650 85
39250 783 728 28
39251 783 566 15
39252 783 284 73
39253 783 286 76
39254 783 701 12
39255 783 463 98
39256 783 944 71
39257 783 440 92
39258 783 242 75
39259 783 798 1
39260 783 670 7
39261 783 612 28
39262 783 977 20
39263 783 730 72
39264 783 570 83
39265 783 622 52
39266 783 400 86
39267 783 708 18
39268 783 166 68
39269 783 815 69
39270 783 930 33
39271 783 729 51
39272 783 789 67
39273 783 679 5
39274 783 609 77
39275 783 379 88
39276 783 538 38
39277 783 126 18
39278 783 426 43
39279 783 778 42
39280 783 640 68
39281 783 695 89
39282 783 801 15
39283 783 850 29
39284 783 950 17
39285 783 820 46
39286 784 572 79
39287 784 518 37
39288 784 39 39
39289 784 786 42
39290 784 418 69
39291 784 454 95
39292 784 237 14
39293 784 735 49
39294 784 577 51
39295 784 558 61
39296 784 57 66
39297 784 58 18
39298 784 557 15
39299 784 866 4
39300 784 895 81
39301 784 699 98
39302 784 564 79
39303 784 700 27
39304 784 119 32
39305 784 263 19
39306 784 510 59
39307 784 207 9
39308 784 751 71
39309 784 342 10
39310 784 926 92
39311 784 836 94
39312 784 506 18
39313 784 721 72
39314 784 261 29
39315 784 63 21
39316 784 3 50
39317 784 180 49
39318 784 285 55
39319 784 246 77
39320 784 409 59
39321 784 306 28
39322 784 348 78
39323 784 62 78
39324 784 705 80
39325 784 446 49
39326 784 423 50
39327 784 110 40
39328 784 907 66
39329 784 588 78
39330 784 5 74
39331 784 413 88
39332 784 879 70
39333 784 961 23
39334 784 240 94
39335 785 612 49
39336 785 173 24
39337 785 885 76
39338 785 296 89
39339 785 942 7
39340 785 808 96
39341 785 227 43
39342 785 351 18
39343 785 82 75
39344 785 467 2
39345 785 19 57
39346 785 755 45
39347 785 669 46
39348 785 403 32
39349 785 454 69
39350 785 923 25
39351 785 157 61
39352 785 886 85
39353 785 654 100
39354 785 658 24
39355 785 376 65
39356 785 682 92
39357 785 792 43
39358 785 818 59
39359 785 268 84
39360 785 311 97
39361 785 646 69
39362 785 471 55
39363 785 438 13
39364 785 833 75
39365 785 556 66
39366 785 276 55
39367 785 363 80
39368 785 909 26
39369 785 481 49
39370 785 483 27
39371 785 252 13
39372 785 610 77
39373 785 526 80
39374 785 770 21
39375 785 706 42
39376 785 834 13
39377 785 688 80
39378 785 595 43
39379 785 213 78
39380 785 237 13
39381 785 552 28
39382 785 916 17
39383 785 334 86
39384 785 20 59
39385 785 114 68
39386 785 121 36
39387 785 487 28
39388 785 778 97
39389 785 55 67
39390 785 321 44
39391 785 861 40
39392 785 143 13
39393 786 376 77
39394 786 276 24
39395 786 106 34
39396 786 942 81
39397 786 862 41
39398 786 305 89
39399 786 213 26
39400 786 523 5
39401 786 465 57
39402 786 547 60
39403 786 129 94
39404 786 105 68
39405 786 469 6
39406 786 361 100
39407 786 959 58
39408 786 314 76
39409 786 524 17
39410 786 953 56
39411 786 682 97
39412 786 785 19
39413 786 667 96
39414 786 290 21
39415 786 139 60
39416 786 756 16
39417 786 384 97
39418 786 882 83
39419 786 334 44
39420 786 26 50
39421 786 846 35
39422 786 704 75
39423 786 742 53
39424 786 140 68
39425 786 515 82
39426 786 136 24
39427 786 665 1
39428 786 984 21
39429 786 949 97
39430 786 462 5
39431 786 529 44
39432 786 847 27
39433 786 94 48
39434 786 490 59
39435 786 122 59
39436 786 768 89
39437 786 464 14
39438 786 371 60
39439 786 307 33
39440 786 134 21
39441 786 138 14
39442 786 698 74
39443 786 339 40
39444 786 212 43
39445 786 494 68
39446 786 573 95
39447 786 858 62
39448 786 705 9
39449 787 329 23
39450 787 49 8
39451 787 225 47
39452 787 547 15
39453 787 752 81
39454 787 157 83
39455 787 636 37
39456 787 244 23
39457 787 740 28
39458 787 87 57
39459 787 867 32
39460 787 519 60
39461 787 714 70
39462 787 847 11
39463 787 451 97
39464 787 934 100
39465 787 230 99
39466 787 41 3
39467 787 410 6
39468 787 671 95
39469 787 919 33
39470 787 819 41
39471 787 369 86
39472 787 402 76
39473 787 47 66
39474 787 792 93
39475 787 427 21
39476 787 0 29
39477 787 548 82
39478 787 635 55
39479 787 279 91
39480 787 679 5
39481 787 266 49
39482 787 483 79
39483 787 960 29
39484 787 624 51
39485 787 414 27
39486 787 153 65
39487 787 345 28
39488 787 377 100
39489 787 813 33
39490 787 488 93
39491 787 936 35
39492 787 518 22
39493 787 895 54
39494 787 629 8
39495 788 927 40
39496 788 417 20
39497 788 154 68
39498 788 973 97
39499 788 77 2
39500 788 732 84
39501 788 97 13
39502 788 312 31
39503 788 897 3
39504 788 117 56
39505 788 956 86
39506 788 232 83
39507 788 601 21
39508 788 404 72
39509 788 663 46
39510 788 400 52
39511 788 943 13
39512 788 398 89
39513 788 917 47
39514 788 528 45
39515 788 426 99
39516 788 342 64
39517 788 416 61
39518 788 784 66
39519 788 961 15
39520 788 31 91
39521 788 454 25
39522 788 330 63
39523 788 637 62
39524 788 676 37
39525 788 65 90
39526 788 622 60
39527 788 805 77
39528 788 684 72
39529 788 560 5
39530 788 109 8
39531 788 51 24
39532 788 150 53
39533 788 415 34
39534 788 654 61
39535 788 479 30
39536 788 248 2
39537 788 447 39
39538 788 802 67
39539 788 996 41
39540 788 720 74
39541 788 696 76
39542 788 20 91
39543 788 233 90
39544 788 548 63
39545 788 428 30
39546 788 139 22
39547 788 166 15
39548 788 615 37
39549 788 624 20
39550 788 888 55
39551 788 231 48
39552 788 54 18
39553 788 224 69
39554 789 373 29
39555 789 913 56
39556 789 781 25
39557 789 347 58
39558 789 917 86
39559 789 928 44
39560 789 381 47
39561 789 690 95
39562 789 308 20
39563 789 51 66
39564 789 231 19
39565 789 399 43
39566 789 115 29
39567 789 391 52
39568 789 319 41
39569 789 403 39
39570 789 40 93
39571 789 444 44
39572 789 840 37
39573 789 837 52
39574 789 649 77
39575 789 985 56
39576 789 523 56
39577 789 1 5
39578 789 708 72
39579 789 531 10
39580 789 85 59
39581 789 168 55
39582 789 545 89
39583 789 706 56
39584 789 35 8
39585 789 102 48
39586 789 157 27
39587 789 198 75
39588 789 764 91
39589 789 660 15
39590 789 210 57
39591 789 829 93
39592 789 57 40
39593 789 514 3
39594 789 644 79
39595 789 28 74
39596 789 843 73
39597 789 697 31
39598 789 58 98
39599 789 536 15
39600 789 936 10
39601 790 935 85
39602 790 187 100
39603 790 992 100
39604 790 752 70
39605 790 450 1
39606 790 383 45
39607 790 473 97
39608 790 228 36
39609 790 892 14
39610 790 499 20
39611 790 762 98
39612 790 927 90
39613 790 747 18
39614 790 922 96
39615 790 339 1
39616 790 529 50
39617 790 427 33
39618 790 584 55
39619 790 834 75
39620 790 739 86
39621 790 374 75
39622 790 80 4
39623 790 26 14
39624 790 651 75
39625 790 942 5
39626 790 98 97
39627 790 875 43
39628 790 492 15
39629 790 183 74
39630 790 197 75
39631 790 468 37
39632 790 299 55
39633 790 570 61
39634 790 605 33
39635 790 431 18
39636 790 341 53
39637 790 625 74
39638 790 743 63
39639 790 275 70
39640 790 719 19
39641 790 853 100
39642 790 232 33
39643 790 36 94
39644 790 517 56
39645 791 910 52
39646 791 35 25
39647 791 446 9
39648 791 548 18
39649 791 754 60
39650 791 634 23
39651 791 691 8
39652 791 615 30
39653 791 704 43
39654 791 777 79
39655 791 63 25
39656 791 536 47
39657 791 160 44
39658 791 401 54
39659 791 369 15
39660 791 974 62
39661 791 262 84
39662 791 455 46
39663 791 294 26
39664 791 16 63
39665 791 969 43
39666 791 601 40
39667 791 808 36
39668 791 8 9
39669 791 507 98
39670 791 682 28
39671 791 14 79
39672 791 773 95
39673 791 113 34
39674 791 485 40
39675 791 529 42
39676 791 693 21
39677 791 609 94
39678 791 644 44
39679 791 948 59
39680 791 213 36
39681 791 319 25
39682 791 268 53
39683 791 502 37
39684 791 372 19
39685 791 306 22
39686 792 395 99
39687 792 231 25
39688 792 439 48
39689 792 714 46
39690 792 721 50
39691 792 930 37
39692 792 47 1
39693 792 936 94
39694 792 662 6
39695 792 268 79
39696 792 467 33
39697 792 640 3
39698 792 234 57
39699 792 390 61
39700 792 833 77
39701 792 827 92
39702 792 162 70
39703 792 300 68
39704 792 684 60
39705 792 426 46
39706 792 925 88
39707 792 179 6
39708 792 226 28
39709 792 995 49
39710 792 789 63
39711 792 88 73
39712 792 712 38
39713 792 39 9
39714 792 778 81
39715 792 619 3
39716 792 530 39
39717 792 605 31
39718 792 647 96
39719 792 989 25
39720 792 495 79
39721 792 976 58
39722 792 189 97
39723 792 891 24
39724 792 673 56
39725 792 997 66
39726 792 273 55
39727 792 741 85
39728 792 388 78
39729 792 843 80
39730 792 175 19
39731 792 63 76
39732 792 822 23
39733 793 886 85
39734 793 662 64
39735 793 222 57
39736 793 371 76
39737 793 787 92
39738 793 43 2
39739 793 780 68
39740 793 595 88
39741 793 447 74
39742 793 484 46
39743 793 80 18
39744 793 514 28
39745 793 494 54
39746 793 258 1
39747 793 491 67
39748 793 489 15
39749 793 51 36
39750 793 537 80
39751 793 62 87
39752 793 473 78
39753 793 593 55
39754 793 2 19
39755 793 849 13
39756 793 842 91
39757 793 791 35
39758 793 115 88
39759 793 194 59
39760 793 618 2
39761 793 124 48
39762 793 865 2
39763 793 456 85
39764 793 705 81
39765 793 853 11
39766 793 467 20
39767 793 937 21
39768 793 918 14
39769 793 86 49
39770 793 856 10
39771 793 680 82
39772 793 653 11
39773 793 846 30
39774 793 797 88
39775 793 0 11
39776 793 200 76
39777 793 567 32
39778 793 847 27
39779 793 967 92
39780 793 408 32
39781 793 19 70
39782 793 504 75
39783 793 169 58
39784 793 674 43
39785 793 324 67
39786 793 678 26
39787 793 725 13
39788 794 30 24
39789 794 502 68
39790 794 776 79
39791 794 137 93
39792 794 743 51
39793 794 14 94
39794 794 738 83
39795 794 248 49
39796 794 801 100
39797 794 696 99
39798 794 190 2
39799 794 1 25
39800 794 409 24
39801 794 575 52
39802 794 484 91
39803 794 38 84
39804 794 635 82
39805 794 17 87
39806 794 427 11
39807 794 18 88
39808 794 562 12
39809 794 233 21
39810 794 536 42
39811 794 168 19
39812 794 378 73
39813 794 0 9
39814 794 244 71
39815 794 855 72
39816 794 113 81
39817 794 491 96
39818 794 47 83
39819 794 658 86
39820 794 417 46
39821 794 767 20
39822 794 42 95
39823 794 999 17
39824 794 708 33
39825 794 16 6
39826 794 78 34
39827 794 243 40
39828 794 29 98
39829 794 468 98
39830 794 922 42
39831 794 322 99
39832 794 710 75
39833 794 353 12
39834 794 754 38
39835 794 126 47
39836 794 352 30
39837 794 597 41
39838 794 822 89
39839 794 533 71
39840 794 133 91
39841 794 270 64
39842 794 661 92
39843 794 977 39
39844 795 973 4
39845 795 773 68
39846 795 476 37
39847 795 417 21
39848 795 669 58
39849 795 670 41
39850 795 474 87
39851 795 308 11
39852 795 907 21
39853 795 630 5
39854 795 450 50
39855 795 472 12
39856 795 353 77
39857 795 844 27
39858 795 766 10
39859 795 736 79
39860 795 234 40
39861 795 418 63
39862 795 809 98
39863 795 692 1
39864 795 240 58
39865 795 404 76
39866 795 628 47
39867 795 434 91
39868 795 31 68
39869 795 154 11
39870 795 746 21
39871 795 760 3
39872 795 19 18
39873 795 631 31
39874 795 658 69
39875 795 181 22
39876 795 334 15
39877 795 46 62
39878 795 715 63
39879 795 400 66
39880 795 480 97
39881 795 652 49
39882 795 936 64
39883 795 104 80
39884 795 356 4
39885 795 706 4
39886 795 431 23
39887 795 779 28
39888 795 542 50
39889 795 319 97
39890 795 949 43
39891 795 671 21
39892 795 453 64
39893 795 806 74
39894 795 128 82
39895 796 721 66
39896 796 907 32
39897 796 910 33
39898 796 615 28
39899 796 225 46
39900 796 561 71
39901 796 784 24
39902 796 779 25
39903 796 977 10
39904 796 985 74
39905 796 632 97
39906 796 475 81
39907 796 119 30
39908 796 502 61
39909 796 287 45
39910 796 855 66
39911 796 143 85
39912 796 655 86
39913 796 806 31
39914 796 152 49
39915 796 925 44
39916 796 934 53
39917 796 468 77
39918 796 645 99
39919 796 41 36
39920 796 94 81
39921 796 215 90
39922 796 135 8
39923 796 922 36
39924 796 576 70
39925 796 945 86
39926 796 203 26
39927 796 932 4
39928 796 550 83
39929 796 519 89
39930 797 655 38
39931 797 133 62
39932 797 521 85
39933 797 916 96
39934 797 425 93
39935 797 309 38
39936 797 826 80
39937 797 586 53
39938 797 951 14
39939 797 672 93
39940 797 23 32
39941 797 786 92
39942 797 508 66
39943 797 813 50
39944 797 393 54
39945 797 610 80
39946 797 938 83
39947 797 268 15
39948 797 740 32
39949 797 159 77
39950 797 620 50
39951 797 234 12
39952 797 184 29
39953 797 674 53
39954 797 365 29
39955 797 173 5
39956 797 123 10
39957 797 457 77
39958 797 76 43
39959 797 299 82
39960 797 435 63
39961 797 106 40
39962 797 767 2
39963 797 209 98
39964 797 289 33
39965 797 292 71
39966 797 67 55
39967 797 442 94
39968 797 755 52
39969 797 422 16
39970 797 152 45
39971 797 386 34
39972 797 806 51
39973 797 801 96
39974 797 679 55
39975 797 990 11
39976 797 355 12
39977 797 973 68
39978 797 698 28
39979 797 588 60
39980 797 201 57
39981 798 405 12
39982 798 424 48
39983 798 701 27
39984 798 970 62
39985 798 242 45
39986 798 633 18
39987 798 331 62
39988 798 683 48
39989 798 960 44
39990 798 894 86
39991 798 134 77
39992 798 200 87
39993 798 120 1
39994 798 997 83
39995 798 81 61
39996 798 984 5
39997 798 129 54
39998 798 900 95
39999 798 8 53
40000 798 958 41
40001 798 141 26
40002 798 218 60
40003 798 659 87
40004 798 510 62
40005 798 816 77
40006 798 322 93
40007 798 824 52
40008 798 839 75
40009 798 641 38
40010 798 131 4
40011 798 884 27
40012 798 136 35
40013 798 252 25
40014 798 192 53
40015 798 275 49
40016 798 441 81
40017 798 491 68
40018 798 858 70
40019 798 387 34
40020 798 438 47
40021 798 123 79
40022 798 554 73
40023 798 624 43
40024 799 137 5
40025 799 652 16
40026 799 420 27
40027 799 701 61
40028 799 650 90
40029 799 661 77
40030 799 116 40
40031 799 418 49
40032 799 793 74
40033 799 484 7
40034 799 307 31
40035 799 329 65
40036 799 521 14
40037 799 664 43
40038 799 90 49
40039 799 611 44
40040 799 892 3
40041 799 808 80
40042 799 468 27
40043 799 964 94
40044 799 444 9
40045 799 66 21
40046 799 301 12
40047 799 177 82
40048 799 511 11
40049 799 802 12
40050 799 702 33
40051 799 885 2
40052 799 822 6
40053 799 68 43
40054 799 402 85
40055 799 875 87
40056 799 503 77
40057 799 313 3
40058 799 125 29
40059 799 16 19
40060 799 298 72
40061 799 710 3
40062 799 256 40
40063 799 478 81
40064 799 124 9
40065 799 315 25
40066 799 944 24
40067 799 347 44
40068 799 469 40
40069 799 760 57
40070 799 191 56
40071 800 298 55
40072 800 600 39
40073 800 471 27
40074 800 970 65
40075 800 669 5
40076 800 11 95
40077 800 707 1
40078 800 930 99
40079 800 429 96
40080 800 271 8
40081 800 897 37
40082 800 385 33
40083 800 546 13
40084 800 254 86
40085 800 363 61
40086 800 345 29
40087 800 112 46
40088 800 185 35
40089 800 630 94
40090 800 845 42
40091 800 367 44
40092 800 864 96
40093 800 806 93
40094 800 483 13
40095 800 830 62
40096 800 879 79
40097 800 887 17
40098 800 413 7
40099 800 854 31
40100 800 566 42
40101 800 279 42
40102 800 368 52
40103 800 163 85
40104 800 150 89
40105 800 256 60
40106 800 602 43
40107 800 166 23
40108 800 380 28
40109 800 501 99
40110 800 641 92
40111 800 473 38
40112 800 518 26
40113 800 963 74
40114 800 524 44
40115 800 486 27
40116 800 401 22
40117 800 361 31
40118 800 288 64
40119 800 814 36
40120 800 78 22
40121 800 818 68
40122 801 414 80
40123 801 509 47
40124 801 156 2
40125 801 548 91
40126 801 136 97
40127 801 221 50
40128 801 450 32
40129 801 729 76
40130 801 304 81
40131 801 970 54
40132 801 474 22
40133 801 445 79
40134 801 790 91
40135 801 308 3
40136 801 166 11
40137 801 323 58
40138 801 590 47
40139 801 254 58
40140 801 963 73
40141 801 137 53
40142 801 629 33
40143 801 755 35
40144 801 123 90
40145 801 176 98
40146 801 626 59
40147 801 400 55
40148 801 277 31
40149 801 594 80
40150 801 641 59
40151 801 180 42
40152 801 827 51
40153 801 411 58
40154 801 885 89
40155 801 495 68
40156 801 235 57
40157 801 576 75
40158 801 866 44
40159 801 225 61
40160 802 623 19
40161 802 14 17
40162 802 304 43
40163 802 970 98
40164 802 775 39
40165 802 915 68
40166 802 754 72
40167 802 406 19
40168 802 586 16
40169 802 384 69
40170 802 591 79
40171 802 204 68
40172 802 108 9
40173 802 897 42
40174 802 91 64
40175 802 489 74
40176 802 865 81
40177 802 978 37
40178 802 763 97
40179 802 655 15
40180 802 478 12
40181 802 49 2
40182 802 135 32
40183 802 533 98
40184 802 82 69
40185 802 424 55
40186 802 459 65
40187 802 737 99
40188 802 609 71
40189 802 822 69
40190 802 211 82
40191 802 502 83
40192 802 669 69
40193 802 42 91
40194 802 637 64
40195 802 734 47
40196 802 331 66
40197 802 274 48
40198 802 247 32
40199 802 396 81
40200 802 747 67
40201 802 725 4
40202 802 650 4
40203 802 64 39
40204 802 404 23
40205 802 465 15
40206 802 309 79
40207 802 695 87
40208 802 603 81
40209 803 709 61
40210 803 219 39
40211 803 311 61
40212 803 486 33
40213 803 42 82
40214 803 408 43
40215 803 203 95
40216 803 989 28
40217 803 6 79
40218 803 947 59
40219 803 345 65
40220 803 353 23
40221 803 354 43
40222 803 442 91
40223 803 12 93
40224 803 662 99
40225 803 253 7
40226 803 260 46
40227 803 54 56
40228 803 127 18
40229 803 175 26
40230 803 382 98
40231 803 22 11
40232 803 682 64
40233 803 658 46
40234 803 877 65
40235 803 95 15
40236 803 571 58
40237 803 904 23
40238 803 394 23
40239 803 146 85
40240 803 114 58
40241 803 934 78
40242 803 883 19
40243 803 243 1
40244 803 509 63
40245 803 745 70
40246 803 396 72
40247 803 889 4
40248 803 920 77
40249 803 608 40
40250 803 694 17
40251 803 501 100
40252 803 436 80
40253 803 933 17
40254 803 744 60
40255 803 655 2
40256 803 866 50
40257 803 318 35
40258 803 546 42
40259 803 230 57
40260 803 139 94
40261 803 55 17
40262 803 53 25
40263 804 708 18
40264 804 682 51
40265 804 212 18
40266 804 388 15
40267 804 944 6
40268 804 879 50
40269 804 90 53
40270 804 273 42
40271 804 850 60
40272 804 557 17
40273 804 953 66
40274 804 825 67
40275 804 621 7
40276 804 926 62
40277 804 952 33
40278 804 267 79
40279 804 847 61
40280 804 397 73
40281 804 891 75
40282 804 566 16
40283 804 580 10
40284 804 964 9
40285 804 606 86
40286 804 689 47
40287 804 511 65
40288 804 167 82
40289 804 765 3
40290 804 595 30
40291 804 316 78
40292 804 625 58
40293 804 589 42
40294 804 570 99
40295 804 302 92
40296 804 486 89
40297 804 978 74
40298 804 531 17
40299 804 916 2
40300 804 901 37
40301 804 414 29
40302 804 142 81
40303 804 547 5
40304 804 65 53
40305 804 310 81
40306 804 313 32
40307 804 694 55
40308 804 146 89
40309 804 767 44
40310 805 146 92
40311 805 989 98
40312 805 934 6
40313 805 547 57
40314 805 947 54
40315 805 955 28
40316 805 272 30
40317 805 590 99
40318 805 851 99
40319 805 733 68
40320 805 340 30
40321 805 633 21
40322 805 436 87
40323 805 298 21
40324 805 732 21
40325 805 215 7
40326 805 171 32
40327 805 818 5
40328 805 582 62
40329 805 132 70
40330 805 986 8
40331 805 937 90
40332 805 56 59
40333 805 651 16
40334 805 167 71
40335 805 784 27
40336 805 85 39
40337 805 30 24
40338 805 832 23
40339 805 176 62
40340 805 220 99
40341 805 284 62
40342 805 867 97
40343 805 927 3
40344 805 936 18
40345 805 791 100
40346 805 185 29
40347 805 652 83
40348 805 46 9
40349 805 348 95
40350 805 280 62
40351 805 323 66
40352 805 728 4
40353 806 670 37
40354 806 312 34
40355 806 739 57
40356 806 810 59
40357 806 613 28
40358 806 567 21
40359 806 928 32
40360 806 719 41
40361 806 773 51
40362 806 712 73
40363 806 130 70
40364 806 184 67
40365 806 371 10
40366 806 523 6
40367 806 66 21
40368 806 668 22
40369 806 811 86
40370 806 745 82
40371 806 607 3
40372 806 430 98
40373 806 317 55
40374 806 674 19
40375 806 725 38
40376 806 564 91
40377 806 554 88
40378 806 379 43
40379 806 859 63
40380 806 969 97
40381 806 153 72
40382 806 717 5
40383 806 444 13
40384 806 478 4
40385 806 574 87
40386 806 490 3
40387 806 196 71
40388 806 431 40
40389 806 525 46
40390 806 322 98
40391 806 59 1
40392 806 403 17
40393 806 862 86
40394 806 975 98
40395 806 634 62
40396 806 104 21
40397 806 888 17
40398 806 679 30
40399 807 864 65
40400 807 247 42
40401 807 717 32
40402 807 610 77
40403 807 470 97
40404 807 704 100
40405 807 377 50
40406 807 99 67
40407 807 842 84
40408 807 251 58
40409 807 789 92
40410 807 125 14
40411 807 505 95
40412 807 516 68
40413 807 274 31
40414 807 113 9
40415 807 395 80
40416 807 632 49
40417 807 606 30
40418 807 932 8
40419 807 141 51
40420 807 900 47
40421 807 231 4
40422 807 661 73
40423 807 93 54
40424 807 506 59
40425 807 283 55
40426 807 191 6
40427 807 742 80
40428 807 693 8
40429 807 649 57
40430 807 698 88
40431 807 591 78
40432 807 844 53
40433 807 747 3
40434 807 823 83
40435 807 119 28
40436 807 713 68
40437 807 10 22
40438 807 928 4
40439 807 77 22
40440 807 437 20
40441 807 271 25
40442 807 242 34
40443 807 282 11
40444 807 579 2
40445 807 89 84
40446 807 135 63
40447 808 136 82
40448 808 51 15
40449 808 844 96
40450 808 946 56
40451 808 95 42
40452 808 476 55
40453 808 858 36
40454 808 129 34
40455 808 296 4
40456 808 530 63
40457 808 365 8
40458 808 490 71
40459 808 560 100
40460 808 266 53
40461 808 973 40
40462 808 349 87
40463 808 959 10
40464 808 628 12
40465 808 518 19
40466 808 818 19
40467 808 604 63
40468 808 527 72
40469 808 679 79
40470 808 585 27
40471 808 383 9
40472 808 304 39
40473 808 94 20
40474 808 423 47
40475 808 615 39
40476 808 589 22
40477 808 313 15
40478 808 464 28
40479 808 949 87
40480 808 258 35
40481 808 616 24
40482 808 429 44
40483 808 878 75
40484 808 962 89
40485 808 716 34
40486 808 458 85
40487 808 804 84
40488 808 577 38
40489 808 285 15
40490 808 565 22
40491 808 355 60
40492 808 228 51
40493 808 788 51
40494 808 57 28
40495 808 854 68
40496 808 787 3
40497 808 751 78
40498 808 928 14
40499 808 297 38
40500 808 290 44
40501 808 330 33
40502 808 162 57
40503 808 262 81
40504 808 736 55
40505 808 246 5
40506 809 858 71
40507 809 783 99
40508 809 821 41
40509 809 190 70
40510 809 227 27
40511 809 320 38
40512 809 890 54
40513 809 602 14
40514 809 73 36
40515 809 560 36
40516 809 962 75
40517 809 734 31
40518 809 330 19
40519 809 590 44
40520 809 931 91
40521 809 66 65
40522 809 331 96
40523 809 585 7
40524 809 356 53
40525 809 449 39
40526 809 79 81
40527 809 792 42
40528 809 183 35
40529 809 669 38
40530 809 868 78
40531 809 489 93
40532 809 452 17
40533 809 965 70
40534 809 644 5
40535 809 62 89
40536 809 654 88
40537 809 51 47
40538 809 797 91
40539 809 349 93
40540 809 6 18
40541 809 380 5
40542 809 45 35
40543 809 173 11
40544 809 938 66
40545 809 56 17
40546 809 235 19
40547 809 112 86
40548 809 713 36
40549 809 502 55
40550 809 662 17
40551 809 872 8
40552 809 140 91
40553 810 390 79
40554 810 480 28
40555 810 882 19
40556 810 647 5
40557 810 89 89
40558 810 565 26
40559 810 986 60
40560 810 926 88
40561 810 172 27
40562 810 199 14
40563 810 446 11
40564 810 205 16
40565 810 378 45
40566 810 970 28
40567 810 144 85
40568 810 657 13
40569 810 824 29
40570 810 497 36
40571 810 444 55
40572 810 554 14
40573 810 235 31
40574 810 842 17
40575 810 745 21
40576 810 461 92
40577 810 160 49
40578 810 51 74
40579 810 580 80
40580 810 407 27
40581 810 309 26
40582 810 201 8
40583 810 167 28
40584 810 523 61
40585 810 473 88
40586 810 558 38
40587 810 830 37
40588 810 350 42
40589 810 22 79
40590 810 957 89
40591 810 111 43
40592 810 162 50
40593 810 976 63
40594 810 365 81
40595 810 590 14
40596 810 148 70
40597 810 894 8
40598 810 736 67
40599 810 7 47
40600 810 677 33
40601 810 700 30
40602 810 852 68
40603 810 374 77
40604 810 336 20
40605 811 154 67
40606 811 674 19
40607 811 599 67
40608 811 621 82
40609 811 659 6
40610 811 889 45
40611 811 318 43
40612 811 19 6
40613 811 372 3
40614 811 622 32
40615 811 205 64
40616 811 58 20
40617 811 779 96
40618 811 190 59
40619 811 367 68
40620 811 935 89
40621 811 745 31
40622 811 977 27
40623 811 802 48
40624 811 785 35
40625 811 546 35
40626 811 637 75
40627 811 81 58
40628 811 307 60
40629 811 892 82
40630 811 184 36
40631 811 899 25
40632 811 40 73
40633 811 122 45
40634 811 980 81
40635 811 950 65
40636 811 692 91
40637 811 776 65
40638 811 827 87
40639 811 374 48
40640 811 251 89
40641 811 415 27
40642 811 817 79
40643 811 34 52
40644 811 946 71
40645 811 177 12
40646 811 170 16
40647 811 722 66
40648 811 47 12
40649 811 713 66
40650 811 746 60
40651 811 529 70
40652 811 721 82
40653 811 724 82
40654 811 672 94
40655 811 670 20
40656 811 834 24
40657 811 117 23
40658 811 578 25
40659 811 698 96
40660 811 265 48
40661 811 141 30
40662 811 755 95
40663 811 324 47
40664 811 442 91
40665 811 803 21
40666 812 3 9
40667 812 45 65
40668 812 944 46
40669 812 786 7
40670 812 475 17
40671 812 379 8
40672 812 794 91
40673 812 667 80
40674 812 702 17
40675 812 948 41
40676 812 804 72
40677 812 803 19
40678 812 827 17
40679 812 116 38
40680 812 293 18
40681 812 658 44
40682 812 28 1
40683 812 577 98
40684 812 846 100
40685 812 987 68
40686 812 872 100
40687 812 267 29
40688 812 592 92
40689 812 921 78
40690 812 492 5
40691 812 121 68
40692 812 711 81
40693 812 127 87
40694 812 243 55
40695 812 557 68
40696 812 425 32
40697 812 860 37
40698 812 405 39
40699 812 187 89
40700 812 307 93
40701 812 623 78
40702 812 279 91
40703 812 635 39
40704 812 589 82
40705 812 251 54
40706 812 638 13
40707 812 498 14
40708 812 845 82
40709 812 80 7
40710 812 768 74
40711 813 157 62
40712 813 291 96
40713 813 442 6
40714 813 630 100
40715 813 324 53
40716 813 903 27
40717 813 921 80
40718 813 695 35
40719 813 210 19
40720 813 876 90
40721 813 899 60
40722 813 39 80
40723 813 573 71
40724 813 614 31
40725 813 568 19
40726 813 848 46
40727 813 236 11
40728 813 462 22
40729 813 270 81
40730 813 205 64
40731 813 254 43
40732 813 896 100
40733 813 567 40
40734 813 1 65
40735 813 25 69
40736 813 517 35
40737 813 127 3
40738 813 85 31
40739 813 79 92
40740 813 86 27
40741 813 122 35
40742 813 326 28
40743 813 321 17
40744 813 279 32
40745 813 686 74
40746 813 945 43
40747 813 753 74
40748 813 714 21
40749 813 67 51
40750 813 160 97
40751 813 441 8
40752 814 813 40
40753 814 824 31
40754 814 382 4
40755 814 234 81
40756 814 120 92
40757 814 466 11
40758 814 485 68
40759 814 337 60
40760 814 207 69
40761 814 510 43
40762 814 454 70
40763 814 563 47
40764 814 999 68
40765 814 55 46
40766 814 955 42
40767 814 845 64
40768 814 138 34
40769 814 632 83
40770 814 273 94
40771 814 624 31
40772 814 351 33
40773 814 46 54
40774 814 361 17
40775 814 275 19
40776 814 128 91
40777 814 30 17
40778 814 961 10
40779 814 423 3
40780 814 92 43
40781 814 326 78
40782 814 389 24
40783 814 749 63
40784 814 317 56
40785 814 459 37
40786 814 830 16
40787 814 294 100
40788 814 893 35
40789 814 149 69
40790 814 223 88
40791 814 553 64
40792 814 194 59
40793 814 540 44
40794 814 807 85
40795 814 984 29
40796 814 229 77
40797 815 538 75
40798 815 251 16
40799 815 900 45
40800 815 187 52
40801 815 878 9
40802 815 4 28
40803 815 436 81
40804 815 905 33
40805 815 136 12
40806 815 501 16
40807 815 903 63
40808 815 773 1
40809 815 820 20
40810 815 805 65
40811 815 735 67
40812 815 986 37
40813 815 2 96
40814 815 654 8
40815 815 854 29
40816 815 865 77
40817 815 649 58
40818 815 681 61
40819 815 515 2
40820 815 41 86
40821 815 77 50
40822 815 916 55
40823 815 248 42
40824 815 139 20
40825 815 945 82
40826 815 513 69
40827 815 983 46
40828 815 399 83
40829 815 217 62
40830 815 638 28
40831 815 269 13
40832 815 103 65
40833 815 923 65
40834 815 766 86
40835 815 382 94
40836 815 774 89
40837 815 922 56
40838 815 683 23
40839 815 249 27
40840 815 128 31
40841 815 883 76
40842 815 155 45
40843 815 644 91
40844 815 57 97
40845 815 629 76
40846 815 874 47
40847 815 543 73
40848 815 784 95
40849 815 308 77
40850 815 749 98
40851 815 101 15
40852 815 668 94
40853 815 170 56
40854 815 719 19
40855 815 236 2
40856 815 36 84
40857 816 597 50
40858 816 972 46
40859 816 817 53
40860 816 168 41
40861 816 938 50
40862 816 463 90
40863 816 939 47
40864 816 537 74
40865 816 581 91
40866 816 904 82
40867 816 470 75
40868 816 195 13
40869 816 261 3
40870 816 960 94
40871 816 447 89
40872 816 36 55
40873 816 703 45
40874 816 61 3
40875 816 885 12
40876 816 721 79
40877 816 250 15
40878 816 402 96
40879 816 264 84
40880 816 547 62
40881 816 496 74
40882 816 284 52
40883 816 924 27
40884 816 927 30
40885 816 76 61
40886 816 138 26
40887 816 994 8
40888 816 879 95
40889 816 24 19
40890 816 699 6
40891 816 133 36
40892 816 197 75
40893 816 400 1
40894 816 158 71
40895 816 844 39
40896 816 633 80
40897 816 38 45
40898 816 643 68
40899 816 353 83
40900 816 837 84
40901 816 96 2
40902 816 200 53
40903 816 862 47
40904 816 383 41
40905 816 686 1
40906 816 561 3
40907 816 852 99
40908 816 824 21
40909 816 435 98
40910 817 100 8
40911 817 855 32
40912 817 765 75
40913 817 427 47
40914 817 307 41
40915 817 150 39
40916 817 973 85
40917 817 490 54
40918 817 960 86
40919 817 399 1
40920 817 44 48
40921 817 29 3
40922 817 810 91
40923 817 676 37
40924 817 447 88
40925 817 265 62
40926 817 739 23
40927 817 275 80
40928 817 571 52
40929 817 773 61
40930 817 911 35
40931 817 444 64
40932 817 940 59
40933 817 639 77
40934 817 15 42
40935 817 111 31
40936 817 250 44
40937 817 439 47
40938 817 46 79
40939 817 171 77
40940 817 743 19
40941 817 75 70
40942 817 736 46
40943 817 906 68
40944 817 611 38
40945 817 367 72
40946 817 575 27
40947 817 976 90
40948 817 412 64
40949 817 629 71
40950 817 260 61
40951 817 552 94
40952 817 834 12
40953 817 916 35
40954 817 624 98
40955 817 870 74
40956 817 417 64
40957 817 978 37
40958 817 121 67
40959 817 302 96
40960 817 392 74
40961 818 1 56
40962 818 5 94
40963 818 598 34
40964 818 525 62
40965 818 386 12
40966 818 871 14
40967 818 296 33
40968 818 999 59
40969 818 476 16
40970 818 417 89
40971 818 982 93
40972 818 903 79
40973 818 317 40
40974 818 648 63
40975 818 533 70
40976 818 490 96
40977 818 252 90
40978 818 37 65
40979 818 114 57
40980 818 362 27
40981 818 875 62
40982 818 48 31
40983 818 658 84
40984 818 244 34
40985 818 526 39
40986 818 977 13
40987 818 590 28
40988 818 495 44
40989 818 122 74
40990 818 346 79
40991 818 834 36
40992 818 712 94
40993 818 744 68
40994 818 847 63
40995 818 149 20
40996 818 905 80
40997 818 951 95
40998 818 366 60
40999 818 730 89
41000 818 893 69
41001 818 425 80
41002 818 249 18
41003 818 125 91
41004 818 45 75
41005 818 464 29
41006 818 461 86
41007 818 644 71
41008 818 318 34
41009 819 536 73
41010 819 883 59
41011 819 658 7
41012 819 193 94
41013 819 300 52
41014 819 758 11
41015 819 528 46
41016 819 265 25
41017 819 868 3
41018 819 695 9
41019 819 474 71
41020 819 166 72
41021 819 104 54
41022 819 260 19
41023 819 377 81
41024 819 172 7
41025 819 965 13
41026 819 171 88
41027 819 363 92
41028 819 279 52
41029 819 978 45
41030 819 345 17
41031 819 721 70
41032 819 531 74
41033 819 798 86
41034 819 935 74
41035 819 590 27
41036 819 942 35
41037 819 383 14
41038 819 510 30
41039 819 42 2
41040 819 836 70
41041 819 667 43
41042 819 357 45
41043 819 749 95
41044 819 116 60
41045 819 948 69
41046 819 207 54
41047 819 478 62
41048 819 127 42
41049 819 466 50
41050 819 307 87
41051 819 310 43
41052 819 375 69
41053 819 137 26
41054 819 398 97
41055 819 57 50
41056 819 392 9
41057 819 789 21
41058 819 521 68
41059 819 561 97
41060 819 431 35
41061 819 813 46
41062 820 688 48
41063 820 510 65
41064 820 942 89
41065 820 773 30
41066 820 882 27
41067 820 782 60
41068 820 680 33
41069 820 343 74
41070 820 633 27
41071 820 390 12
41072 820 150 44
41073 820 795 67
41074 820 424 48
41075 820 536 91
41076 820 435 15
41077 820 765 40
41078 820 838 90
41079 820 662 65
41080 820 403 65
41081 820 29 69
41082 820 267 47
41083 820 742 36
41084 820 65 5
41085 820 683 84
41086 820 187 36
41087 820 989 28
41088 820 933 14
41089 820 940 16
41090 820 465 30
41091 820 869 40
41092 820 389 4
41093 820 986 7
41094 820 274 29
41095 820 10 13
41096 820 476 84
41097 820 342 69
41098 820 883 66
41099 820 23 80
41100 820 415 16
41101 820 552 8
41102 820 100 41
41103 820 794 38
41104 820 30 63
41105 820 743 34
41106 820 654 62
41107 821 541 71
41108 821 850 97
41109 821 648 49
41110 821 39 91
41111 821 392 98
41112 821 62 79
41113 821 782 81
41114 821 429 12
41115 821 631 60
41116 821 194 10
41117 821 675 37
41118 821 691 97
41119 821 624 48
41120 821 451 78
41121 821 942 34
41122 821 170 80
41123 821 887 55
41124 821 345 26
41125 821 536 76
41126 821 390 38
41127 821 21 51
41128 821 909 95
41129 821 662 3
41130 821 977 23
41131 821 426 68
41132 821 308 46
41133 821 725 19
41134 821 742 55
41135 821 884 25
41136 821 524 88
41137 821 402 85
41138 821 341 87
41139 821 249 70
41140 821 355 34
41141 821 620 91
41142 821 975 59
41143 821 980 69
41144 821 709 64
41145 821 976 41
41146 821 365 12
41147 821 835 82
41148 821 298 91
41149 821 477 98
41150 822 89 2
41151 822 636 77
41152 822 374 11
41153 822 516 95
41154 822 259 5
41155 822 508 22
41156 822 807 76
41157 822 935 56
41158 822 627 49
41159 822 811 1
41160 822 74 35
41161 822 763 63
41162 822 633 59
41163 822 593 42
41164 822 429 66
41165 822 529 27
41166 822 17 49
41167 822 373 21
41168 822 321 83
41169 822 648 67
41170 822 835 56
41171 822 548 68
41172 822 790 29
41173 822 499 66
41174 822 891 90
41175 822 735 4
41176 822 90 99
41177 822 909 26
41178 822 222 24
41179 822 553 48
41180 822 687 25
41181 822 176 70
41182 822 842 73
41183 822 992 24
41184 822 306 69
41185 822 324 18
41186 822 751 50
41187 822 456 89
41188 822 834 33
41189 822 689 7
41190 822 152 80
41191 822 546 64
41192 822 97 39
41193 822 779 56
41194 822 676 22
41195 822 723 47
41196 822 907 10
41197 822 513 71
41198 822 929 7
41199 822 309 57
41200 823 770 29
41201 823 981 6
41202 823 512 8
41203 823 552 13
41204 823 641 55
41205 823 30 55
41206 823 712 96
41207 823 463 33
41208 823 125 91
41209 823 645 59
41210 823 551 65
41211 823 993 17
41212 823 575 73
41213 823 701 64
41214 823 303 49
41215 823 374 42
41216 823 890 48
41217 823 964 86
41218 823 31 41
41219 823 246 87
41220 823 475 65
41221 823 812 49
41222 823 478 92
41223 823 432 71
41224 823 242 20
41225 823 942 67
41226 823 147 54
41227 823 827 42
41228 823 664 71
41229 823 85 34
41230 823 419 5
41231 823 482 69
41232 823 626 30
41233 823 852 38
41234 823 739 3
41235 823 765 13
41236 823 501 90
41237 823 437 36
41238 823 114 48
41239 823 958 15
41240 823 280 60
41241 823 402 77
41242 823 368 87
41243 823 94 34
41244 823 64 19
41245 823 145 91
41246 823 637 94
41247 823 579 88
41248 823 943 7
41249 823 39 58
41250 823 871 31
41251 823 860 57
41252 823 430 37
41253 823 526 98
41254 823 72 22
41255 823 636 53
41256 823 734 55
41257 823 332 43
41258 824 585 45
41259 824 926 18
41260 824 234 8
41261 824 617 95
41262 824 142 8
41263 824 948 20
41264 824 738 8
41265 824 418 92
41266 824 569 2
41267 824 637 50
41268 824 420 94
41269 824 474 15
41270 824 644 85
41271 824 994 68
41272 824 176 51
41273 824 574 11
41274 824 256 14
41275 824 750 65
41276 824 870 46
41277 824 873 41
41278 824 554 38
41279 824 866 49
41280 824 620 37
41281 824 177 17
41282 824 568 9
41283 824 958 48
41284 824 673 36
41285 824 269 79
41286 824 424 56
41287 824 612 1
41288 824 980 38
41289 824 85 52
41290 824 910 46
41291 824 352 51
41292 824 862 2
41293 824 909 82
41294 824 881 9
41295 824 373 97
41296 824 583 84
41297 824 253 10
41298 824 252 16
41299 824 143 78
41300 824 498 79
41301 824 363 42
41302 824 954 87
41303 824 384 32
41304 824 858 24
41305 824 882 6
41306 824 788 80
41307 824 682 57
41308 824 14 10
41309 824 982 55
41310 824 974 30
41311 824 188 40
41312 824 391 43
41313 825 727 72
41314 825 588 59
41315 825 498 76
41316 825 914 19
41317 825 992 92
41318 825 365 25
41319 825 878 47
41320 825 226 64
41321 825 589 42
41322 825 100 55
41323 825 453 35
41324 825 49 34
41325 825 505 17
41326 825 43 56
41327 825 418 3
41328 825 179 55
41329 825 609 36
41330 825 524 99
41331 825 831 61
41332 825 292 42
41333 825 527 76
41334 825 199 20
41335 825 772 83
41336 825 612 20
41337 825 404 15
41338 825 767 32
41339 825 844 79
41340 825 363 81
41341 825 224 47
41342 825 654 63
41343 825 668 26
41344 825 743 19
41345 825 764 35
41346 825 345 56
41347 825 712 44
41348 825 546 52
41349 825 882 4
41350 825 504 91
41351 825 566 41
41352 825 125 88
41353 825 741 34
41354 825 439 35
41355 825 507 83
41356 825 528 45
41357 825 737 37
41358 825 802 99
41359 825 792 31
41360 825 169 15
41361 825 462 71
41362 825 873 40
41363 826 996 56
41364 826 321 73
41365 826 767 17
41366 826 306 57
41367 826 299 98
41368 826 227 87
41369 826 26 26
41370 826 408 5
41371 826 883 90
41372 826 429 38
41373 826 199 7
41374 826 467 88
41375 826 151 63
41376 826 698 98
41377 826 612 46
41378 826 197 76
41379 826 226 5
41380 826 225 73
41381 826 279 58
41382 826 9 95
41383 826 679 58
41384 826 566 41
41385 826 736 42
41386 826 397 75
41387 826 900 28
41388 826 88 91
41389 826 895 25
41390 826 427 39
41391 826 981 54
41392 826 952 13
41393 826 908 13
41394 826 807 70
41395 826 307 36
41396 826 161 16
41397 826 352 29
41398 826 182 24
41399 826 389 23
41400 826 123 90
41401 826 560 66
41402 826 946 100
41403 826 971 39
41404 826 663 72
41405 826 907 41
41406 826 168 20
41407 826 367 2
41408 826 119 60
41409 826 386 5
41410 826 95 76
41411 826 626 15
41412 826 677 69
41413 826 673 36
41414 826 320 19
41415 826 203 80
41416 827 90 12
41417 827 318 6
41418 827 813 46
41419 827 293 87
41420 827 571 66
41421 827 729 10
41422 827 700 87
41423 827 78 49
41424 827 356 69
41425 827 784 1
41426 827 383 45
41427 827 140 44
41428 827 922 65
41429 827 998 50
41430 827 795 74
41431 827 23 45
41432 827 594 27
41433 827 876 21
41434 827 835 54
41435 827 513 75
41436 827 404 84
41437 827 92 92
41438 827 364 13
41439 827 580 50
41440 827 843 14
41441 827 724 62
41442 827 250 80
41443 827 663 46
41444 827 900 67
41445 827 561 6
41446 827 514 43
41447 827 440 74
41448 827 74 35
41449 827 855 59
41450 827 401 87
41451 827 944 4
41452 827 821 38
41453 827 279 87
41454 827 881 41
41455 827 941 86
41456 827 497 37
41457 827 237 26
41458 827 880 93
41459 827 756 34
41460 827 920 38
41461 827 184 22
41462 827 631 24
41463 827 413 71
41464 828 510 37
41465 828 985 3
41466 828 611 4
41467 828 368 88
41468 828 74 63
41469 828 576 86
41470 828 95 44
41471 828 112 52
41472 828 688 89
41473 828 208 85
41474 828 46 58
41475 828 923 68
41476 828 624 56
41477 828 367 54
41478 828 788 7
41479 828 339 55
41480 828 627 99
41481 828 277 1
41482 828 105 1
41483 828 619 29
41484 828 869 58
41485 828 131 99
41486 828 807 33
41487 828 396 40
41488 828 880 1
41489 828 381 18
41490 828 623 51
41491 828 48 94
41492 828 189 51
41493 828 161 100
41494 828 47 6
41495 828 490 42
41496 828 742 16
41497 828 415 64
41498 828 903 47
41499 828 318 42
41500 828 629 22
41501 828 158 92
41502 828 371 54
41503 828 391 92
41504 828 472 44
41505 828 117 31
41506 828 260 99
41507 828 944 14
41508 828 246 83
41509 828 889 24
41510 828 872 18
41511 829 804 11
41512 829 553 16
41513 829 55 56
41514 829 778 22
41515 829 825 3
41516 829 251 6
41517 829 902 15
41518 829 384 99
41519 829 788 42
41520 829 552 70
41521 829 694 47
41522 829 480 41
41523 829 243 26
41524 829 624 67
41525 829 992 83
41526 829 731 56
41527 829 508 83
41528 829 793 37
41529 829 100 1
41530 829 953 93
41531 829 241 85
41532 829 537 24
41533 829 589 66
41534 829 0 51
41535 829 449 70
41536 829 459 71
41537 829 268 2
41538 829 491 77
41539 829 724 30
41540 829 127 34
41541 829 710 98
41542 829 578 25
41543 829 674 41
41544 829 786 24
41545 829 545 44
41546 829 917 30
41547 829 720 34
41548 829 364 54
41549 829 669 12
41550 829 737 34
41551 829 616 98
41552 829 908 52
41553 829 974 41
41554 829 964 94
41555 829 990 24
41556 829 73 96
41557 830 255 66
41558 830 923 88
41559 830 258 43
41560 830 184 66
41561 830 395 12
41562 830 142 14
41563 830 774 6
41564 830 717 17
41565 830 770 29
41566 830 587 10
41567 830 384 6
41568 830 947 53
41569 830 129 15
41570 830 202 11
41571 830 702 76
41572 830 49 15
41573 830 370 94
41574 830 215 27
41575 830 943 82
41576 830 97 82
41577 830 783 8
41578 830 996 96
41579 830 126 13
41580 830 897 25
41581 830 939 72
41582 830 53 65
41583 830 224 8
41584 830 82 100
41585 830 909 1
41586 830 87 41
41587 830 620 52
41588 830 55 78
41589 830 674 94
41590 830 803 78
41591 830 425 44
41592 830 223 36
41593 830 396 85
41594 830 137 96
41595 830 124 63
41596 830 843 76
41597 830 736 26
41598 830 394 23
41599 830 424 92
41600 830 977 50
41601 830 866 72
41602 830 197 17
41603 830 983 94
41604 830 192 42
41605 830 93 38
41606 830 131 21
41607 830 179 99
41608 830 842 42
41609 831 13 91
41610 831 853 52
41611 831 421 51
41612 831 959 99
41613 831 299 50
41614 831 241 52
41615 831 111 89
41616 831 912 59
41617 831 16 10
41618 831 993 60
41619 831 770 63
41620 831 960 36
41621 831 312 52
41622 831 82 90
41623 831 332 2
41624 831 191 19
41625 831 808 85
41626 831 560 25
41627 831 966 15
41628 831 431 43
41629 831 201 22
41630 831 268 93
41631 831 862 18
41632 831 750 74
41633 831 156 95
41634 831 608 33
41635 831 412 80
41636 831 599 65
41637 831 358 19
41638 831 155 98
41639 831 463 22
41640 831 275 37
41641 831 889 76
41642 831 883 22
41643 831 481 86
41644 831 37 26
41645 831 256 16
41646 831 28 28
41647 831 252 25
41648 831 479 70
41649 832 75 61
41650 832 437 16
41651 832 367 36
41652 832 844 31
41653 832 453 57
41654 832 467 72
41655 832 228 49
41656 832 506 97
41657 832 7 96
41658 832 461 66
41659 832 617 2
41660 832 560 88
41661 832 63 67
41662 832 939 40
41663 832 248 30
41664 832 399 35
41665 832 387 79
41666 832 14 43
41667 832 770 26
41668 832 834 98
41669 832 252 96
41670 832 334 30
41671 832 198 92
41672 832 950 58
41673 832 28 63
41674 832 84 27
41675 832 969 9
41676 832 993 61
41677 832 208 92
41678 832 441 17
41679 832 693 41
41680 832 858 84
41681 832 102 20
41682 832 922 63
41683 832 696 17
41684 832 83 67
41685 832 755 44
41686 832 689 15
41687 832 434 65
41688 832 39 31
41689 832 447 1
41690 832 137 32
41691 832 78 26
41692 832 956 36
41693 832 793 47
41694 832 439 65
41695 832 304 21
41696 832 216 62
41697 832 58 40
41698 832 288 31
41699 832 309 48
41700 833 586 99
41701 833 330 65
41702 833 281 20
41703 833 162 81
41704 833 177 9
41705 833 793 86
41706 833 935 86
41707 833 791 2
41708 833 665 18
41709 833 521 53
41710 833 513 6
41711 833 500 1
41712 833 491 27
41713 833 778 77
41714 833 657 65
41715 833 582 71
41716 833 132 68
41717 833 986 19
41718 833 725 23
41719 833 105 32
41720 833 595 24
41721 833 238 16
41722 833 70 85
41723 833 390 60
41724 833 486 68
41725 833 569 13
41726 833 112 100
41727 833 468 36
41728 833 632 43
41729 833 109 35
41730 833 996 7
41731 833 81 89
41732 833 640 32
41733 833 546 95
41734 833 196 15
41735 833 22 22
41736 833 13 22
41737 833 951 26
41738 833 580 85
41739 833 535 32
41740 833 696 1
41741 833 609 17
41742 833 1 23
41743 833 401 99
41744 833 937 72
41745 833 652 72
41746 833 992 16
41747 833 501 7
41748 833 406 78
41749 833 905 92
41750 833 727 56
41751 833 642 42
41752 833 472 44
41753 833 731 88
41754 833 423 76
41755 833 771 43
41756 833 360 10
41757 834 471 96
41758 834 855 16
41759 834 911 71
41760 834 806 88
41761 834 750 45
41762 834 669 95
41763 834 509 43
41764 834 555 49
41765 834 118 6
41766 834 395 46
41767 834 705 77
41768 834 120 10
41769 834 324 91
41770 834 712 97
41771 834 399 22
41772 834 791 47
41773 834 796 70
41774 834 107 87
41775 834 996 38
41776 834 541 60
41777 834 126 55
41778 834 724 80
41779 834 68 41
41780 834 837 41
41781 834 606 5
41782 834 888 87
41783 834 869 72
41784 834 591 29
41785 834 764 61
41786 834 926 89
41787 834 135 60
41788 834 27 25
41789 834 46 53
41790 834 696 21
41791 834 666 27
41792 834 122 37
41793 834 827 62
41794 834 152 100
41795 834 909 18
41796 834 663 42
41797 834 339 1
41798 834 657 16
41799 834 382 66
41800 834 190 40
41801 834 884 73
41802 834 713 45
41803 835 883 65
41804 835 428 57
41805 835 495 92
41806 835 523 15
41807 835 615 42
41808 835 373 31
41809 835 338 78
41810 835 114 90
41811 835 710 75
41812 835 219 85
41813 835 278 77
41814 835 293 30
41815 835 870 50
41816 835 296 42
41817 835 771 16
41818 835 8 25
41819 835 332 22
41820 835 703 94
41821 835 869 92
41822 835 113 4
41823 835 688 78
41824 835 613 33
41825 835 397 92
41826 835 601 84
41827 835 912 15
41828 835 650 32
41829 835 292 22
41830 835 248 65
41831 835 639 90
41832 835 313 57
41833 835 737 83
41834 835 866 48
41835 835 614 70
41836 835 189 63
41837 835 54 32
41838 835 487 92
41839 835 572 23
41840 835 529 67
41841 835 959 18
41842 835 647 24
41843 835 267 89
41844 835 747 7
41845 835 826 14
41846 835 411 99
41847 835 87 64
41848 835 585 83
41849 835 40 8
41850 835 494 42
41851 835 478 73
41852 835 899 54
41853 835 69 73
41854 835 414 13
41855 835 972 16
41856 835 780 88
41857 835 849 17
41858 835 512 48
41859 835 708 88
41860 835 467 77
41861 835 235 48
41862 835 404 8
41863 835 252 15
41864 835 290 8
41865 836 650 50
41866 836 424 8
41867 836 419 90
41868 836 398 77
41869 836 707 49
41870 836 885 96
41871 836 934 10
41872 836 271 12
41873 836 176 10
41874 836 317 32
41875 836 188 96
41876 836 466 66
41877 836 353 52
41878 836 281 6
41879 836 929 98
41880 836 456 88
41881 836 689 86
41882 836 117 20
41883 836 29 55
41884 836 779 97
41885 836 722 72
41886 836 305 44
41887 836 283 12
41888 836 378 32
41889 836 822 62
41890 836 561 52
41891 836 362 80
41892 836 121 12
41893 836 201 25
41894 836 278 73
41895 836 819 45
41896 836 728 29
41897 836 495 27
41898 836 917 77
41899 836 984 43
41900 836 879 67
41901 836 128 20
41902 836 553 37
41903 836 262 58
41904 836 603 20
41905 836 189 61
41906 836 941 14
41907 836 896 66
41908 836 242 84
41909 836 476 67
41910 836 355 54
41911 836 478 30
41912 836 597 46
41913 836 21 41
41914 836 65 14
41915 836 35 91
41916 836 105 18
41917 836 216 40
41918 836 856 66
41919 837 521 77
41920 837 747 83
41921 837 494 21
41922 837 544 92
41923 837 592 49
41924 837 42 51
41925 837 270 23
41926 837 300 88
41927 837 962 10
41928 837 491 47
41929 837 117 87
41930 837 558 40
41931 837 660 87
41932 837 709 19
41933 837 340 74
41934 837 171 21
41935 837 287 87
41936 837 423 97
41937 837 246 50
41938 837 120 100
41939 837 84 93
41940 837 600 35
41941 837 346 100
41942 837 396 7
41943 837 524 59
41944 837 918 6
41945 837 445 39
41946 837 908 9
41947 837 612 49
41948 837 50 6
41949 837 904 76
41950 837 190 98
41951 837 899 30
41952 837 817 16
41953 837 380 49
41954 837 999 36
41955 837 672 70
41956 837 407 61
41957 837 35 56
41958 837 618 85
41959 837 338 24
41960 837 177 84
41961 837 202 55
41962 837 498 58
41963 837 372 25
41964 837 582 62
41965 838 65 15
41966 838 363 43
41967 838 873 53
41968 838 64 15
41969 838 77 39
41970 838 664 95
41971 838 856 16
41972 838 906 54
41973 838 43 95
41974 838 29 92
41975 838 481 10
41976 838 104 65
41977 838 441 74
41978 838 430 9
41979 838 50 32
41980 838 924 10
41981 838 944 52
41982 838 218 8
41983 838 117 97
41984 838 173 73
41985 838 382 10
41986 838 848 66
41987 838 639 5
41988 838 937 64
41989 838 194 89
41990 838 728 33
41991 838 140 28
41992 838 291 87
41993 838 983 16
41994 838 768 87
41995 838 736 10
41996 838 626 99
41997 838 139 63
41998 838 543 97
41999 838 373 4
42000 838 945 68
42001 838 818 6
42002 838 465 35
42003 838 510 21
42004 838 914 21
42005 838 794 32
42006 838 92 58
42007 838 134 78
42008 838 7 70
42009 838 189 79
42010 838 722 58
42011 838 974 59
42012 838 235 29
42013 838 495 92
42014 838 156 47
42015 838 978 76
42016 839 813 66
42017 839 231 5
42018 839 149 37
42019 839 925 5
42020 839 544 99
42021 839 647 10
42022 839 617 78
42023 839 611 45
42024 839 464 32
42025 839 772 64
42026 839 80 76
42027 839 147 27
42028 839 646 62
42029 839 11 10
42030 839 348 61
42031 839 344 78
42032 839 770 5
42033 839 270 46
42034 839 867 29
42035 839 448 79
42036 839 620 19
42037 839 199 31
42038 839 274 25
42039 839 106 19
42040 839 137 52
42041 839 442 49
42042 839 479 87
42043 839 404 20
42044 839 815 60
42045 839 566 10
42046 839 517 28
42047 839 94 31
42048 840 698 26
42049 840 935 29
42050 840 162 47
42051 840 29 15
42052 840 665 27
42053 840 471 30
42054 840 617 57
42055 840 180 80
42056 840 986 92
42057 840 703 93
42058 840 947 87
42059 840 63 91
42060 840 61 49
42061 840 349 68
42062 840 885 25
42063 840 599 5
42064 840 377 39
42065 840 832 28
42066 840 368 48
42067 840 382 94
42068 840 962 97
42069 840 753 46
42070 840 921 71
42071 840 957 26
42072 840 232 21
42073 840 575 25
42074 840 981 13
42075 840 389 21
42076 840 788 29
42077 840 7 44
42078 840 205 60
42079 840 192 56
42080 840 21 2
42081 840 674 86
42082 840 62 79
42083 840 370 67
42084 840 587 82
42085 840 802 80
42086 840 677 83
42087 840 797 16
42088 840 285 84
42089 840 160 10
42090 840 225 54
42091 841 248 73
42092 841 659 36
42093 841 194 12
42094 841 467 72
42095 841 443 46
42096 841 14 83
42097 841 564 48
42098 841 702 41
42099 841 327 99
42100 841 211 57
42101 841 598 5
42102 841 615 97
42103 841 599 30
42104 841 709 20
42105 841 997 93
42106 841 548 8
42107 841 268 86
42108 841 541 95
42109 841 982 46
42110 841 78 70
42111 841 271 32
42112 841 918 46
42113 841 54 52
42114 841 800 54
42115 841 949 9
42116 841 947 42
42117 841 181 5
42118 841 849 20
42119 841 371 18
42120 841 391 48
42121 841 546 79
42122 841 578 85
42123 841 331 25
42124 841 896 42
42125 841 354 80
42126 841 19 91
42127 841 622 35
42128 841 699 64
42129 841 812 53
42130 841 785 38
42131 841 196 99
42132 841 694 7
42133 842 509 58
42134 842 978 5
42135 842 752 65
42136 842 625 67
42137 842 16 61
42138 842 466 79
42139 842 297 70
42140 842 158 90
42141 842 596 66
42142 842 338 67
42143 842 22 92
42144 842 89 24
42145 842 714 43
42146 842 592 26
42147 842 538 35
42148 842 549 39
42149 842 537 98
42150 842 461 12
42151 842 137 98
42152 842 938 76
42153 842 512 73
42154 842 854 84
42155 842 312 75
42156 842 543 48
42157 842 807 15
42158 842 103 21
42159 842 779 80
42160 842 144 19
42161 842 574 38
42162 842 501 44
42163 842 969 17
42164 842 399 62
42165 842 810 33
42166 842 797 47
42167 842 478 7
42168 842 372 44
42169 842 279 40
42170 842 784 8
42171 842 643 19
42172 842 608 43
42173 842 660 82
42174 842 756 16
42175 843 82 82
42176 843 522 53
42177 843 638 91
42178 843 329 20
42179 843 867 41
42180 843 978 51
42181 843 298 32
42182 843 721 66
42183 843 390 15
42184 843 133 14
42185 843 942 70
42186 843 392 7
42187 843 582 83
42188 843 859 37
42189 843 92 57
42190 843 734 43
42191 843 222 41
42192 843 379 7
42193 843 602 33
42194 843 107 54
42195 843 240 46
42196 843 967 72
42197 843 951 90
42198 843 194 61
42199 843 828 82
42200 843 972 49
42201 843 471 69
42202 843 731 20
42203 843 543 64
42204 843 752 73
42205 843 852 48
42206 843 39 73
42207 843 562 20
42208 843 517 58
42209 843 970 5
42210 843 637 13
42211 843 59 65
42212 843 882 72
42213 843 660 26
42214 843 98 7
42215 843 531 95
42216 843 356 47
42217 843 229 85
42218 843 332 63
42219 843 665 4
42220 843 741 60
42221 843 41 71
42222 843 552 28
42223 843 503 38
42224 843 313 64
42225 843 953 35
42226 844 886 74
42227 844 529 4
42228 844 969 40
42229 844 211 51
42230 844 201 18
42231 844 147 26
42232 844 684 61
42233 844 24 100
42234 844 704 72
42235 844 563 72
42236 844 44 16
42237 844 751 34
42238 844 185 94
42239 844 54 30
42240 844 936 75
42241 844 482 78
42242 844 746 37
42243 844 300 6
42244 844 72 5
42245 844 648 40
42246 844 162 58
42247 844 713 47
42248 844 294 5
42249 844 430 27
42250 844 890 9
42251 844 403 87
42252 844 273 49
42253 844 832 79
42254 844 997 75
42255 844 88 4
42256 844 223 18
42257 844 599 19
42258 844 345 19
42259 844 97 19
42260 844 404 89
42261 844 958 71
42262 844 970 3
42263 844 610 69
42264 844 908 79
42265 844 347 62
42266 844 293 81
42267 844 119 80
42268 844 945 65
42269 844 966 86
42270 844 227 30
42271 844 12 15
42272 845 957 47
42273 845 925 90
42274 845 971 67
42275 845 245 3
42276 845 557 42
42277 845 772 92
42278 845 88 40
42279 845 364 91
42280 845 507 78
42281 845 420 5
42282 845 974 76
42283 845 254 96
42284 845 188 7
42285 845 960 39
42286 845 241 15
42287 845 599 54
42288 845 56 75
42289 845 549 47
42290 845 662 21
42291 845 827 78
42292 845 397 98
42293 845 690 85
42294 845 513 27
42295 845 77 56
42296 845 700 15
42297 845 956 53
42298 845 731 47
42299 845 701 20
42300 845 61 51
42301 845 381 56
42302 845 663 82
42303 845 95 45
42304 845 47 13
42305 845 98 63
42306 845 376 37
42307 845 147 79
42308 845 124 5
42309 845 800 65
42310 845 175 20
42311 845 722 92
42312 845 941 97
42313 845 450 15
42314 846 526 95
42315 846 969 97
42316 846 23 60
42317 846 397 3
42318 846 310 99
42319 846 109 30
42320 846 688 39
42321 846 807 27
42322 846 653 60
42323 846 193 76
42324 846 952 3
42325 846 858 21
42326 846 792 70
42327 846 6 16
42328 846 139 9
42329 846 642 72
42330 846 346 90
42331 846 92 28
42332 846 97 10
42333 846 753 45
42334 846 357 87
42335 846 103 54
42336 846 393 79
42337 846 852 69
42338 846 117 8
42339 846 191 42
42340 846 381 26
42341 846 343 53
42342 846 296 18
42343 846 401 35
42344 846 559 76
42345 846 946 54
42346 846 73 59
42347 846 574 23
42348 846 289 51
42349 846 177 39
42350 846 385 28
42351 846 857 39
42352 846 751 76
42353 846 643 73
42354 846 435 33
42355 846 458 87
42356 847 816 64
42357 847 618 85
42358 847 503 71
42359 847 635 93
42360 847 467 17
42361 847 94 94
42362 847 967 29
42363 847 362 9
42364 847 702 62
42365 847 135 69
42366 847 297 98
42367 847 159 2
42368 847 198 76
42369 847 469 65
42370 847 748 68
42371 847 877 29
42372 847 506 50
42373 847 827 94
42374 847 160 68
42375 847 459 95
42376 847 340 50
42377 847 26 53
42378 847 216 3
42379 847 831 52
42380 847 892 45
42381 847 405 95
42382 847 211 29
42383 847 393 86
42384 847 953 90
42385 847 512 94
42386 847 373 84
42387 847 640 34
42388 847 659 84
42389 847 549 72
42390 847 411 22
42391 847 634 23
42392 847 516 63
42393 847 10 11
42394 847 572 30
42395 847 54 4
42396 847 809 82
42397 847 868 20
42398 847 473 56
42399 847 565 8
42400 847 267 27
42401 847 687 35
42402 847 835 48
42403 847 844 12
42404 847 720 25
42405 847 315 8
42406 847 332 64
42407 847 317 67
42408 847 308 82
42409 847 851 94
42410 847 796 9
42411 847 802 96
42412 847 380 72
42413 847 988 82
42414 848 896 75
42415 848 976 50
42416 848 798 16
42417 848 888 6
42418 848 652 55
42419 848 569 38
42420 848 116 10
42421 848 5 44
42422 848 441 64
42423 848 232 40
42424 848 398 81
42425 848 889 4
42426 848 593 81
42427 848 850 25
42428 848 783 49
42429 848 586 65
42430 848 621 28
42431 848 267 66
42432 848 231 72
42433 848 205 91
42434 848 553 92
42435 848 148 54
42436 848 774 96
42437 848 478 53
42438 848 754 72
42439 848 330 16
42440 848 554 77
42441 848 347 75
42442 848 14 88
42443 848 123 43
42444 848 571 90
42445 848 386 80
42446 848 247 65
42447 848 807 47
42448 848 987 91
42449 848 426 88
42450 848 916 55
42451 848 355 78
42452 848 4 29
42453 848 772 100
42454 848 892 58
42455 848 423 61
42456 848 968 22
42457 848 268 82
42458 848 786 6
42459 848 240 48
42460 848 863 45
42461 848 525 10
42462 848 992 69
42463 849 725 63
42464 849 443 2
42465 849 663 4
42466 849 997 39
42467 849 520 59
42468 849 842 29
42469 849 706 84
42470 849 721 44
42471 849 261 69
42472 849 180 71
42473 849 232 23
42474 849 31 20
42475 849 82 21
42476 849 599 95
42477 849 884 70
42478 849 274 1
42479 849 481 70
42480 849 209 59
42481 849 0 57
42482 849 886 29
42483 849 934 75
42484 849 720 63
42485 849 179 15
42486 849 870 57
42487 849 974 39
42488 849 678 5
42489 849 943 72
42490 849 368 11
42491 849 843 59
42492 849 202 78
42493 849 573 36
42494 849 798 33
42495 849 701 22
42496 849 143 40
42497 849 787 52
42498 849 264 42
42499 849 111 98
42500 849 254 16
42501 849 87 26
42502 849 749 87
42503 849 885 12
42504 849 234 22
42505 849 958 22
42506 849 269 6
42507 849 942 100
42508 849 480 24
42509 849 614 28
42510 849 69 2
42511 849 907 20
42512 849 141 21
42513 850 205 87
42514 850 771 15
42515 850 816 18
42516 850 478 5
42517 850 241 2
42518 850 305 78
42519 850 944 18
42520 850 638 40
42521 850 975 15
42522 850 654 27
42523 850 746 16
42524 850 832 85
42525 850 133 68
42526 850 93 35
42527 850 404 34
42528 850 596 70
42529 850 444 65
42530 850 898 100
42531 850 663 43
42532 850 210 14
42533 850 513 66
42534 850 426 38
42535 850 960 68
42536 850 135 91
42537 850 136 3
42538 850 405 24
42539 850 392 64
42540 850 402 45
42541 850 339 70
42542 850 994 6
42543 850 778 92
42544 850 403 5
42545 850 792 71
42546 850 438 77
42547 850 724 38
42548 850 856 77
42549 850 398 64
42550 850 372 74
42551 850 378 13
42552 850 35 68
42553 850 432 81
42554 850 780 91
42555 850 272 54
42556 850 839 70
42557 850 614 39
42558 850 260 46
42559 850 783 44
42560 850 743 43
42561 850 351 13
42562 850 791 72
42563 850 208 22
42564 850 108 59
42565 850 883 45
42566 850 645 2
42567 850 282 80
42568 850 822 64
42569 851 34 10
42570 851 404 25
42571 851 117 65
42572 851 801 41
42573 851 421 64
42574 851 626 8
42575 851 128 15
42576 851 276 60
42577 851 61 12
42578 851 167 33
42579 851 356 91
42580 851 621 44
42581 851 43 58
42582 851 585 94
42583 851 639 59
42584 851 926 80
42585 851 796 33
42586 851 291 16
42587 851 144 2
42588 851 385 37
42589 851 40 20
42590 851 41 14
42591 851 346 59
42592 851 682 65
42593 851 91 95
42594 851 46 97
42595 851 885 74
42596 851 741 50
42597 851 390 20
42598 851 688 39
42599 851 448 52
42600 851 845 22
42601 851 933 4
42602 851 208 37
42603 851 616 41
42604 851 99 47
42605 851 844 62
42606 851 656 82
42607 851 476 86
42608 851 712 9
42609 851 971 11
42610 851 931 96
42611 851 330 14
42612 851 445 8
42613 851 123 57
42614 851 228 30
42615 851 534 71
42616 851 320 65
42617 851 609 75
42618 852 463 73
42619 852 107 64
42620 852 820 36
42621 852 255 82
42622 852 800 86
42623 852 880 82
42624 852 978 50
42625 852 918 27
42626 852 763 5
42627 852 745 32
42628 852 860 2
42629 852 909 57
42630 852 76 85
42631 852 912 79
42632 852 418 86
42633 852 80 20
42634 852 311 82
42635 852 913 99
42636 852 280 36
42637 852 296 93
42638 852 616 93
42639 852 360 64
42640 852 704 55
42641 852 176 3
42642 852 150 5
42643 852 595 1
42644 852 561 26
42645 852 317 57
42646 852 856 1
42647 852 262 97
42648 852 847 90
42649 852 414 41
42650 852 43 84
42651 852 981 48
42652 852 159 97
42653 852 263 31
42654 852 361 45
42655 852 110 30
42656 852 237 58
42657 852 708 50
42658 852 506 16
42659 852 518 41
42660 852 928 87
42661 852 620 27
42662 852 542 43
42663 852 500 43
42664 852 881 16
42665 852 248 87
42666 852 961 28
42667 852 828 77
42668 852 557 50
42669 852 804 75
42670 852 152 13
42671 853 312 10
42672 853 149 31
42673 853 951 33
42674 853 243 48
42675 853 870 1
42676 853 771 70
42677 853 270 67
42678 853 797 89
42679 853 838 72
42680 853 439 68
42681 853 213 96
42682 853 674 82
42683 853 717 71
42684 853 70 14
42685 853 359 80
42686 853 144 6
42687 853 120 54
42688 853 385 29
42689 853 78 95
42690 853 500 77
42691 853 172 32
42692 853 723 49
42693 853 733 11
42694 853 981 3
42695 853 356 5
42696 853 741 76
42697 853 571 19
42698 853 167 3
42699 853 227 45
42700 853 188 45
42701 853 194 100
42702 853 886 7
42703 853 533 60
42704 853 562 91
42705 853 222 16
42706 853 911 95
42707 853 750 28
42708 853 864 66
42709 853 988 32
42710 853 648 85
42711 853 159 53
42712 853 293 67
42713 853 683 51
42714 853 252 36
42715 853 837 67
42716 853 67 67
42717 853 556 94
42718 853 758 2
42719 854 252 88
42720 854 344 97
42721 854 980 61
42722 854 983 86
42723 854 87 91
42724 854 700 1
42725 854 940 31
42726 854 860 90
42727 854 892 88
42728 854 256 96
42729 854 123 66
42730 854 437 58
42731 854 89 61
42732 854 83 63
42733 854 872 24
42734 854 279 41
42735 854 955 37
42736 854 249 79
42737 854 992 91
42738 854 56 72
42739 854 525 47
42740 854 661 51
42741 854 760 21
42742 854 166 80
42743 854 277 33
42744 854 762 87
42745 854 989 84
42746 854 669 62
42747 854 270 59
42748 854 414 5
42749 854 186 37
42750 854 458 14
42751 854 311 36
42752 854 155 89
42753 854 910 55
42754 854 183 14
42755 854 702 10
42756 854 560 74
42757 854 829 63
42758 854 543 26
42759 854 623 16
42760 854 11 30
42761 854 938 33
42762 854 238 78
42763 854 586 94
42764 854 368 23
42765 854 931 51
42766 854 588 26
42767 854 715 64
42768 854 950 58
42769 854 129 54
42770 854 1 67
42771 854 978 84
42772 854 489 63
42773 855 489 32
42774 855 328 1
42775 855 99 94
42776 855 40 62
42777 855 210 69
42778 855 178 1
42779 855 229 44
42780 855 355 28
42781 855 441 44
42782 855 436 2
42783 855 135 25
42784 855 169 45
42785 855 163 98
42786 855 221 46
42787 855 570 33
42788 855 322 57
42789 855 985 80
42790 855 257 83
42791 855 948 91
42792 855 986 29
42793 855 448 11
42794 855 500 66
42795 855 955 77
42796 855 261 62
42797 855 593 49
42798 855 881 65
42799 855 2 41
42800 855 71 98
42801 855 813 28
42802 855 903 44
42803 855 960 66
42804 855 68 93
42805 855 552 45
42806 855 142 5
42807 855 5 39
42808 855 814 79
42809 855 0 97
42810 855 637 50
42811 855 435 46
42812 855 463 13
42813 855 511 71
42814 855 733 82
42815 855 762 93
42816 855 365 52
42817 855 273 46
42818 855 130 5
42819 855 618 33
42820 855 432 29
42821 855 357 37
42822 855 485 43
42823 855 965 17
42824 855 850 82
42825 855 862 98
42826 855 11 38
42827 855 484 41
42828 855 743 97
42829 855 722 49
42830 855 7 56
42831 855 647 54
42832 856 230 1
42833 856 924 33
42834 856 723 25
42835 856 372 20
42836 856 45 31
42837 856 816 53
42838 856 259 51
42839 856 325 18
42840 856 220 47
42841 856 338 95
42842 856 757 67
42843 856 988 66
42844 856 826 53
42845 856 131 3
42846 856 949 69
42847 856 501 11
42848 856 97 64
42849 856 180 51
42850 856 793 92
42851 856 401 92
42852 856 861 40
42853 856 75 9
42854 856 878 90
42855 856 0 71
42856 856 605 37
42857 856 750 84
42858 856 621 87
42859 856 707 48
42860 856 692 56
42861 856 684 30
42862 856 947 43
42863 856 803 92
42864 856 487 40
42865 856 753 77
42866 856 747 72
42867 856 495 5
42868 856 661 92
42869 856 600 68
42870 856 631 11
42871 856 993 1
42872 856 567 52
42873 856 441 93
42874 856 885 53
42875 856 199 30
42876 856 419 9
42877 856 54 66
42878 856 721 22
42879 856 868 5
42880 856 918 67
42881 856 702 62
42882 856 919 79
42883 856 119 11
42884 856 616 50
42885 856 374 23
42886 856 141 14
42887 856 746 18
42888 856 883 88
42889 857 157 15
42890 857 613 39
42891 857 919 1
42892 857 349 6
42893 857 938 92
42894 857 173 86
42895 857 463 70
42896 857 667 56
42897 857 484 73
42898 857 604 100
42899 857 8 36
42900 857 980 91
42901 857 806 60
42902 857 762 75
42903 857 719 54
42904 857 995 58
42905 857 511 78
42906 857 162 64
42907 857 269 67
42908 857 273 69
42909 857 319 11
42910 857 903 61
42911 857 435 78
42912 857 139 49
42913 857 978 96
42914 857 988 51
42915 857 975 29
42916 857 22 69
42917 857 825 56
42918 857 226 91
42919 857 355 21
42920 857 837 54
42921 857 384 28
42922 857 431 93
42923 857 874 11
42924 857 360 69
42925 857 514 16
42926 857 267 69
42927 857 540 48
42928 857 512 30
42929 857 711 39
42930 857 621 74
42931 857 385 95
42932 857 451 56
42933 857 627 70
42934 857 560 16
42935 857 491 55
42936 857 996 32
42937 857 503 63
42938 857 34 50
42939 857 149 52
42940 857 409 16
42941 857 190 61
42942 858 184 51
42943 858 67 40
42944 858 73 20
42945 858 112 29
42946 858 969 90
42947 858 581 74
42948 858 665 16
42949 858 299 25
42950 858 506 97
42951 858 98 9
42952 858 92 20
42953 858 391 55
42954 858 816 53
42955 858 175 50
42956 858 597 95
42957 858 114 53
42958 858 767 42
42959 858 680 1
42960 858 578 38
42961 858 622 82
42962 858 382 36
42963 858 704 73
42964 858 860 48
42965 858 982 20
42966 858 926 92
42967 858 980 42
42968 858 757 80
42969 858 125 56
42970 858 949 20
42971 858 233 82
42972 858 884 47
42973 858 124 23
42974 858 343 27
42975 858 42 22
42976 858 889 79
42977 858 717 3
42978 858 294 65
42979 858 642 32
42980 858 59 78
42981 858 216 84
42982 858 30 5
42983 858 968 32
42984 858 686 50
42985 858 831 69
42986 858 955 12
42987 858 223 82
42988 858 542 97
42989 858 290 57
42990 858 203 73
42991 858 920 25
42992 858 632 38
42993 859 606 85
42994 859 619 56
42995 859 729 80
42996 859 806 52
42997 859 929 77
42998 859 992 40
42999 859 379 77
43000 859 377 8
43001 859 195 6
43002 859 763 96
43003 859 167 81
43004 859 569 49
43005 859 68 45
43006 859 955 96
43007 859 952 57
43008 859 554 66
43009 859 481 45
43010 859 238 30
43011 859 607 57
43012 859 63 12
43013 859 967 32
43014 859 799 96
43015 859 445 61
43016 859 733 22
43017 859 58 36
43018 859 796 27
43019 859 851 57
43020 859 609 84
43021 859 973 88
43022 859 315 58
43023 859 942 80
43024 859 515 48
43025 859 372 64
43026 859 769 28
43027 859 488 67
43028 859 863 75
43029 859 525 46
43030 859 250 39
43031 859 639 79
43032 859 521 77
43033 859 147 19
43034 859 507 90
43035 859 883 74
43036 859 809 76
43037 859 169 45
43038 859 247 27
43039 859 448 73
43040 859 411 100
43041 859 572 53
43042 859 964 73
43043 860 36 72
43044 860 610 42
43045 860 868 86
43046 860 30 26
43047 860 83 48
43048 860 660 9
43049 860 326 99
43050 860 63 25
43051 860 719 51
43052 860 11 15
43053 860 331 8
43054 860 624 88
43055 860 961 97
43056 860 778 98
43057 860 881 60
43058 860 517 41
43059 860 114 34
43060 860 43 81
43061 860 448 10
43062 860 166 26
43063 860 597 19
43064 860 236 98
43065 860 383 75
43066 860 18 56
43067 860 241 87
43068 860 202 61
43069 860 52 85
43070 860 772 80
43071 860 922 84
43072 860 887 41
43073 860 990 22
43074 860 267 37
43075 860 85 24
43076 860 368 96
43077 860 135 43
43078 860 761 36
43079 860 468 20
43080 860 946 77
43081 860 193 88
43082 860 446 87
43083 860 861 4
43084 860 531 4
43085 860 928 56
43086 860 117 76
43087 860 66 44
43088 860 870 95
43089 860 694 11
43090 860 739 54
43091 860 34 15
43092 860 39 70
43093 860 633 6
43094 860 947 58
43095 861 399 75
43096 861 573 50
43097 861 770 69
43098 861 851 71
43099 861 243 42
43100 861 689 97
43101 861 646 97
43102 861 164 49
43103 861 712 63
43104 861 607 100
43105 861 643 97
43106 861 361 16
43107 861 891 90
43108 861 571 57
43109 861 197 66
43110 861 511 60
43111 861 744 64
43112 861 20 43
43113 861 184 5
43114 861 872 39
43115 861 845 61
43116 861 859 50
43117 861 265 3
43118 861 755 62
43119 861 868 11
43120 861 827 71
43121 861 737 52
43122 861 667 91
43123 861 540 46
43124 861 175 74
43125 861 873 99
43126 861 584 60
43127 861 731 94
43128 861 623 93
43129 861 605 30
43130 861 101 99
43131 861 40 23
43132 861 289 70
43133 861 806 31
43134 861 745 13
43135 861 132 35
43136 861 67 85
43137 861 624 21
43138 861 967 72
43139 861 616 10
43140 861 138 23
43141 861 631 46
43142 861 491 45
43143 861 784 88
43144 861 649 28
43145 861 608 86
43146 861 61 87
43147 861 835 80
43148 861 707 32
43149 861 528 60
43150 861 145 10
43151 862 231 82
43152 862 459 52
43153 862 356 30
43154 862 106 66
43155 862 305 86
43156 862 686 24
43157 862 254 82
43158 862 173 81
43159 862 473 23
43160 862 383 54
43161 862 241 83
43162 862 358 13
43163 862 518 5
43164 862 223 34
43165 862 156 69
43166 862 261 18
43167 862 732 53
43168 862 528 58
43169 862 652 87
43170 862 4 79
43171 862 671 60
43172 862 599 48
43173 862 227 90
43174 862 771 57
43175 862 851 65
43176 862 895 10
43177 862 613 95
43178 862 477 17
43179 862 178 6
43180 862 414 56
43181 862 462 6
43182 862 999 95
43183 862 44 8
43184 862 263 71
43185 862 653 96
43186 862 561 64
43187 862 509 40
43188 862 567 28
43189 863 988 24
43190 863 915 72
43191 863 643 91
43192 863 998 30
43193 863 602 76
43194 863 138 82
43195 863 4 23
43196 863 722 51
43197 863 159 91
43198 863 77 34
43199 863 624 85
43200 863 759 75
43201 863 178 98
43202 863 652 71
43203 863 340 51
43204 863 904 71
43205 863 27 39
43206 863 245 54
43207 863 547 61
43208 863 764 47
43209 863 186 81
43210 863 979 17
43211 863 325 1
43212 863 92 48
43213 863 743 52
43214 863 316 48
43215 863 564 91
43216 863 3 3
43217 863 262 61
43218 863 209 32
43219 863 124 60
43220 863 707 60
43221 863 623 51
43222 863 719 84
43223 863 195 57
43224 863 739 89
43225 863 819 30
43226 863 74 13
43227 863 783 96
43228 863 47 23
43229 863 303 12
43230 863 152 15
43231 863 162 70
43232 863 837 48
43233 863 278 92
43234 863 411 29
43235 863 315 35
43236 863 402 95
43237 863 729 64
43238 863 427 7
43239 864 590 21
43240 864 986 23
43241 864 633 96
43242 864 77 99
43243 864 495 74
43244 864 696 88
43245 864 690 58
43246 864 517 27
43247 864 255 43
43248 864 23 21
43249 864 616 53
43250 864 527 4
43251 864 563 69
43252 864 777 99
43253 864 750 61
43254 864 636 23
43255 864 552 99
43256 864 139 99
43257 864 243 36
43258 864 677 71
43259 864 443 70
43260 864 266 66
43261 864 943 100
43262 864 293 81
43263 864 375 7
43264 864 444 97
43265 864 51 59
43266 864 429 84
43267 864 619 60
43268 864 884 42
43269 864 144 1
43270 864 11 21
43271 864 787 14
43272 864 889 30
43273 864 674 84
43274 864 22 71
43275 864 676 71
43276 864 117 18
43277 864 466 23
43278 864 780 2
43279 864 411 19
43280 864 157 55
43281 864 104 3
43282 864 178 44
43283 864 749 9
43284 864 559 25
43285 864 450 60
43286 864 695 72
43287 864 121 8
43288 864 352 90
43289 864 388 89
43290 864 190 49
43291 864 720 86
43292 864 319 74
43293 864 784 56
43294 864 974 49
43295 864 929 14
43296 864 402 13
43297 864 60 54
43298 864 723 57
43299 864 55 63
43300 864 521 37
43301 864 346 57
43302 865 730 24
43303 865 683 95
43304 865 271 75
43305 865 794 92
43306 865 651 44
43307 865 703 24
43308 865 355 52
43309 865 260 57
43310 865 102 27
43311 865 372 45
43312 865 893 7
43313 865 755 7
43314 865 991 98
43315 865 551 27
43316 865 107 97
43317 865 797 26
43318 865 139 6
43319 865 146 95
43320 865 253 33
43321 865 491 43
43322 865 320 80
43323 865 727 42
43324 865 13 55
43325 865 688 72
43326 865 63 73
43327 865 66 4
43328 865 658 25
43329 865 373 65
43330 865 259 91
43331 865 813 34
43332 865 401 73
43333 865 796 60
43334 865 669 79
43335 865 78 40
43336 865 987 89
43337 865 163 83
43338 865 242 40
43339 865 486 55
43340 865 646 59
43341 865 824 20
43342 865 695 20
43343 865 951 67
43344 865 178 89
43345 865 75 37
43346 865 508 34
43347 865 257 80
43348 865 174 12
43349 865 213 50
43350 865 902 3
43351 865 363 27
43352 865 467 87
43353 865 915 11
43354 865 913 31
43355 865 606 91
43356 865 295 89
43357 865 687 8
43358 865 676 5
43359 866 684 82
43360 866 886 74
43361 866 935 27
43362 866 67 26
43363 866 74 96
43364 866 527 37
43365 866 279 93
43366 866 392 66
43367 866 190 48
43368 866 69 10
43369 866 901 42
43370 866 432 80
43371 866 187 20
43372 866 964 66
43373 866 897 85
43374 866 846 32
43375 866 54 93
43376 866 328 71
43377 866 546 77
43378 866 791 47
43379 866 810 4
43380 866 780 49
43381 866 123 35
43382 866 636 12
43383 866 271 88
43384 866 840 76
43385 866 388 85
43386 866 568 38
43387 866 258 46
43388 866 790 99
43389 866 937 35
43390 866 828 39
43391 866 398 96
43392 866 598 14
43393 866 771 96
43394 866 242 79
43395 866 904 74
43396 866 439 27
43397 866 870 14
43398 866 394 20
43399 866 314 31
43400 866 956 31
43401 866 915 21
43402 866 686 20
43403 866 985 89
43404 866 949 88
43405 866 434 14
43406 866 308 64
43407 866 746 10
43408 866 984 32
43409 866 286 47
43410 866 424 36
43411 866 502 13
43412 866 372 60
43413 867 459 53
43414 867 25 9
43415 867 147 56
43416 867 179 36
43417 867 20 38
43418 867 936 65
43419 867 441 41
43420 867 16 75
43421 867 74 60
43422 867 242 24
43423 867 953 15
43424 867 722 71
43425 867 956 7
43426 867 592 96
43427 867 185 16
43428 867 749 1
43429 867 299 26
43430 867 27 33
43431 867 994 64
43432 867 653 48
43433 867 862 90
43434 867 581 46
43435 867 995 64
43436 867 820 68
43437 867 260 84
43438 867 782 79
43439 867 301 88
43440 867 141 64
43441 867 283 98
43442 867 51 67
43443 867 659 13
43444 867 67 1
43445 867 567 32
43446 867 595 37
43447 867 805 18
43448 867 120 93
43449 867 649 10
43450 867 300 26
43451 867 11 75
43452 867 633 17
43453 867 234 67
43454 867 615 5
43455 867 969 59
43456 867 241 1
43457 867 886 23
43458 867 284 85
43459 867 280 66
43460 867 730 56
43461 867 489 17
43462 867 643 33
43463 867 329 10
43464 867 325 7
43465 867 741 53
43466 867 405 96
43467 867 650 30
43468 867 826 11
43469 867 509 53
43470 868 847 44
43471 868 483 16
43472 868 2 73
43473 868 22 52
43474 868 816 64
43475 868 697 48
43476 868 488 60
43477 868 410 49
43478 868 842 11
43479 868 201 49
43480 868 256 42
43481 868 26 100
43482 868 805 37
43483 868 295 32
43484 868 751 26
43485 868 957 31
43486 868 823 14
43487 868 66 25
43488 868 496 7
43489 868 921 85
43490 868 186 54
43491 868 4 87
43492 868 743 12
43493 868 84 3
43494 868 720 32
43495 868 144 48
43496 868 545 97
43497 868 495 88
43498 868 943 47
43499 868 747 8
43500 868 225 22
43501 868 524 42
43502 868 893 53
43503 868 752 40
43504 868 181 52
43505 868 861 51
43506 868 818 36
43507 868 734 75
43508 868 666 73
43509 868 841 98
43510 868 346 95
43511 868 49 11
43512 868 963 77
43513 868 217 19
43514 868 248 59
43515 868 548 53
43516 868 907 67
43517 868 154 90
43518 868 807 99
43519 868 338 13
43520 868 683 90
43521 868 14 96
43522 868 813 52
43523 868 579 56
43524 868 971 42
43525 868 572 34
43526 868 728 9
43527 868 544 26
43528 869 84 49
43529 869 265 58
43530 869 237 21
43531 869 181 66
43532 869 590 80
43533 869 960 86
43534 869 827 67
43535 869 918 85
43536 869 881 82
43537 869 130 6
43538 869 36 80
43539 869 163 54
43540 869 45 61
43541 869 462 57
43542 869 653 64
43543 869 135 15
43544 869 911 32
43545 869 925 89
43546 869 993 5
43547 869 987 98
43548 869 301 61
43549 869 101 35
43550 869 108 4
43551 869 976 60
43552 869 952 89
43553 869 80 74
43554 869 478 7
43555 869 459 56
43556 869 580 60
43557 869 230 12
43558 869 854 6
43559 869 8 49
43560 869 907 32
43561 869 336 18
43562 869 180 9
43563 869 875 17
43564 870 906 76
43565 870 858 38
43566 870 827 62
43567 870 259 38
43568 870 925 47
43569 870 201 36
43570 870 692 85
43571 870 901 76
43572 870 983 67
43573 870 697 75
43574 870 491 85
43575 870 125 69
43576 870 612 86
43577 870 228 26
43578 870 534 23
43579 870 387 42
43580 870 322 10
43581 870 892 98
43582 870 937 31
43583 870 847 59
43584 870 418 17
43585 870 461 95
43586 870 832 72
43587 870 407 52
43588 870 940 83
43589 870 75 20
43590 870 37 76
43591 870 821 99
43592 870 530 31
43593 870 844 9
43594 870 38 84
43595 870 669 38
43596 870 861 79
43597 870 9 47
43598 870 745 25
43599 870 742 59
43600 870 778 64
43601 870 104 75
43602 870 252 11
43603 870 42 72
43604 870 403 28
43605 870 27 66
43606 870 235 27
43607 870 354 94
43608 870 904 52
43609 870 950 2
43610 870 150 9
43611 870 918 87
43612 870 128 83
43613 870 980 43
43614 870 398 2
43615 871 95 3
43616 871 916 33
43617 871 179 36
43618 871 128 71
43619 871 201 94
43620 871 113 80
43621 871 636 93
43622 871 806 37
43623 871 614 87
43624 871 742 51
43625 871 832 37
43626 871 976 47
43627 871 640 89
43628 871 198 20
43629 871 387 69
43630 871 917 55
43631 871 176 67
43632 871 308 46
43633 871 376 66
43634 871 897 88
43635 871 718 43
43636 871 773 78
43637 871 929 55
43638 871 97 36
43639 871 234 84
43640 871 392 100
43641 871 883 34
43642 871 398 55
43643 871 332 61
43644 871 540 29
43645 871 960 65
43646 871 660 48
43647 871 741 72
43648 871 90 51
43649 871 190 65
43650 871 724 67
43651 871 365 86
43652 871 999 91
43653 871 977 78
43654 871 509 98
43655 871 236 61
43656 871 475 12
43657 871 577 18
43658 871 220 38
43659 871 744 25
43660 871 401 80
43661 871 782 71
43662 872 593 79
43663 872 132 94
43664 872 19 3
43665 872 838 34
43666 872 328 7
43667 872 850 80
43668 872 478 3
43669 872 474 16
43670 872 241 91
43671 872 891 72
43672 872 585 40
43673 872 150 36
43674 872 798 6
43675 872 816 36
43676 872 505 48
43677 872 468 92
43678 872 354 40
43679 872 549 47
43680 872 535 81
43681 872 230 68
43682 872 411 94
43683 872 280 95
43684 872 796 60
43685 872 492 34
43686 872 43 43
43687 872 344 24
43688 872 828 97
43689 872 228 97
43690 872 618 59
43691 872 218 45
43692 872 451 82
43693 872 377 91
43694 872 741 56
43695 872 794 39
43696 872 238 71
43697 872 199 69
43698 872 206 49
43699 872 799 68
43700 872 824 31
43701 872 647 11
43702 872 800 10
43703 872 566 100
43704 872 39 80
43705 872 268 2
43706 872 52 7
43707 872 464 20
43708 872 172 64
43709 872 67 86
43710 872 135 50
43711 872 918 62
43712 872 197 34
43713 872 555 72
43714 872 314 64
43715 873 527 16
43716 873 242 10
43717 873 705 12
43718 873 88 62
43719 873 372 88
43720 873 0 98
43721 873 338 43
43722 873 181 94
43723 873 219 88
43724 873 452 56
43725 873 422 90
43726 873 226 99
43727 873 780 77
43728 873 811 82
43729 873 540 28
43730 873 236 61
43731 873 839 10
43732 873 779 51
43733 873 292 25
43734 873 353 83
43735 873 208 50
43736 873 333 38
43737 873 381 54
43738 873 402 45
43739 873 612 92
43740 873 45 72
43741 873 725 19
43742 873 482 38
43743 873 786 30
43744 873 625 25
43745 873 871 57
43746 873 733 39
43747 873 872 74
43748 873 583 100
43749 873 610 25
43750 873 609 47
43751 873 749 29
43752 873 373 20
43753 873 988 49
43754 873 96 26
43755 873 424 1
43756 873 391 11
43757 873 595 66
43758 873 108 45
43759 874 60 51
43760 874 652 36
43761 874 452 98
43762 874 803 69
43763 874 280 63
43764 874 450 15
43765 874 64 92
43766 874 18 26
43767 874 390 51
43768 874 825 14
43769 874 305 96
43770 874 885 79
43771 874 685 34
43772 874 43 84
43773 874 86 11
43774 874 81 17
43775 874 800 43
43776 874 340 1
43777 874 451 94
43778 874 177 40
43779 874 618 72
43780 874 661 92
43781 874 679 56
43782 874 228 67
43783 874 859 29
43784 874 3 3
43785 874 134 87
43786 874 155 22
43787 874 31 8
43788 874 646 20
43789 874 706 42
43790 874 130 28
43791 874 240 2
43792 874 961 76
43793 874 526 5
43794 874 899 92
43795 874 302 79
43796 874 459 75
43797 874 485 15
43798 874 709 12
43799 874 382 10
43800 874 162 38
43801 874 538 42
43802 874 208 50
43803 874 739 83
43804 874 167 71
43805 874 625 40
43806 874 976 9
43807 874 44 51
43808 874 328 8
43809 874 482 82
43810 874 319 13
43811 874 550 60
43812 874 163 21
43813 874 148 6
43814 874 588 19
43815 874 421 31
43816 874 193 53
43817 874 675 32
43818 874 24 32
43819 874 847 3
43820 875 820 79
43821 875 66 7
43822 875 35 77
43823 875 631 24
43824 875 89 53
43825 875 198 73
43826 875 597 9
43827 875 3 67
43828 875 646 23
43829 875 666 44
43830 875 645 51
43831 875 419 38
43832 875 32 41
43833 875 258 88
43834 875 995 23
43835 875 254 56
43836 875 219 55
43837 875 836 14
43838 875 711 75
43839 875 997 8
43840 875 623 44
43841 875 545 95
43842 875 598 12
43843 875 833 51
43844 875 637 95
43845 875 440 89
43846 875 689 15
43847 875 943 59
43848 875 145 92
43849 875 336 59
43850 875 205 61
43851 875 847 37
43852 875 920 3
43853 875 226 61
43854 875 556 15
43855 875 423 9
43856 875 768 48
43857 875 303 75
43858 875 392 14
43859 875 27 25
43860 875 594 97
43861 875 990 74
43862 875 34 54
43863 875 701 97
43864 876 137 24
43865 876 85 91
43866 876 740 44
43867 876 488 68
43868 876 259 5
43869 876 463 45
43870 876 436 14
43871 876 491 49
43872 876 109 67
43873 876 460 89
43874 876 626 21
43875 876 956 13
43876 876 26 12
43877 876 61 82
43878 876 630 61
43879 876 567 58
43880 876 660 3
43881 876 573 73
43882 876 851 56
43883 876 235 90
43884 876 340 96
43885 876 745 54
43886 876 889 25
43887 876 124 20
43888 876 875 58
43889 876 961 56
43890 876 640 65
43891 876 994 19
43892 876 510 72
43893 876 335 64
43894 876 389 7
43895 876 855 71
43896 876 562 8
43897 876 387 57
43898 876 167 43
43899 876 434 55
43900 876 983 7
43901 876 916 67
43902 876 100 41
43903 876 583 14
43904 876 691 4
43905 876 764 20
43906 876 14 46
43907 876 810 15
43908 876 676 92
43909 876 529 11
43910 877 729 22
43911 877 610 91
43912 877 616 68
43913 877 818 16
43914 877 91 47
43915 877 909 13
43916 877 598 32
43917 877 313 46
43918 877 85 64
43919 877 872 37
43920 877 206 23
43921 877 971 96
43922 877 198 37
43923 877 615 33
43924 877 613 87
43925 877 798 12
43926 877 947 38
43927 877 809 49
43928 877 225 83
43929 877 115 64
43930 877 958 39
43931 877 920 67
43932 877 158 66
43933 877 873 83
43934 877 202 99
43935 877 704 76
43936 877 540 26
43937 877 79 72
43938 877 997 59
43939 877 61 9
43940 877 443 95
43941 877 886 7
43942 877 550 53
43943 877 551 25
43944 877 185 47
43945 877 156 47
43946 877 496 90
43947 877 379 18
43948 877 966 34
43949 877 291 37
43950 877 272 42
43951 877 557 10
43952 877 271 28
43953 877 924 15
43954 877 801 1
43955 877 383 71
43956 877 260 79
43957 877 860 68
43958 878 484 14
43959 878 91 89
43960 878 546 14
43961 878 792 53
43962 878 74 86
43963 878 533 97
43964 878 361 22
43965 878 195 92
43966 878 661 62
43967 878 932 20
43968 878 319 12
43969 878 763 54
43970 878 765 88
43971 878 71 22
43972 878 209 56
43973 878 15 29
43974 878 924 56
43975 878 754 1
43976 878 800 13
43977 878 566 32
43978 878 443 58
43979 878 672 84
43980 878 138 69
43981 878 653 68
43982 878 991 17
43983 878 905 13
43984 878 432 75
43985 878 372 25
43986 878 859 79
43987 878 93 95
43988 878 488 57
43989 878 406 71
43990 878 428 90
43991 878 466 57
43992 878 949 84
43993 878 271 56
43994 878 733 13
43995 878 621 27
43996 878 256 31
43997 878 865 81
43998 878 480 90
43999 878 477 89
44000 878 199 62
44001 878 578 84
44002 878 197 37
44003 878 51 69
44004 878 127 8
44005 878 687 53
44006 878 470 3
44007 878 103 51
44008 878 257 8
44009 878 537 19
44010 878 316 39
44011 878 632 2
44012 878 565 96
44013 878 722 2
44014 879 724 71
44015 879 832 96
44016 879 107 38
44017 879 398 54
44018 879 928 78
44019 879 599 11
44020 879 320 37
44021 879 265 47
44022 879 117 6
44023 879 39 94
44024 879 824 49
44025 879 818 32
44026 879 861 88
44027 879 941 50
44028 879 753 32
44029 879 857 98
44030 879 789 55
44031 879 739 86
44032 879 664 99
44033 879 909 56
44034 879 28 38
44035 879 713 75
44036 879 213 45
44037 879 930 90
44038 879 828 61
44039 879 131 86
44040 879 603 97
44041 879 301 35
44042 879 156 41
44043 879 438 48
44044 879 778 8
44045 879 7 96
44046 879 447 33
44047 879 82 76
44048 879 604 22
44049 879 906 34
44050 879 427 10
44051 879 916 63
44052 879 432 96
44053 879 653 21
44054 879 659 42
44055 879 61 70
44056 879 162 68
44057 879 679 94
44058 879 514 39
44059 879 485 24
44060 879 855 34
44061 880 687 98
44062 880 435 57
44063 880 868 40
44064 880 669 84
44065 880 729 79
44066 880 453 35
44067 880 72 22
44068 880 975 99
44069 880 691 8
44070 880 392 88
44071 880 753 66
44072 880 731 86
44073 880 714 35
44074 880 963 18
44075 880 512 27
44076 880 48 59
44077 880 573 67
44078 880 955 94
44079 880 958 50
44080 880 51 27
44081 880 335 25
44082 880 483 17
44083 880 237 47
44084 880 814 75
44085 880 408 23
44086 880 590 87
44087 880 371 43
44088 880 273 34
44089 880 323 5
44090 880 249 79
44091 880 413 39
44092 880 857 42
44093 880 931 27
44094 880 457 46
44095 880 587 92
44096 880 429 53
44097 880 484 100
44098 880 591 30
44099 880 867 57
44100 880 570 63
44101 880 689 5
44102 880 393 22
44103 880 410 55
44104 880 578 50
44105 880 539 39
44106 880 810 100
44107 881 990 54
44108 881 141 43
44109 881 84 6
44110 881 350 78
44111 881 979 75
44112 881 368 27
44113 881 853 84
44114 881 974 86
44115 881 53 98
44116 881 738 86
44117 881 973 54
44118 881 262 49
44119 881 46 23
44120 881 110 79
44121 881 741 46
44122 881 244 37
44123 881 886 32
44124 881 198 51
44125 881 579 37
44126 881 288 3
44127 881 290 52
44128 881 916 20
44129 881 813 36
44130 881 27 40
44131 881 771 44
44132 881 747 58
44133 881 921 77
44134 881 331 44
44135 881 997 92
44136 881 389 37
44137 881 390 76
44138 881 460 20
44139 881 282 47
44140 881 897 100
44141 881 434 55
44142 881 919 48
44143 881 441 90
44144 881 293 27
44145 881 451 43
44146 881 449 92
44147 881 171 7
44148 881 215 60
44149 881 607 23
44150 881 828 74
44151 882 848 71
44152 882 275 22
44153 882 768 100
44154 882 636 95
44155 882 621 39
44156 882 364 28
44157 882 567 30
44158 882 566 8
44159 882 289 35
44160 882 896 60
44161 882 940 88
44162 882 847 74
44163 882 474 22
44164 882 236 25
44165 882 597 14
44166 882 205 34
44167 882 328 50
44168 882 936 10
44169 882 592 25
44170 882 719 52
44171 882 484 85
44172 882 679 98
44173 882 584 25
44174 882 835 67
44175 882 285 40
44176 882 246 87
44177 882 67 31
44178 882 180 24
44179 882 797 24
44180 882 934 54
44181 882 201 31
44182 882 574 57
44183 882 203 37
44184 882 845 29
44185 882 804 56
44186 882 829 24
44187 882 811 27
44188 882 148 40
44189 882 733 82
44190 882 90 46
44191 882 288 97
44192 882 454 13
44193 883 387 22
44194 883 374 49
44195 883 10 70
44196 883 933 31
44197 883 83 85
44198 883 516 39
44199 883 347 11
44200 883 130 43
44201 883 133 65
44202 883 16 84
44203 883 653 10
44204 883 671 51
44205 883 451 49
44206 883 1 86
44207 883 9 24
44208 883 778 47
44209 883 466 93
44210 883 744 78
44211 883 284 69
44212 883 829 34
44213 883 777 6
44214 883 940 8
44215 883 875 86
44216 883 852 45
44217 883 293 28
44218 883 711 54
44219 883 29 20
44220 883 326 67
44221 883 761 69
44222 883 156 11
44223 883 314 16
44224 883 310 41
44225 883 573 76
44226 883 132 75
44227 883 544 86
44228 883 456 69
44229 883 408 69
44230 883 426 2
44231 883 97 25
44232 883 953 89
44233 883 150 37
44234 883 681 75
44235 883 199 60
44236 883 582 99
44237 883 319 7
44238 883 243 6
44239 883 335 4
44240 883 417 21
44241 884 898 5
44242 884 929 53
44243 884 259 39
44244 884 350 94
44245 884 122 18
44246 884 387 17
44247 884 190 39
44248 884 314 68
44249 884 57 30
44250 884 550 12
44251 884 721 11
44252 884 187 75
44253 884 434 15
44254 884 384 26
44255 884 439 7
44256 884 106 40
44257 884 662 37
44258 884 812 79
44259 884 73 95
44260 884 241 24
44261 884 11 41
44262 884 664 64
44263 884 820 50
44264 884 656 58
44265 884 464 51
44266 884 534 98
44267 884 232 30
44268 884 114 9
44269 884 3 69
44270 884 982 84
44271 884 313 85
44272 884 658 13
44273 884 568 56
44274 884 668 30
44275 884 224 47
44276 884 373 26
44277 884 810 38
44278 884 734 32
44279 884 673 80
44280 884 853 23
44281 884 935 57
44282 884 569 87
44283 884 231 8
44284 884 7 33
44285 884 426 62
44286 884 893 16
44287 884 563 86
44288 884 107 96
44289 884 822 41
44290 884 168 1
44291 884 817 46
44292 884 952 46
44293 884 344 43
44294 884 627 38
44295 884 677 69
44296 884 901 93
44297 884 366 13
44298 885 248 6
44299 885 951 92
44300 885 63 85
44301 885 382 62
44302 885 859 46
44303 885 620 73
44304 885 751 19
44305 885 50 24
44306 885 384 91
44307 885 87 44
44308 885 82 60
44309 885 249 9
44310 885 861 57
44311 885 495 18
44312 885 35 43
44313 885 369 90
44314 885 843 60
44315 885 723 90
44316 885 598 80
44317 885 275 13
44318 885 487 14
44319 885 693 85
44320 885 568 89
44321 885 866 44
44322 885 808 38
44323 885 820 46
44324 885 557 7
44325 885 874 57
44326 885 578 35
44327 885 530 95
44328 885 499 72
44329 885 274 92
44330 885 886 2
44331 885 443 15
44332 885 201 76
44333 885 579 28
44334 885 224 7
44335 885 84 90
44336 885 306 39
44337 885 696 93
44338 885 472 62
44339 885 676 53
44340 885 726 53
44341 885 646 48
44342 885 413 92
44343 885 457 2
44344 885 729 63
44345 885 455 96
44346 885 606 38
44347 885 252 12
44348 886 530 58
44349 886 698 89
44350 886 594 24
44351 886 734 14
44352 886 705 96
44353 886 499 29
44354 886 225 52
44355 886 18 89
44356 886 344 27
44357 886 689 83
44358 886 252 97
44359 886 876 24
44360 886 468 43
44361 886 240 34
44362 886 553 96
44363 886 333 6
44364 886 285 57
44365 886 466 9
44366 886 97 19
44367 886 383 5
44368 886 404 65
44369 886 233 64
44370 886 921 23
44371 886 247 55
44372 886 117 50
44373 886 365 93
44374 886 386 5
44375 886 791 52
44376 886 823 72
44377 886 33 19
44378 886 338 25
44379 886 291 94
44380 886 862 51
44381 886 417 24
44382 886 544 48
44383 886 47 52
44384 886 269 19
44385 886 43 5
44386 886 400 86
44387 886 427 50
44388 886 629 67
44389 886 817 67
44390 886 852 76
44391 886 835 55
44392 886 924 46
44393 886 848 53
44394 886 562 38
44395 887 425 58
44396 887 865 93
44397 887 999 100
44398 887 973 78
44399 887 397 74
44400 887 68 51
44401 887 483 8
44402 887 699 63
44403 887 790 87
44404 887 640 85
44405 887 275 17
44406 887 655 80
44407 887 246 82
44408 887 581 35
44409 887 590 41
44410 887 791 95
44411 887 555 58
44412 887 769 46
44413 887 213 19
44414 887 384 95
44415 887 728 9
44416 887 138 14
44417 887 149 74
44418 887 377 25
44419 887 430 51
44420 887 93 61
44421 887 837 68
44422 887 141 8
44423 887 331 92
44424 887 804 33
44425 887 579 27
44426 887 463 43
44427 887 659 62
44428 887 263 33
44429 887 85 59
44430 887 307 61
44431 887 872 46
44432 887 513 33
44433 887 683 86
44434 887 670 85
44435 887 407 86
44436 887 605 86
44437 887 922 47
44438 887 342 66
44439 887 229 11
44440 887 510 83
44441 887 416 41
44442 887 788 25
44443 887 52 5
44444 887 930 91
44445 887 67 56
44446 887 957 86
44447 887 933 2
44448 887 584 52
44449 887 894 89
44450 887 687 17
44451 887 299 31
44452 888 143 46
44453 888 976 87
44454 888 631 32
44455 888 556 50
44456 888 754 58
44457 888 944 17
44458 888 877 50
44459 888 419 67
44460 888 296 80
44461 888 669 85
44462 888 972 74
44463 888 332 50
44464 888 613 99
44465 888 612 31
44466 888 861 17
44467 888 836 37
44468 888 689 76
44469 888 101 22
44470 888 104 30
44471 888 170 59
44472 888 704 97
44473 888 679 79
44474 888 645 39
44475 888 875 64
44476 888 70 43
44477 888 981 14
44478 888 491 81
44479 888 935 25
44480 888 798 5
44481 888 468 86
44482 888 125 79
44483 888 862 50
44484 888 626 8
44485 888 223 56
44486 888 874 100
44487 888 90 59
44488 888 138 83
44489 888 444 45
44490 888 620 80
44491 888 304 87
44492 888 802 44
44493 888 152 79
44494 888 209 12
44495 888 835 33
44496 888 442 75
44497 888 737 63
44498 888 602 71
44499 888 66 95
44500 889 405 12
44501 889 746 88
44502 889 510 39
44503 889 381 80
44504 889 240 18
44505 889 955 19
44506 889 735 49
44507 889 902 59
44508 889 27 82
44509 889 178 97
44510 889 22 36
44511 889 169 89
44512 889 635 37
44513 889 395 41
44514 889 82 52
44515 889 84 90
44516 889 515 75
44517 889 546 74
44518 889 539 32
44519 889 792 20
44520 889 390 13
44521 889 62 10
44522 889 386 79
44523 889 59 26
44524 889 650 100
44525 889 98 61
44526 889 263 80
44527 889 800 90
44528 889 694 51
44529 889 914 99
44530 889 799 96
44531 889 900 98
44532 889 589 8
44533 889 575 34
44534 889 166 55
44535 889 224 23
44536 889 820 62
44537 889 47 90
44538 889 834 13
44539 889 528 44
44540 889 278 6
44541 889 274 65
44542 889 558 96
44543 889 266 53
44544 890 909 83
44545 890 252 93
44546 890 762 78
44547 890 528 51
44548 890 797 13
44549 890 471 70
44550 890 472 27
44551 890 150 55
44552 890 239 98
44553 890 534 11
44554 890 599 100
44555 890 328 7
44556 890 738 66
44557 890 106 55
44558 890 421 86
44559 890 244 2
44560 890 260 2
44561 890 370 18
44562 890 951 41
44563 890 446 67
44564 890 490 37
44565 890 694 33
44566 890 602 40
44567 890 103 55
44568 890 391 96
44569 890 739 43
44570 890 810 88
44571 890 683 77
44572 890 39 19
44573 890 64 72
44574 890 872 88
44575 890 743 49
44576 890 379 45
44577 890 905 91
44578 890 498 23
44579 890 584 1
44580 890 276 90
44581 890 336 98
44582 890 84 55
44583 890 690 86
44584 890 289 72
44585 890 49 46
44586 890 963 82
44587 890 805 45
44588 890 796 35
44589 890 58 17
44590 890 930 99
44591 890 771 85
44592 890 987 42
44593 891 522 7
44594 891 480 34
44595 891 390 31
44596 891 180 92
44597 891 559 52
44598 891 460 92
44599 891 919 5
44600 891 438 10
44601 891 142 36
44602 891 892 9
44603 891 56 86
44604 891 983 56
44605 891 642 15
44606 891 347 23
44607 891 128 22
44608 891 868 52
44609 891 570 5
44610 891 252 84
44611 891 499 1
44612 891 174 2
44613 891 395 54
44614 891 147 37
44615 891 153 60
44616 891 708 5
44617 891 182 52
44618 891 342 92
44619 891 568 46
44620 891 69 45
44621 891 382 35
44622 891 491 25
44623 891 696 52
44624 891 492 43
44625 891 728 100
44626 891 866 71
44627 891 199 44
44628 891 977 16
44629 891 818 52
44630 891 509 39
44631 891 92 57
44632 891 17 73
44633 891 201 88
44634 891 794 16
44635 891 599 93
44636 891 318 5
44637 891 719 92
44638 891 771 4
44639 891 680 65
44640 892 868 5
44641 892 43 82
44642 892 131 17
44643 892 477 25
44644 892 276 82
44645 892 965 85
44646 892 368 30
44647 892 869 4
44648 892 129 26
44649 892 857 15
44650 892 737 79
44651 892 15 99
44652 892 317 7
44653 892 527 98
44654 892 565 66
44655 892 137 6
44656 892 153 33
44657 892 559 33
44658 892 731 95
44659 892 219 22
44660 892 787 58
44661 892 886 28
44662 892 424 78
44663 892 53 89
44664 892 127 61
44665 892 899 78
44666 892 356 55
44667 892 335 40
44668 892 205 84
44669 892 595 7
44670 892 370 45
44671 892 164 27
44672 892 267 8
44673 892 860 4
44674 892 282 32
44675 892 529 51
44676 892 433 74
44677 892 464 64
44678 892 679 5
44679 892 334 45
44680 892 258 73
44681 892 290 4
44682 892 365 49
44683 892 7 35
44684 892 139 21
44685 892 343 84
44686 892 864 82
44687 892 109 42
44688 892 337 56
44689 892 530 43
44690 892 52 62
44691 892 70 100
44692 892 964 9
44693 892 781 49
44694 892 748 31
44695 892 0 49
44696 892 62 77
44697 893 677 99
44698 893 492 38
44699 893 318 13
44700 893 358 15
44701 893 161 92
44702 893 407 49
44703 893 391 89
44704 893 339 7
44705 893 203 92
44706 893 66 49
44707 893 559 54
44708 893 962 14
44709 893 419 28
44710 893 150 79
44711 893 862 58
44712 893 864 17
44713 893 640 50
44714 893 721 27
44715 893 972 91
44716 893 9 15
44717 893 240 98
44718 893 828 58
44719 893 178 53
44720 893 513 71
44721 893 159 19
44722 893 984 97
44723 893 697 11
44724 893 770 4
44725 893 977 63
44726 893 820 11
44727 893 999 23
44728 893 477 16
44729 893 539 90
44730 893 645 1
44731 893 16 90
44732 893 272 50
44733 893 731 11
44734 893 340 70
44735 893 352 19
44736 893 474 79
44737 893 170 34
44738 893 570 52
44739 893 840 59
44740 893 266 85
44741 893 939 3
44742 893 611 2
44743 893 797 57
44744 893 698 41
44745 893 389 34
44746 893 763 35
44747 893 256 97
44748 893 485 66
44749 894 314 67
44750 894 150 58
44751 894 424 21
44752 894 698 93
44753 894 889 54
44754 894 784 42
44755 894 905 90
44756 894 49 14
44757 894 163 84
44758 894 340 92
44759 894 865 79
44760 894 327 84
44761 894 808 66
44762 894 229 66
44763 894 95 82
44764 894 962 82
44765 894 630 85
44766 894 632 50
44767 894 324 52
44768 894 876 52
44769 894 622 66
44770 894 670 75
44771 894 179 47
44772 894 145 34
44773 894 979 82
44774 894 274 1
44775 894 525 46
44776 894 33 93
44777 894 371 100
44778 894 550 23
44779 894 555 87
44780 894 517 86
44781 894 178 49
44782 894 230 72
44783 894 370 50
44784 894 251 2
44785 894 308 18
44786 894 211 90
44787 894 736 52
44788 894 794 38
44789 894 989 29
44790 894 445 36
44791 894 549 45
44792 895 534 17
44793 895 595 81
44794 895 380 17
44795 895 498 44
44796 895 246 35
44797 895 881 65
44798 895 806 83
44799 895 989 28
44800 895 772 38
44801 895 868 80
44802 895 464 43
44803 895 863 10
44804 895 941 31
44805 895 144 32
44806 895 650 1
44807 895 576 53
44808 895 348 57
44809 895 578 62
44810 895 569 35
44811 895 120 30
44812 895 775 44
44813 895 313 3
44814 895 541 99
44815 895 664 32
44816 895 714 85
44817 895 950 21
44818 895 521 58
44819 895 111 75
44820 895 508 7
44821 895 939 11
44822 895 167 52
44823 895 241 22
44824 895 57 100
44825 895 607 55
44826 895 995 23
44827 895 55 3
44828 895 512 95
44829 895 437 74
44830 895 47 51
44831 895 409 48
44832 895 869 87
44833 895 716 53
44834 895 452 52
44835 895 770 58
44836 895 579 78
44837 895 43 22
44838 895 396 70
44839 896 403 20
44840 896 880 25
44841 896 820 93
44842 896 972 85
44843 896 62 86
44844 896 142 55
44845 896 525 12
44846 896 721 77
44847 896 796 90
44848 896 294 83
44849 896 259 60
44850 896 48 36
44851 896 435 88
44852 896 122 54
44853 896 463 94
44854 896 804 46
44855 896 305 91
44856 896 695 79
44857 896 563 66
44858 896 709 81
44859 896 263 20
44860 896 429 43
44861 896 900 37
44862 896 53 95
44863 896 105 38
44864 896 936 84
44865 896 87 87
44866 896 16 61
44867 896 337 83
44868 896 81 79
44869 896 421 48
44870 896 20 94
44871 896 298 63
44872 896 26 96
44873 896 641 12
44874 896 129 72
44875 896 426 47
44876 896 923 49
44877 896 983 93
44878 896 175 77
44879 896 560 6
44880 896 243 24
44881 896 140 27
44882 896 534 22
44883 896 953 82
44884 896 745 31
44885 896 638 83
44886 896 123 91
44887 897 79 94
44888 897 412 54
44889 897 170 58
44890 897 899 56
44891 897 664 63
44892 897 89 42
44893 897 530 34
44894 897 537 9
44895 897 364 65
44896 897 865 65
44897 897 813 17
44898 897 867 76
44899 897 240 55
44900 897 39 78
44901 897 80 63
44902 897 547 54
44903 897 270 19
44904 897 442 19
44905 897 894 75
44906 897 163 34
44907 897 904 26
44908 897 738 10
44909 897 291 68
44910 897 594 32
44911 897 87 14
44912 897 113 5
44913 897 737 17
44914 897 156 9
44915 897 543 50
44916 897 221 27
44917 897 99 41
44918 897 92 38
44919 897 921 2
44920 897 903 37
44921 897 817 78
44922 897 388 81
44923 897 280 7
44924 897 219 21
44925 897 233 73
44926 897 949 54
44927 897 862 63
44928 897 476 89
44929 897 736 71
44930 897 538 50
44931 897 435 69
44932 897 588 12
44933 897 792 52
44934 897 184 15
44935 897 466 64
44936 898 950 7
44937 898 603 12
44938 898 393 38
44939 898 823 93
44940 898 28 58
44941 898 914 67
44942 898 639 51
44943 898 617 25
44944 898 881 90
44945 898 101 40
44946 898 978 96
44947 898 474 2
44948 898 100 17
44949 898 744 31
44950 898 635 100
44951 898 425 8
44952 898 770 80
44953 898 932 57
44954 898 171 77
44955 898 220 11
44956 898 873 61
44957 898 977 86
44958 898 466 68
44959 898 551 93
44960 898 838 72
44961 898 315 59
44962 898 895 7
44963 898 296 72
44964 898 933 6
44965 898 264 5
44966 898 614 22
44967 898 319 72
44968 898 644 78
44969 898 255 90
44970 898 358 36
44971 898 297 75
44972 898 473 47
44973 898 382 8
44974 898 378 81
44975 898 160 70
44976 898 410 23
44977 898 141 44
44978 898 259 35
44979 898 102 7
44980 898 867 23
44981 898 419 31
44982 898 128 83
44983 898 493 36
44984 898 806 66
44985 898 812 39
44986 898 119 2
44987 898 180 78
44988 898 979 83
44989 898 961 51
44990 898 404 69
44991 898 55 16
44992 898 831 100
44993 898 118 47
44994 898 184 91
44995 898 195 97
44996 898 848 57
44997 898 433 70
44998 899 661 67
44999 899 134 87
45000 899 197 83
45001 899 599 77
45002 899 815 70
45003 899 102 63
45004 899 631 24
45005 899 439 69
45006 899 202 79
45007 899 193 38
45008 899 457 30
45009 899 263 51
45010 899 677 70
45011 899 402 83
45012 899 757 36
45013 899 226 88
45014 899 279 14
45015 899 930 67
45016 899 917 89
45017 899 967 34
45018 899 764 4
45019 899 222 64
45020 899 499 78
45021 899 789 52
45022 899 328 65
45023 899 718 84
45024 899 290 80
45025 899 897 92
45026 899 522 66
45027 899 494 42
45028 899 811 82
45029 899 195 68
45030 899 753 6
45031 899 912 59
45032 899 840 77
45033 899 513 54
45034 899 231 62
45035 899 881 69
45036 899 120 26
45037 899 915 52
45038 899 241 34
45039 899 69 94
45040 899 300 45
45041 899 93 48
45042 899 567 42
45043 899 806 81
45044 899 549 61
45045 900 51 12
45046 900 300 13
45047 900 933 57
45048 900 646 41
45049 900 175 22
45050 900 899 98
45051 900 715 67
45052 900 534 52
45053 900 906 41
45054 900 235 36
45055 900 737 17
45056 900 260 5
45057 900 183 10
45058 900 945 79
45059 900 680 6
45060 900 291 76
45061 900 76 56
45062 900 88 15
45063 900 719 83
45064 900 462 89
45065 900 738 42
45066 900 962 37
45067 900 884 81
45068 900 227 23
45069 900 944 26
45070 900 280 52
45071 900 191 37
45072 900 75 64
45073 900 937 89
45074 900 271 62
45075 900 936 89
45076 900 62 96
45077 900 918 65
45078 900 37 77
45079 900 733 100
45080 900 9 83
45081 900 65 71
45082 900 895 78
45083 900 100 48
45084 900 443 46
45085 900 91 83
45086 900 437 40
45087 900 310 26
45088 900 18 7
45089 900 230 11
45090 900 178 65
45091 900 511 29
45092 900 605 100
45093 900 428 89
45094 900 25 64
45095 900 694 15
45096 900 978 91
45097 900 497 28
45098 900 451 92
45099 900 973 56
45100 900 903 91
45101 901 410 38
45102 901 855 49
45103 901 132 29
45104 901 832 29
45105 901 314 49
45106 901 600 79
45107 901 562 94
45108 901 545 91
45109 901 866 75
45110 901 989 69
45111 901 19 51
45112 901 732 85
45113 901 361 68
45114 901 346 59
45115 901 578 17
45116 901 36 76
45117 901 885 9
45118 901 721 93
45119 901 762 95
45120 901 706 15
45121 901 841 64
45122 901 457 52
45123 901 249 64
45124 901 512 30
45125 901 984 92
45126 901 221 28
45127 901 12 98
45128 901 609 24
45129 901 65 89
45130 901 838 50
45131 901 406 43
45132 901 79 61
45133 901 435 47
45134 901 869 46
45135 901 481 38
45136 901 418 69
45137 901 256 19
45138 901 276 86
45139 901 566 37
45140 901 415 56
45141 901 444 33
45142 901 120 24
45143 901 879 50
45144 901 299 61
45145 901 141 5
45146 901 197 77
45147 901 860 81
45148 901 867 56
45149 901 902 50
45150 902 729 98
45151 902 825 42
45152 902 871 43
45153 902 476 50
45154 902 489 5
45155 902 804 21
45156 902 481 11
45157 902 512 66
45158 902 303 82
45159 902 111 26
45160 902 351 25
45161 902 366 41
45162 902 347 61
45163 902 986 65
45164 902 656 83
45165 902 639 69
45166 902 256 33
45167 902 35 64
45168 902 519 15
45169 902 120 4
45170 902 421 86
45171 902 287 66
45172 902 459 47
45173 902 636 65
45174 902 941 73
45175 902 771 65
45176 902 881 35
45177 902 624 35
45178 902 181 21
45179 902 929 44
45180 902 307 67
45181 902 755 25
45182 902 147 25
45183 902 516 65
45184 902 93 71
45185 902 187 84
45186 902 415 34
45187 902 993 68
45188 902 479 20
45189 902 283 50
45190 902 966 22
45191 902 783 92
45192 902 205 7
45193 902 170 38
45194 903 101 44
45195 903 109 67
45196 903 78 76
45197 903 811 71
45198 903 668 89
45199 903 997 9
45200 903 429 39
45201 903 294 68
45202 903 384 33
45203 903 643 70
45204 903 340 82
45205 903 752 37
45206 903 698 56
45207 903 224 13
45208 903 728 7
45209 903 624 87
45210 903 540 30
45211 903 962 68
45212 903 351 67
45213 903 461 24
45214 903 974 7
45215 903 710 64
45216 903 271 14
45217 903 913 45
45218 903 252 29
45219 903 347 26
45220 903 406 55
45221 903 564 10
45222 903 680 1
45223 903 257 57
45224 903 370 90
45225 903 476 6
45226 903 180 60
45227 903 277 37
45228 903 636 88
45229 903 235 67
45230 903 886 54
45231 903 360 71
45232 903 361 1
45233 903 297 24
45234 903 427 96
45235 903 22 65
45236 903 75 82
45237 903 874 64
45238 903 173 74
45239 903 633 44
45240 903 44 74
45241 903 432 79
45242 903 516 21
45243 903 293 22
45244 903 149 22
45245 904 963 84
45246 904 633 51
45247 904 992 25
45248 904 231 44
45249 904 104 64
45250 904 191 54
45251 904 61 67
45252 904 251 89
45253 904 552 63
45254 904 785 43
45255 904 960 88
45256 904 897 24
45257 904 523 57
45258 904 985 68
45259 904 65 55
45260 904 556 98
45261 904 895 33
45262 904 63 23
45263 904 197 19
45264 904 776 12
45265 904 4 41
45266 904 562 48
45267 904 8 95
45268 904 255 65
45269 904 386 57
45270 904 317 92
45271 904 123 98
45272 904 435 86
45273 904 451 10
45274 904 733 75
45275 904 379 2
45276 904 165 75
45277 904 329 39
45278 904 422 50
45279 904 741 83
45280 904 571 88
45281 904 58 35
45282 904 824 67
45283 904 138 98
45284 904 383 97
45285 904 371 36
45286 904 84 40
45287 904 726 51
45288 904 162 95
45289 904 342 90
45290 904 740 33
45291 904 276 91
45292 904 149 53
45293 904 36 94
45294 904 926 56
45295 904 755 100
45296 904 60 47
45297 904 238 15
45298 904 857 49
45299 904 9 83
45300 904 146 4
45301 904 993 75
45302 904 118 94
45303 905 836 13
45304 905 550 37
45305 905 26 85
45306 905 806 94
45307 905 712 47
45308 905 429 2
45309 905 871 20
45310 905 263 74
45311 905 689 77
45312 905 63 24
45313 905 274 82
45314 905 586 82
45315 905 959 13
45316 905 948 58
45317 905 106 37
45318 905 201 83
45319 905 32 51
45320 905 709 24
45321 905 381 37
45322 905 919 27
45323 905 921 37
45324 905 880 74
45325 905 158 23
45326 905 362 65
45327 905 16 23
45328 905 449 38
45329 905 42 77
45330 905 31 80
45331 905 491 17
45332 905 824 75
45333 905 88 17
45334 905 705 29
45335 905 177 15
45336 905 949 21
45337 905 399 35
45338 905 301 68
45339 905 671 6
45340 905 200 29
45341 905 620 62
45342 905 89 59
45343 905 210 33
45344 905 193 22
45345 905 782 14
45346 905 893 3
45347 905 530 41
45348 905 54 50
45349 905 297 58
45350 905 268 73
45351 905 873 59
45352 905 847 83
45353 905 352 55
45354 905 728 27
45355 905 927 59
45356 905 693 1
45357 905 391 82
45358 905 480 10
45359 906 367 78
45360 906 803 68
45361 906 545 41
45362 906 925 17
45363 906 522 97
45364 906 183 19
45365 906 148 51
45366 906 927 17
45367 906 816 3
45368 906 701 39
45369 906 959 48
45370 906 665 28
45371 906 387 37
45372 906 61 84
45373 906 605 5
45374 906 116 44
45375 906 327 14
45376 906 875 54
45377 906 105 84
45378 906 705 54
45379 906 87 96
45380 906 753 43
45381 906 655 11
45382 906 128 69
45383 906 786 51
45384 906 714 28
45385 906 491 6
45386 906 449 6
45387 906 858 26
45388 906 548 87
45389 906 552 85
45390 906 780 66
45391 906 119 70
45392 906 406 3
45393 906 2 37
45394 906 100 42
45395 906 246 92
45396 906 979 52
45397 906 604 71
45398 906 709 15
45399 906 937 22
45400 906 421 71
45401 906 751 36
45402 907 712 33
45403 907 519 59
45404 907 710 41
45405 907 728 13
45406 907 134 50
45407 907 749 3
45408 907 540 84
45409 907 352 19
45410 907 713 79
45411 907 230 85
45412 907 788 95
45413 907 855 27
45414 907 60 17
45415 907 621 29
45416 907 636 97
45417 907 547 63
45418 907 596 37
45419 907 76 100
45420 907 108 5
45421 907 153 5
45422 907 677 70
45423 907 834 39
45424 907 918 7
45425 907 186 96
45426 907 928 10
45427 907 920 93
45428 907 454 10
45429 907 89 7
45430 907 114 91
45431 907 298 17
45432 907 210 91
45433 907 177 4
45434 907 906 20
45435 907 90 78
45436 907 839 85
45437 907 791 57
45438 907 704 64
45439 907 698 21
45440 907 443 59
45441 907 462 25
45442 907 952 14
45443 907 863 32
45444 907 402 79
45445 907 441 13
45446 907 812 29
45447 908 270 97
45448 908 712 45
45449 908 736 44
45450 908 263 42
45451 908 242 30
45452 908 171 66
45453 908 679 2
45454 908 45 37
45455 908 815 81
45456 908 961 94
45457 908 561 37
45458 908 461 6
45459 908 584 6
45460 908 268 40
45461 908 88 62
45462 908 953 32
45463 908 943 27
45464 908 493 21
45465 908 856 8
45466 908 852 86
45467 908 628 97
45468 908 755 2
45469 908 382 86
45470 908 471 73
45471 908 535 21
45472 908 703 92
45473 908 348 26
45474 908 9 4
45475 908 774 33
45476 908 608 71
45477 908 966 18
45478 908 464 22
45479 908 414 93
45480 908 386 39
45481 908 399 7
45482 908 811 4
45483 908 670 20
45484 908 410 99
45485 908 35 64
45486 908 571 53
45487 908 443 21
45488 908 151 3
45489 908 625 96
45490 908 262 35
45491 908 272 29
45492 908 352 7
45493 908 810 44
45494 908 919 45
45495 908 345 98
45496 908 225 61
45497 908 722 74
45498 908 909 59
45499 908 371 36
45500 908 297 24
45501 908 436 76
45502 908 788 65
45503 908 698 80
45504 908 404 60
45505 908 49 51
45506 909 996 53
45507 909 337 97
45508 909 496 33
45509 909 707 100
45510 909 189 71
45511 909 86 67
45512 909 518 98
45513 909 479 89
45514 909 43 39
45515 909 432 96
45516 909 588 43
45517 909 132 27
45518 909 431 45
45519 909 945 67
45520 909 738 74
45521 909 436 14
45522 909 605 8
45523 909 379 86
45524 909 223 70
45525 909 233 96
45526 909 141 22
45527 909 429 1
45528 909 195 7
45529 909 77 46
45530 909 94 31
45531 909 136 22
45532 909 468 79
45533 909 302 4
45534 909 984 5
45535 909 50 29
45536 909 941 11
45537 909 615 79
45538 909 54 47
45539 909 638 84
45540 909 679 63
45541 909 179 28
45542 909 955 34
45543 909 459 54
45544 909 558 82
45545 909 162 16
45546 909 926 50
45547 909 278 95
45548 909 36 10
45549 909 3 4
45550 909 67 12
45551 909 454 12
45552 909 375 92
45553 909 774 29
45554 909 99 32
45555 909 566 27
45556 909 241 44
45557 909 995 67
45558 910 489 59
45559 910 578 3
45560 910 238 77
45561 910 230 27
45562 910 970 84
45563 910 57 4
45564 910 302 15
45565 910 386 91
45566 910 233 96
45567 910 850 94
45568 910 359 38
45569 910 808 97
45570 910 968 95
45571 910 45 54
45572 910 985 27
45573 910 7 57
45574 910 954 72
45575 910 755 19
45576 910 603 41
45577 910 996 20
45578 910 530 8
45579 910 994 69
45580 910 90 82
45581 910 680 56
45582 910 357 43
45583 910 982 19
45584 910 683 38
45585 910 421 13
45586 910 409 40
45587 910 179 96
45588 910 889 49
45589 910 73 57
45590 910 330 61
45591 910 248 28
45592 910 410 91
45593 910 585 43
45594 910 617 44
45595 910 987 51
45596 910 813 56
45597 910 229 34
45598 910 204 19
45599 910 369 88
45600 910 232 58
45601 911 107 26
45602 911 419 89
45603 911 549 21
45604 911 839 26
45605 911 701 25
45606 911 123 45
45607 911 401 52
45608 911 461 33
45609 911 508 62
45610 911 775 50
45611 911 681 24
45612 911 756 91
45613 911 334 64
45614 911 399 79
45615 911 548 15
45616 911 335 57
45617 911 77 97
45618 911 398 86
45619 911 849 20
45620 911 957 69
45621 911 791 16
45622 911 945 6
45623 911 668 90
45624 911 36 74
45625 911 471 48
45626 911 917 6
45627 911 840 62
45628 911 491 13
45629 911 427 2
45630 911 780 93
45631 911 635 1
45632 911 892 58
45633 911 288 73
45634 911 289 52
45635 911 176 19
45636 911 561 7
45637 911 449 74
45638 911 129 42
45639 911 6 55
45640 911 578 61
45641 911 575 11
45642 911 836 11
45643 911 669 13
45644 911 961 89
45645 911 888 51
45646 911 485 72
45647 911 954 49
45648 911 557 80
45649 911 482 61
45650 911 405 71
45651 911 768 47
45652 911 899 69
45653 912 725 2
45654 912 488 59
45655 912 366 1
45656 912 56 34
45657 912 618 20
45658 912 54 72
45659 912 842 62
45660 912 985 40
45661 912 922 9
45662 912 800 73
45663 912 891 25
45664 912 995 59
45665 912 911 72
45666 912 12 69
45667 912 611 65
45668 912 569 94
45669 912 982 89
45670 912 74 27
45671 912 781 82
45672 912 883 24
45673 912 182 60
45674 912 543 44
45675 912 84 83
45676 912 856 3
45677 912 394 30
45678 912 49 62
45679 912 520 53
45680 912 290 93
45681 912 438 43
45682 912 634 27
45683 912 47 43
45684 912 636 96
45685 912 108 38
45686 912 114 53
45687 912 441 35
45688 912 89 19
45689 912 943 53
45690 912 24 69
45691 912 406 84
45692 912 231 97
45693 912 315 31
45694 912 493 58
45695 913 332 34
45696 913 621 98
45697 913 987 9
45698 913 561 26
45699 913 301 47
45700 913 675 81
45701 913 16 37
45702 913 554 85
45703 913 995 69
45704 913 520 27
45705 913 853 47
45706 913 833 80
45707 913 836 100
45708 913 835 90
45709 913 671 6
45710 913 290 25
45711 913 976 16
45712 913 756 51
45713 913 597 46
45714 913 541 43
45715 913 439 14
45716 913 393 26
45717 913 229 83
45718 913 126 87
45719 913 328 11
45720 913 521 7
45721 913 152 59
45722 913 451 37
45723 913 941 28
45724 913 230 56
45725 913 132 99
45726 913 915 92
45727 913 817 9
45728 913 113 18
45729 913 237 19
45730 913 970 48
45731 913 489 48
45732 913 899 86
45733 913 199 99
45734 913 764 87
45735 913 418 41
45736 913 739 34
45737 913 610 17
45738 913 357 6
45739 913 746 70
45740 914 259 59
45741 914 570 3
45742 914 482 3
45743 914 615 47
45744 914 148 41
45745 914 217 53
45746 914 719 78
45747 914 32 6
45748 914 264 90
45749 914 702 63
45750 914 104 80
45751 914 378 70
45752 914 110 9
45753 914 764 80
45754 914 225 45
45755 914 844 28
45756 914 741 11
45757 914 724 63
45758 914 265 33
45759 914 78 65
45760 914 428 43
45761 914 961 10
45762 914 790 11
45763 914 605 20
45764 914 518 33
45765 914 441 61
45766 914 638 56
45767 914 534 86
45768 914 98 19
45769 914 476 63
45770 914 915 24
45771 914 859 26
45772 914 220 49
45773 914 183 63
45774 914 295 58
45775 914 960 18
45776 914 277 71
45777 914 494 95
45778 914 306 30
45779 914 817 70
45780 914 473 71
45781 914 367 43
45782 914 506 63
45783 914 371 68
45784 914 573 62
45785 914 579 33
45786 914 57 61
45787 914 991 56
45788 914 828 55
45789 914 621 20
45790 914 967 39
45791 914 475 52
45792 914 577 57
45793 914 404 7
45794 914 256 32
45795 914 885 10
45796 914 145 49
45797 914 759 99
45798 914 711 91
45799 914 639 32
45800 915 788 16
45801 915 188 73
45802 915 544 33
45803 915 252 33
45804 915 224 47
45805 915 55 20
45806 915 164 34
45807 915 23 79
45808 915 140 72
45809 915 123 85
45810 915 504 91
45811 915 664 83
45812 915 583 56
45813 915 558 6
45814 915 442 97
45815 915 686 82
45816 915 378 89
45817 915 793 54
45818 915 144 62
45819 915 132 36
45820 915 450 86
45821 915 750 64
45822 915 65 73
45823 915 548 18
45824 915 979 30
45825 915 984 5
45826 915 114 82
45827 915 94 52
45828 915 457 83
45829 915 26 81
45830 915 627 48
45831 915 989 5
45832 915 186 26
45833 915 395 54
45834 915 465 41
45835 915 853 47
45836 915 676 80
45837 915 609 60
45838 915 56 71
45839 915 385 17
45840 915 443 24
45841 915 522 5
45842 915 886 96
45843 915 381 62
45844 915 805 75
45845 915 107 40
45846 915 119 59
45847 915 851 25
45848 916 557 57
45849 916 520 47
45850 916 755 13
45851 916 797 35
45852 916 188 24
45853 916 647 94
45854 916 29 21
45855 916 674 52
45856 916 667 17
45857 916 4 69
45858 916 111 5
45859 916 267 18
45860 916 220 25
45861 916 899 88
45862 916 881 28
45863 916 449 94
45864 916 393 34
45865 916 255 72
45866 916 305 13
45867 916 256 21
45868 916 371 69
45869 916 917 86
45870 916 650 54
45871 916 411 97
45872 916 53 90
45873 916 105 61
45874 916 329 83
45875 916 208 43
45876 916 831 81
45877 916 925 96
45878 916 162 63
45879 916 974 71
45880 916 217 47
45881 916 22 20
45882 916 915 26
45883 916 218 54
45884 916 461 18
45885 916 809 99
45886 916 712 44
45887 916 512 25
45888 916 190 24
45889 916 854 93
45890 917 493 37
45891 917 9 70
45892 917 541 5
45893 917 161 24
45894 917 825 31
45895 917 227 59
45896 917 282 33
45897 917 67 50
45898 917 306 61
45899 917 343 83
45900 917 72 54
45901 917 965 68
45902 917 106 9
45903 917 500 96
45904 917 130 57
45905 917 436 29
45906 917 576 100
45907 917 754 68
45908 917 765 19
45909 917 37 43
45910 917 138 36
45911 917 928 3
45912 917 477 63
45913 917 987 46
45914 917 422 7
45915 917 759 60
45916 917 991 57
45917 917 510 74
45918 917 351 16
45919 917 501 45
45920 917 124 65
45921 917 557 90
45922 917 397 51
45923 917 244 81
45924 917 53 99
45925 917 720 99
45926 917 596 70
45927 918 275 63
45928 918 592 60
45929 918 617 16
45930 918 444 90
45931 918 207 94
45932 918 349 63
45933 918 216 93
45934 918 662 35
45935 918 466 58
45936 918 187 51
45937 918 484 17
45938 918 127 47
45939 918 80 29
45940 918 778 55
45941 918 795 21
45942 918 59 58
45943 918 181 26
45944 918 474 59
45945 918 694 46
45946 918 545 99
45947 918 320 54
45948 918 335 52
45949 918 163 84
45950 918 483 52
45951 918 393 69
45952 918 706 41
45953 918 164 70
45954 918 638 18
45955 918 151 32
45956 918 602 2
45957 918 229 68
45958 918 838 22
45959 918 937 44
45960 918 610 90
45961 918 370 36
45962 918 251 10
45963 918 714 50
45964 918 731 98
45965 918 426 23
45966 918 538 43
45967 918 413 58
45968 918 85 84
45969 919 587 5
45970 919 727 99
45971 919 918 53
45972 919 132 40
45973 919 4 48
45974 919 642 78
45975 919 168 98
45976 919 543 82
45977 919 467 9
45978 919 335 13
45979 919 268 29
45980 919 229 31
45981 919 883 4
45982 919 526 1
45983 919 924 15
45984 919 161 69
45985 919 530 55
45986 919 224 81
45987 919 108 47
45988 919 409 17
45989 919 672 61
45990 919 771 93
45991 919 861 30
45992 919 172 45
45993 919 88 96
45994 919 392 63
45995 919 894 26
45996 919 236 14
45997 919 956 61
45998 919 274 4
45999 919 904 72
46000 919 332 98
46001 919 212 32
46002 919 853 77
46003 919 208 16
46004 919 403 71
46005 919 431 40
46006 919 149 88
46007 919 928 59
46008 919 544 77
46009 919 766 86
46010 919 443 74
46011 919 843 25
46012 920 91 27
46013 920 165 88
46014 920 772 31
46015 920 176 37
46016 920 486 28
46017 920 47 53
46018 920 639 29
46019 920 364 63
46020 920 885 83
46021 920 500 61
46022 920 398 19
46023 920 542 36
46024 920 789 23
46025 920 227 65
46026 920 198 24
46027 920 219 28
46028 920 82 37
46029 920 975 32
46030 920 732 20
46031 920 305 61
46032 920 818 66
46033 920 613 28
46034 920 831 72
46035 920 881 73
46036 920 121 44
46037 920 53 100
46038 920 20 11
46039 920 611 62
46040 920 299 19
46041 920 641 39
46042 920 73 2
46043 920 274 89
46044 920 357 89
46045 920 733 25
46046 920 382 92
46047 920 779 17
46048 920 406 71
46049 920 694 41
46050 920 664 66
46051 920 264 8
46052 920 93 98
46053 920 326 30
46054 920 686 58
46055 920 365 8
46056 920 787 92
46057 920 592 98
46058 920 518 14
46059 920 560 33
46060 920 314 88
46061 920 328 65
46062 921 302 87
46063 921 414 64
46064 921 982 57
46065 921 945 10
46066 921 963 51
46067 921 675 51
46068 921 329 95
46069 921 303 93
46070 921 738 16
46071 921 876 33
46072 921 978 55
46073 921 928 43
46074 921 301 2
46075 921 610 5
46076 921 2 44
46077 921 720 79
46078 921 885 58
46079 921 507 44
46080 921 693 8
46081 921 142 74
46082 921 477 78
46083 921 88 81
46084 921 270 11
46085 921 538 63
46086 921 857 83
46087 921 323 67
46088 921 968 19
46089 921 260 34
46090 921 105 3
46091 921 124 87
46092 921 859 43
46093 921 99 12
46094 921 874 28
46095 921 951 65
46096 921 354 97
46097 921 161 89
46098 921 552 46
46099 921 877 27
46100 921 684 22
46101 921 816 33
46102 921 882 42
46103 921 769 14
46104 921 875 10
46105 921 90 94
46106 921 656 64
46107 921 813 51
46108 921 525 37
46109 921 292 78
46110 921 586 59
46111 922 582 84
46112 922 521 6
46113 922 777 83
46114 922 239 69
46115 922 324 30
46116 922 690 45
46117 922 720 4
46118 922 627 22
46119 922 652 74
46120 922 661 13
46121 922 635 34
46122 922 979 38
46123 922 731 39
46124 922 507 68
46125 922 580 57
46126 922 843 76
46127 922 133 69
46128 922 315 25
46129 922 407 61
46130 922 475 25
46131 922 128 10
46132 922 673 38
46133 922 421 90
46134 922 287 47
46135 922 929 33
46136 922 555 65
46137 922 705 44
46138 922 163 50
46139 922 436 3
46140 922 91 1
46141 922 180 78
46142 922 699 91
46143 922 81 46
46144 922 556 29
46145 922 88 94
46146 922 419 64
46147 922 640 82
46148 922 949 33
46149 922 279 13
46150 922 983 5
46151 922 969 45
46152 922 195 33
46153 922 963 51
46154 922 101 56
46155 923 639 83
46156 923 608 79
46157 923 125 30
46158 923 391 75
46159 923 364 62
46160 923 477 100
46161 923 710 40
46162 923 900 20
46163 923 21 31
46164 923 951 55
46165 923 191 56
46166 923 80 13
46167 923 205 43
46168 923 653 86
46169 923 671 17
46170 923 517 4
46171 923 386 66
46172 923 102 7
46173 923 680 59
46174 923 14 31
46175 923 694 83
46176 923 301 30
46177 923 330 47
46178 923 190 39
46179 923 339 19
46180 923 426 8
46181 923 634 16
46182 923 182 1
46183 923 437 20
46184 923 702 42
46185 923 975 29
46186 923 626 64
46187 923 195 26
46188 923 468 70
46189 923 342 73
46190 923 736 58
46191 923 525 82
46192 923 677 18
46193 923 537 56
46194 923 675 49
46195 923 926 66
46196 923 129 55
46197 923 865 73
46198 923 606 7
46199 923 97 23
46200 923 988 95
46201 923 453 10
46202 923 486 14
46203 923 418 29
46204 923 244 54
46205 923 32 49
46206 923 122 78
46207 923 848 63
46208 924 286 36
46209 924 251 42
46210 924 905 66
46211 924 668 68
46212 924 839 49
46213 924 33 78
46214 924 935 31
46215 924 91 37
46216 924 838 47
46217 924 560 14
46218 924 965 73
46219 924 794 77
46220 924 480 3
46221 924 972 42
46222 924 658 19
46223 924 270 80
46224 924 449 10
46225 924 826 2
46226 924 490 95
46227 924 614 36
46228 924 338 76
46229 924 742 24
46230 924 359 54
46231 924 371 63
46232 924 508 22
46233 924 540 34
46234 924 179 8
46235 924 637 56
46236 924 35 45
46237 924 432 15
46238 924 788 10
46239 924 344 56
46240 924 906 86
46241 924 1 51
46242 924 78 93
46243 924 557 9
46244 924 106 9
46245 924 787 51
46246 924 51 76
46247 924 306 46
46248 924 919 78
46249 924 888 84
46250 924 263 75
46251 924 351 2
46252 924 526 76
46253 924 895 48
46254 924 856 13
46255 925 903 91
46256 925 620 55
46257 925 791 62
46258 925 433 29
46259 925 282 93
46260 925 6 26
46261 925 231 18
46262 925 638 58
46263 925 147 27
46264 925 564 95
46265 925 542 99
46266 925 201 5
46267 925 376 93
46268 925 110 71
46269 925 777 96
46270 925 860 11
46271 925 50 29
46272 925 424 98
46273 925 266 56
46274 925 605 20
46275 925 216 57
46276 925 78 93
46277 925 736 67
46278 925 35 23
46279 925 359 74
46280 925 829 32
46281 925 81 53
46282 925 274 28
46283 925 685 14
46284 925 137 4
46285 925 794 89
46286 925 922 71
46287 925 370 65
46288 925 803 78
46289 925 192 93
46290 925 752 14
46291 925 876 84
46292 925 613 100
46293 925 585 100
46294 925 826 40
46295 925 724 92
46296 925 154 25
46297 925 418 70
46298 925 47 44
46299 925 58 66
46300 925 378 43
46301 925 52 62
46302 925 538 23
46303 925 460 85
46304 926 244 75
46305 926 327 60
46306 926 646 51
46307 926 328 9
46308 926 68 72
46309 926 687 39
46310 926 443 44
46311 926 386 92
46312 926 233 32
46313 926 594 30
46314 926 713 12
46315 926 609 79
46316 926 904 48
46317 926 274 90
46318 926 913 30
46319 926 917 97
46320 926 901 30
46321 926 670 14
46322 926 605 96
46323 926 598 83
46324 926 925 24
46325 926 614 40
46326 926 284 41
46327 926 750 38
46328 926 833 11
46329 926 867 83
46330 926 805 99
46331 926 7 47
46332 926 59 23
46333 926 898 59
46334 926 333 68
46335 926 975 94
46336 926 759 3
46337 926 989 78
46338 926 344 41
46339 926 852 8
46340 926 944 79
46341 926 792 81
46342 926 164 85
46343 926 793 70
46344 926 225 1
46345 926 816 12
46346 926 659 59
46347 926 99 21
46348 926 579 2
46349 926 179 18
46350 926 275 86
46351 927 846 66
46352 927 224 72
46353 927 527 92
46354 927 424 28
46355 927 67 76
46356 927 517 93
46357 927 93 44
46358 927 598 71
46359 927 842 62
46360 927 639 38
46361 927 822 59
46362 927 78 72
46363 927 139 96
46364 927 528 6
46365 927 636 21
46366 927 444 50
46367 927 888 98
46368 927 828 80
46369 927 524 98
46370 927 233 61
46371 927 971 36
46372 927 741 77
46373 927 969 20
46374 927 446 53
46375 927 66 83
46376 927 684 84
46377 927 861 76
46378 927 655 93
46379 927 150 100
46380 927 270 3
46381 927 623 62
46382 927 578 23
46383 927 251 83
46384 927 322 84
46385 927 716 98
46386 927 928 43
46387 927 383 70
46388 927 292 47
46389 927 820 32
46390 927 334 69
46391 927 891 58
46392 927 213 63
46393 927 181 79
46394 927 33 80
46395 927 257 49
46396 927 743 67
46397 927 379 77
46398 927 841 92
46399 928 865 88
46400 928 666 27
46401 928 597 79
46402 928 100 92
46403 928 410 42
46404 928 220 28
46405 928 981 85
46406 928 529 76
46407 928 159 100
46408 928 472 56
46409 928 69 47
46410 928 869 86
46411 928 85 32
46412 928 344 4
46413 928 327 98
46414 928 745 11
46415 928 779 3
46416 928 241 98
46417 928 844 27
46418 928 302 53
46419 928 722 58
46420 928 995 32
46421 928 712 69
46422 928 95 78
46423 928 207 89
46424 928 676 71
46425 928 343 33
46426 928 450 13
46427 928 156 6
46428 928 827 80
46429 928 758 97
46430 928 852 25
46431 928 489 28
46432 928 659 1
46433 928 708 13
46434 928 966 23
46435 928 434 34
46436 928 261 95
46437 928 133 24
46438 928 160 28
46439 928 267 41
46440 928 67 49
46441 928 534 3
46442 928 673 15
46443 928 842 23
46444 928 516 82
46445 928 297 95
46446 928 629 47
46447 928 164 93
46448 928 794 48
46449 928 473 31
46450 928 359 48
46451 928 484 19
46452 928 941 84
46453 928 88 58
46454 928 756 78
46455 928 16 37
46456 928 655 7
46457 928 876 39
46458 928 437 82
46459 928 570 93
46460 928 820 88
46461 928 234 61
46462 928 965 92
46463 928 898 36
46464 928 184 51
46465 928 21 3
46466 929 623 65
46467 929 150 54
46468 929 850 15
46469 929 580 81
46470 929 226 89
46471 929 519 47
46472 929 8 15
46473 929 212 89
46474 929 523 60
46475 929 985 48
46476 929 660 74
46477 929 729 53
46478 929 422 37
46479 929 899 8
46480 929 915 85
46481 929 27 62
46482 929 127 90
46483 929 252 64
46484 929 379 9
46485 929 680 28
46486 929 663 66
46487 929 273 12
46488 929 525 8
46489 929 527 5
46490 929 611 98
46491 929 647 50
46492 929 309 94
46493 929 511 100
46494 929 754 35
46495 929 715 82
46496 929 414 91
46497 929 679 19
46498 929 931 80
46499 929 876 67
46500 929 182 5
46501 929 674 20
46502 929 121 85
46503 929 539 53
46504 929 330 90
46505 929 968 34
46506 929 922 21
46507 929 772 8
46508 929 551 67
46509 929 851 55
46510 929 291 98
46511 929 713 49
46512 929 701 82
46513 929 109 87
46514 929 480 71
46515 929 554 70
46516 929 465 16
46517 929 593 93
46518 929 515 21
46519 929 637 18
46520 929 118 25
46521 929 854 66
46522 930 652 26
46523 930 434 88
46524 930 176 40
46525 930 809 56
46526 930 475 36
46527 930 301 71
46528 930 367 88
46529 930 155 80
46530 930 306 89
46531 930 126 67
46532 930 999 39
46533 930 415 52
46534 930 446 63
46535 930 393 50
46536 930 489 74
46537 930 768 97
46538 930 742 49
46539 930 843 19
46540 930 595 45
46541 930 643 25
46542 930 339 76
46543 930 535 75
46544 930 559 46
46545 930 994 87
46546 930 602 86
46547 930 710 85
46548 930 252 26
46549 930 456 92
46550 930 177 48
46551 930 741 8
46552 930 819 85
46553 930 678 94
46554 930 813 96
46555 930 149 48
46556 930 857 88
46557 930 524 88
46558 930 148 28
46559 930 248 96
46560 930 10 55
46561 930 853 40
46562 930 406 73
46563 930 491 25
46564 930 673 10
46565 930 992 89
46566 930 721 77
46567 930 962 98
46568 930 486 13
46569 930 916 39
46570 931 29 59
46571 931 225 4
46572 931 65 59
46573 931 542 26
46574 931 82 76
46575 931 233 80
46576 931 520 67
46577 931 163 77
46578 931 866 69
46579 931 732 21
46580 931 693 90
46581 931 829 60
46582 931 181 2
46583 931 550 9
46584 931 142 51
46585 931 514 11
46586 931 408 32
46587 931 580 69
46588 931 39 32
46589 931 711 44
46590 931 298 46
46591 931 858 44
46592 931 547 28
46593 931 96 16
46594 931 820 81
46595 931 765 3
46596 931 647 83
46597 931 558 64
46598 931 377 12
46599 931 86 35
46600 931 552 42
46601 931 127 64
46602 931 372 46
46603 931 201 98
46604 931 58 15
46605 931 667 77
46606 931 868 1
46607 931 575 83
46608 931 709 69
46609 931 714 63
46610 931 308 94
46611 931 315 36
46612 931 746 67
46613 931 692 72
46614 931 387 70
46615 931 737 37
46616 931 920 18
46617 931 753 37
46618 931 55 62
46619 931 823 28
46620 931 374 57
46621 931 722 1
46622 931 854 44
46623 931 845 86
46624 932 872 80
46625 932 67 100
46626 932 56 30
46627 932 79 16
46628 932 565 5
46629 932 46 89
46630 932 875 63
46631 932 923 25
46632 932 455 69
46633 932 272 20
46634 932 897 62
46635 932 248 39
46636 932 662 70
46637 932 962 13
46638 932 912 83
46639 932 512 85
46640 932 309 73
46641 932 502 41
46642 932 337 49
46643 932 817 9
46644 932 816 100
46645 932 749 5
46646 932 422 10
46647 932 268 29
46648 932 976 13
46649 932 635 7
46650 932 28 89
46651 932 800 99
46652 932 805 92
46653 932 941 84
46654 932 634 90
46655 932 630 71
46656 932 209 11
46657 932 863 63
46658 932 129 48
46659 932 165 3
46660 932 159 43
46661 932 827 32
46662 932 582 79
46663 932 591 92
46664 932 366 26
46665 932 389 79
46666 932 750 82
46667 932 672 78
46668 932 624 42
46669 932 20 4
46670 932 638 40
46671 932 252 96
46672 932 122 97
46673 932 425 64
46674 932 496 19
46675 932 765 51
46676 932 323 62
46677 932 913 76
46678 932 336 99
46679 932 397 59
46680 932 48 23
46681 932 317 12
46682 932 120 44
46683 933 912 41
46684 933 831 24
46685 933 96 20
46686 933 717 69
46687 933 116 58
46688 933 43 62
46689 933 217 4
46690 933 896 5
46691 933 36 25
46692 933 423 63
46693 933 773 41
46694 933 165 1
46695 933 949 67
46696 933 440 5
46697 933 535 89
46698 933 917 8
46699 933 199 17
46700 933 937 3
46701 933 724 3
46702 933 751 59
46703 933 916 40
46704 933 788 79
46705 933 680 41
46706 933 673 55
46707 933 663 99
46708 933 623 34
46709 933 954 93
46710 933 722 35
46711 933 17 86
46712 933 195 43
46713 933 204 63
46714 933 334 87
46715 933 117 81
46716 933 644 34
46717 933 345 66
46718 933 765 68
46719 933 518 49
46720 933 782 60
46721 933 369 31
46722 933 274 2
46723 933 142 22
46724 933 134 68
46725 933 714 100
46726 933 762 5
46727 933 469 75
46728 933 790 2
46729 933 84 49
46730 934 571 73
46731 934 742 46
46732 934 175 18
46733 934 64 3
46734 934 304 8
46735 934 928 72
46736 934 980 24
46737 934 349 48
46738 934 231 15
46739 934 284 27
46740 934 562 60
46741 934 786 51
46742 934 918 96
46743 934 751 72
46744 934 89 37
46745 934 287 38
46746 934 588 68
46747 934 85 30
46748 934 72 6
46749 934 247 77
46750 934 879 70
46751 934 496 64
46752 934 939 46
46753 934 45 58
46754 934 274 11
46755 934 632 67
46756 934 463 34
46757 934 894 47
46758 934 162 54
46759 934 514 86
46760 934 798 72
46761 934 184 28
46762 934 982 23
46763 934 278 35
46764 934 854 33
46765 934 586 13
46766 934 670 10
46767 934 862 98
46768 934 661 85
46769 934 693 63
46770 934 506 36
46771 934 869 48
46772 934 627 78
46773 934 829 72
46774 934 413 87
46775 934 820 9
46776 934 578 66
46777 935 97 100
46778 935 855 1
46779 935 923 34
46780 935 716 57
46781 935 823 85
46782 935 640 18
46783 935 31 6
46784 935 503 84
46785 935 198 94
46786 935 789 100
46787 935 684 82
46788 935 664 19
46789 935 724 64
46790 935 631 27
46791 935 324 1
46792 935 201 74
46793 935 394 64
46794 935 408 81
46795 935 130 93
46796 935 921 84
46797 935 820 73
46798 935 55 58
46799 935 290 47
46800 935 300 70
46801 935 317 77
46802 935 899 15
46803 935 154 48
46804 935 600 43
46805 935 547 22
46806 935 147 6
46807 935 7 13
46808 935 558 53
46809 935 936 23
46810 935 425 86
46811 935 663 80
46812 935 949 57
46813 935 702 63
46814 935 928 18
46815 935 165 29
46816 935 163 33
46817 935 5 44
46818 935 965 84
46819 935 407 87
46820 935 871 65
46821 935 0 83
46822 935 892 2
46823 935 727 22
46824 935 945 23
46825 936 344 68
46826 936 264 37
46827 936 523 40
46828 936 419 70
46829 936 545 40
46830 936 736 77
46831 936 258 98
46832 936 481 67
46833 936 976 9
46834 936 566 43
46835 936 372 41
46836 936 360 41
46837 936 191 76
46838 936 386 25
46839 936 515 4
46840 936 89 11
46841 936 831 28
46842 936 174 56
46843 936 399 48
46844 936 390 17
46845 936 931 19
46846 936 835 58
46847 936 169 76
46848 936 60 10
46849 936 640 35
46850 936 583 22
46851 936 641 29
46852 936 55 19
46853 936 886 70
46854 936 216 52
46855 936 565 23
46856 936 584 55
46857 936 573 55
46858 936 41 25
46859 936 795 41
46860 936 134 6
46861 936 826 43
46862 936 796 95
46863 936 939 95
46864 936 612 10
46865 936 361 89
46866 936 108 18
46867 936 326 13
46868 936 166 94
46869 936 505 9
46870 936 397 15
46871 936 312 99
46872 936 11 63
46873 936 754 59
46874 936 329 42
46875 936 820 21
46876 936 862 86
46877 936 979 9
46878 937 810 69
46879 937 423 12
46880 937 936 35
46881 937 864 9
46882 937 274 30
46883 937 944 5
46884 937 873 62
46885 937 260 96
46886 937 957 58
46887 937 148 5
46888 937 269 24
46889 937 493 70
46890 937 325 67
46891 937 491 44
46892 937 327 66
46893 937 283 62
46894 937 461 49
46895 937 904 41
46896 937 412 93
46897 937 452 47
46898 937 929 46
46899 937 886 9
46900 937 169 20
46901 937 126 26
46902 937 413 15
46903 937 682 91
46904 937 322 61
46905 937 956 27
46906 937 890 18
46907 937 744 50
46908 937 974 28
46909 937 988 32
46910 937 532 29
46911 937 978 40
46912 937 178 17
46913 937 355 52
46914 937 115 14
46915 937 474 39
46916 937 510 82
46917 937 171 90
46918 937 306 39
46919 938 460 54
46920 938 786 90
46921 938 627 81
46922 938 139 36
46923 938 174 81
46924 938 158 25
46925 938 348 36
46926 938 476 83
46927 938 507 14
46928 938 281 72
46929 938 710 80
46930 938 639 85
46931 938 522 18
46932 938 140 55
46933 938 185 8
46934 938 862 91
46935 938 83 94
46936 938 7 23
46937 938 44 64
46938 938 613 50
46939 938 282 23
46940 938 69 4
46941 938 117 39
46942 938 689 99
46943 938 287 39
46944 938 705 38
46945 938 227 82
46946 938 712 99
46947 938 416 52
46948 938 155 3
46949 938 298 84
46950 938 6 36
46951 938 865 14
46952 938 164 92
46953 938 163 15
46954 938 362 52
46955 938 45 63
46956 938 842 72
46957 938 991 31
46958 938 421 60
46959 938 844 72
46960 938 101 80
46961 938 183 62
46962 938 831 93
46963 938 956 48
46964 938 556 56
46965 938 701 7
46966 938 310 75
46967 938 549 62
46968 938 97 83
46969 938 670 5
46970 938 194 47
46971 938 852 32
46972 938 483 99
46973 938 457 90
46974 938 326 65
46975 938 906 75
46976 938 48 43
46977 938 743 20
46978 939 629 34
46979 939 945 64
46980 939 235 92
46981 939 675 77
46982 939 168 8
46983 939 572 9
46984 939 713 100
46985 939 930 83
46986 939 332 79
46987 939 780 10
46988 939 9 45
46989 939 853 77
46990 939 285 22
46991 939 603 91
46992 939 107 31
46993 939 121 29
46994 939 711 68
46995 939 524 46
46996 939 937 69
46997 939 836 59
46998 939 782 60
46999 939 906 38
47000 939 956 40
47001 939 611 81
47002 939 204 74
47003 939 404 38
47004 939 702 86
47005 939 540 48
47006 939 835 87
47007 939 287 64
47008 939 546 84
47009 939 302 53
47010 939 399 90
47011 939 8 98
47012 939 744 62
47013 939 722 83
47014 939 530 80
47015 939 690 45
47016 939 105 6
47017 939 878 72
47018 939 826 60
47019 939 758 79
47020 939 715 70
47021 939 696 75
47022 939 315 5
47023 939 488 59
47024 940 728 79
47025 940 236 93
47026 940 82 81
47027 940 198 48
47028 940 948 96
47029 940 458 9
47030 940 16 22
47031 940 739 31
47032 940 95 90
47033 940 299 38
47034 940 204 79
47035 940 872 68
47036 940 718 48
47037 940 859 96
47038 940 21 49
47039 940 207 20
47040 940 578 16
47041 940 321 43
47042 940 65 41
47043 940 635 55
47044 940 768 10
47045 940 81 68
47046 940 192 85
47047 940 314 91
47048 940 168 12
47049 940 178 90
47050 940 838 80
47051 940 119 42
47052 940 252 5
47053 940 25 18
47054 940 667 82
47055 940 352 6
47056 940 958 83
47057 940 353 7
47058 940 890 57
47059 940 23 43
47060 940 532 18
47061 940 523 30
47062 940 87 48
47063 940 738 16
47064 940 774 70
47065 940 809 86
47066 940 960 11
47067 940 153 98
47068 941 95 41
47069 941 381 89
47070 941 604 62
47071 941 798 78
47072 941 579 61
47073 941 392 84
47074 941 888 95
47075 941 582 14
47076 941 492 34
47077 941 324 62
47078 941 705 12
47079 941 643 1
47080 941 811 7
47081 941 440 6
47082 941 335 23
47083 941 786 14
47084 941 755 34
47085 941 766 30
47086 941 508 66
47087 941 199 52
47088 941 702 2
47089 941 505 77
47090 941 287 93
47091 941 229 89
47092 941 290 20
47093 941 963 65
47094 941 625 23
47095 941 147 1
47096 941 193 88
47097 941 485 34
47098 941 744 41
47099 941 570 77
47100 941 695 86
47101 941 274 12
47102 941 150 26
47103 941 291 24
47104 941 389 77
47105 941 635 72
47106 941 450 54
47107 941 743 35
47108 941 328 4
47109 941 302 3
47110 941 467 94
47111 941 816 19
47112 941 523 65
47113 941 693 84
47114 941 769 63
47115 941 878 74
47116 941 243 46
47117 941 578 44
47118 941 166 60
47119 941 521 100
47120 941 997 80
47121 941 844 21
47122 941 914 20
47123 941 885 50
47124 941 850 18
47125 941 526 41
47126 941 264 95
47127 942 463 18
47128 942 563 45
47129 942 965 41
47130 942 676 44
47131 942 570 47
47132 942 388 68
47133 942 635 65
47134 942 643 54
47135 942 817 52
47136 942 640 2
47137 942 565 74
47138 942 330 26
47139 942 422 9
47140 942 88 86
47141 942 188 81
47142 942 685 49
47143 942 757 17
47144 942 382 93
47145 942 472 39
47146 942 954 15
47147 942 888 49
47148 942 218 20
47149 942 227 67
47150 942 847 95
47151 942 772 86
47152 942 825 26
47153 942 835 20
47154 942 245 94
47155 942 370 23
47156 942 257 75
47157 942 418 30
47158 942 233 41
47159 942 190 67
47160 942 444 39
47161 942 638 50
47162 942 279 77
47163 942 644 2
47164 942 522 32
47165 942 774 17
47166 942 957 40
47167 942 987 84
47168 942 617 78
47169 942 501 63
47170 942 686 70
47171 942 11 49
47172 942 552 25
47173 942 538 91
47174 942 45 57
47175 942 822 72
47176 942 869 84
47177 942 666 67
47178 942 474 29
47179 942 199 85
47180 943 157 36
47181 943 158 83
47182 943 204 73
47183 943 136 9
47184 943 540 90
47185 943 439 21
47186 943 951 61
47187 943 762 73
47188 943 336 1
47189 943 298 25
47190 943 691 4
47191 943 57 92
47192 943 272 38
47193 943 600 80
47194 943 895 96
47195 943 413 27
47196 943 690 92
47197 943 52 20
47198 943 177 91
47199 943 849 55
47200 943 747 47
47201 943 498 24
47202 943 806 90
47203 943 176 89
47204 943 933 39
47205 943 866 54
47206 943 442 57
47207 943 740 5
47208 943 829 22
47209 943 86 34
47210 943 184 31
47211 943 783 88
47212 943 214 17
47213 943 486 66
47214 943 622 24
47215 943 647 99
47216 943 903 35
47217 943 388 40
47218 943 132 25
47219 943 299 35
47220 943 549 48
47221 943 326 26
47222 943 774 46
47223 943 888 78
47224 943 235 24
47225 943 323 63
47226 943 934 64
47227 943 382 55
47228 944 725 96
47229 944 856 21
47230 944 52 62
47231 944 857 48
47232 944 77 20
47233 944 266 1
47234 944 396 91
47235 944 558 25
47236 944 311 6
47237 944 892 8
47238 944 68 71
47239 944 24 61
47240 944 364 20
47241 944 560 97
47242 944 106 30
47243 944 707 14
47244 944 748 58
47245 944 819 94
47246 944 6 88
47247 944 577 58
47248 944 829 34
47249 944 499 3
47250 944 510 51
47251 944 926 24
47252 944 93 77
47253 944 602 63
47254 944 111 91
47255 944 696 17
47256 944 920 22
47257 944 224 68
47258 944 387 61
47259 944 533 26
47260 944 104 71
47261 944 799 91
47262 944 5 34
47263 944 267 43
47264 944 569 10
47265 944 161 14
47266 944 501 49
47267 944 221 11
47268 944 740 34
47269 945 542 14
47270 945 443 27
47271 945 260 91
47272 945 131 43
47273 945 895 78
47274 945 317 86
47275 945 370 62
47276 945 117 55
47277 945 181 47
47278 945 551 49
47279 945 718 68
47280 945 318 67
47281 945 854 65
47282 945 150 72
47283 945 236 89
47284 945 256 27
47285 945 121 28
47286 945 93 80
47287 945 243 19
47288 945 10 58
47289 945 165 82
47290 945 28 40
47291 945 463 11
47292 945 874 12
47293 945 189 9
47294 945 857 23
47295 945 528 43
47296 945 748 38
47297 945 953 19
47298 945 825 62
47299 945 511 98
47300 945 145 23
47301 945 698 40
47302 945 850 27
47303 945 345 98
47304 945 759 50
47305 945 888 59
47306 945 440 61
47307 945 534 60
47308 945 267 18
47309 945 3 44
47310 945 198 29
47311 945 244 83
47312 945 356 64
47313 945 942 16
47314 945 641 47
47315 945 853 54
47316 945 270 18
47317 945 427 32
47318 945 23 76
47319 945 66 12
47320 945 166 87
47321 945 638 93
47322 945 804 23
47323 945 444 86
47324 945 816 40
47325 945 831 12
47326 946 471 21
47327 946 555 29
47328 946 599 80
47329 946 218 28
47330 946 240 51
47331 946 175 66
47332 946 983 5
47333 946 591 82
47334 946 102 60
47335 946 621 18
47336 946 750 12
47337 946 4 26
47338 946 74 68
47339 946 740 31
47340 946 329 90
47341 946 767 14
47342 946 333 45
47343 946 861 32
47344 946 500 24
47345 946 761 80
47346 946 385 77
47347 946 441 22
47348 946 118 3
47349 946 844 4
47350 946 437 86
47351 946 37 86
47352 946 522 35
47353 946 683 93
47354 946 850 14
47355 946 569 5
47356 946 415 41
47357 946 364 52
47358 946 205 43
47359 946 840 83
47360 946 575 11
47361 946 708 48
47362 946 776 83
47363 946 410 9
47364 946 257 74
47365 946 353 84
47366 946 483 37
47367 946 752 46
47368 946 431 20
47369 946 146 29
47370 946 954 51
47371 946 611 88
47372 946 379 69
47373 946 501 65
47374 946 424 33
47375 946 313 40
47376 946 820 55
47377 946 710 38
47378 947 650 5
47379 947 498 96
47380 947 816 14
47381 947 366 57
47382 947 79 38
47383 947 550 6
47384 947 694 80
47385 947 787 4
47386 947 913 25
47387 947 707 21
47388 947 703 49
47389 947 230 19
47390 947 558 75
47391 947 566 32
47392 947 858 79
47393 947 443 3
47394 947 375 82
47395 947 853 89
47396 947 909 31
47397 947 786 39
47398 947 205 33
47399 947 796 42
47400 947 975 91
47401 947 500 14
47402 947 428 30
47403 947 212 70
47404 947 696 77
47405 947 852 43
47406 947 274 3
47407 947 621 91
47408 947 495 76
47409 947 371 98
47410 947 609 34
47411 947 628 31
47412 947 108 2
47413 947 682 68
47414 947 475 7
47415 947 496 80
47416 947 503 95
47417 947 680 23
47418 947 859 12
47419 947 551 21
47420 947 982 35
47421 947 100 26
47422 947 320 64
47423 948 581 70
47424 948 889 59
47425 948 587 7
47426 948 144 76
47427 948 396 12
47428 948 224 59
47429 948 90 4
47430 948 792 34
47431 948 815 3
47432 948 457 87
47433 948 954 88
47434 948 922 23
47435 948 912 60
47436 948 708 2
47437 948 909 60
47438 948 387 68
47439 948 461 48
47440 948 606 67
47441 948 732 14
47442 948 254 67
47443 948 697 39
47444 948 394 10
47445 948 190 93
47446 948 409 66
47447 948 366 27
47448 948 119 12
47449 948 864 70
47450 948 552 94
47451 948 310 24
47452 948 866 9
47453 948 473 75
47454 948 491 68
47455 948 901 32
47456 948 722 27
47457 948 440 14
47458 948 322 29
47459 948 312 18
47460 948 344 89
47461 948 538 68
47462 948 233 87
47463 948 268 23
47464 948 81 26
47465 948 951 71
47466 948 83 47
47467 948 79 5
47468 948 342 96
47469 948 385 65
47470 948 444 78
47471 948 122 1
47472 948 876 57
47473 948 497 80
47474 948 27 34
47475 949 709 50
47476 949 725 86
47477 949 437 39
47478 949 479 87
47479 949 823 72
47480 949 481 55
47481 949 588 72
47482 949 520 42
47483 949 639 1
47484 949 935 52
47485 949 354 90
47486 949 877 56
47487 949 59 86
47488 949 85 47
47489 949 14 77
47490 949 300 5
47491 949 826 64
47492 949 944 55
47493 949 298 86
47494 949 740 74
47495 949 760 62
47496 949 362 39
47497 949 338 25
47498 949 566 59
47499 949 899 42
47500 949 706 65
47501 949 137 1
47502 949 955 22
47503 949 567 36
47504 949 882 53
47505 949 745 23
47506 949 690 68
47507 949 828 79
47508 949 325 35
47509 949 28 18
47510 949 642 83
47511 949 294 42
47512 949 285 54
47513 949 25 15
47514 949 903 57
47515 949 529 2
47516 949 565 45
47517 949 173 41
47518 949 465 7
47519 949 389 3
47520 949 508 58
47521 949 948 65
47522 949 318 42
47523 949 669 22
47524 949 894 72
47525 949 817 44
47526 949 885 89
47527 949 733 54
47528 949 884 48
47529 949 317 33
47530 949 328 86
47531 949 191 95
47532 949 854 63
47533 949 4 18
47534 949 646 31
47535 950 608 100
47536 950 374 16
47537 950 377 73
47538 950 883 48
47539 950 525 41
47540 950 529 14
47541 950 661 95
47542 950 409 18
47543 950 73 28
47544 950 613 6
47545 950 750 6
47546 950 289 7
47547 950 975 42
47548 950 574 58
47549 950 945 19
47550 950 193 30
47551 950 174 9
47552 950 231 5
47553 950 956 69
47554 950 169 37
47555 950 893 89
47556 950 840 71
47557 950 378 25
47558 950 997 83
47559 950 75 18
47560 950 254 36
47561 950 592 12
47562 950 419 26
47563 950 309 17
47564 950 411 80
47565 950 671 53
47566 950 474 92
47567 950 195 55
47568 950 678 57
47569 950 588 61
47570 950 119 63
47571 950 580 37
47572 950 253 22
47573 950 552 59
47574 950 502 2
47575 950 241 30
47576 950 5 17
47577 951 581 21
47578 951 550 6
47579 951 501 56
47580 951 4 72
47581 951 758 46
47582 951 540 41
47583 951 682 24
47584 951 864 100
47585 951 360 37
47586 951 59 86
47587 951 412 57
47588 951 15 69
47589 951 87 28
47590 951 613 8
47591 951 748 14
47592 951 475 28
47593 951 753 44
47594 951 685 76
47595 951 216 98
47596 951 837 84
47597 951 369 60
47598 951 821 29
47599 951 54 13
47600 951 984 21
47601 951 654 2
47602 951 866 6
47603 951 745 80
47604 951 997 85
47605 951 781 33
47606 951 416 59
47607 951 672 72
47608 951 329 99
47609 951 761 46
47610 951 375 52
47611 951 173 39
47612 951 918 26
47613 951 104 65
47614 951 354 38
47615 951 805 75
47616 951 496 69
47617 951 258 67
47618 951 118 4
47619 951 629 13
47620 951 625 51
47621 951 291 34
47622 951 661 15
47623 951 571 34
47624 951 373 61
47625 951 101 67
47626 951 285 67
47627 951 907 11
47628 951 14 67
47629 952 363 79
47630 952 77 64
47631 952 779 39
47632 952 915 41
47633 952 767 8
47634 952 981 99
47635 952 628 82
47636 952 732 57
47637 952 614 4
47638 952 691 7
47639 952 328 26
47640 952 713 92
47641 952 424 73
47642 952 906 92
47643 952 338 39
47644 952 170 62
47645 952 346 84
47646 952 800 13
47647 952 730 89
47648 952 648 48
47649 952 971 91
47650 952 512 62
47651 952 237 10
47652 952 930 90
47653 952 105 10
47654 952 42 78
47655 952 927 98
47656 952 117 90
47657 952 747 71
47658 952 474 20
47659 952 919 33
47660 952 478 73
47661 952 772 32
47662 952 323 47
47663 952 485 41
47664 952 733 43
47665 952 234 15
47666 952 0 35
47667 952 581 16
47668 952 972 15
47669 952 166 69
47670 952 451 25
47671 952 673 79
47672 952 718 24
47673 952 88 33
47674 952 882 34
47675 952 943 44
47676 952 310 56
47677 952 871 94
47678 952 359 96
47679 952 335 77
47680 953 289 27
47681 953 495 47
47682 953 42 69
47683 953 3 97
47684 953 376 54
47685 953 34 64
47686 953 39 92
47687 953 232 4
47688 953 834 70
47689 953 127 19
47690 953 51 92
47691 953 827 29
47692 953 234 36
47693 953 561 96
47694 953 107 67
47695 953 615 88
47696 953 733 42
47697 953 261 29
47698 953 411 75
47699 953 724 13
47700 953 831 74
47701 953 312 38
47702 953 796 12
47703 953 954 20
47704 953 977 17
47705 953 740 71
47706 953 337 72
47707 953 889 4
47708 953 776 21
47709 953 876 48
47710 953 818 99
47711 953 353 64
47712 953 666 20
47713 953 859 71
47714 953 126 49
47715 953 348 42
47716 953 473 85
47717 953 915 61
47718 953 829 96
47719 953 685 90
47720 953 550 55
47721 953 25 15
47722 953 409 4
47723 953 400 30
47724 953 562 34
47725 953 544 84
47726 953 816 36
47727 953 140 64
47728 953 659 67
47729 953 928 96
47730 954 907 44
47731 954 251 64
47732 954 738 18
47733 954 797 59
47734 954 932 57
47735 954 123 99
47736 954 977 13
47737 954 744 25
47738 954 799 52
47739 954 463 19
47740 954 185 36
47741 954 615 13
47742 954 858 62
47743 954 113 8
47744 954 388 51
47745 954 218 59
47746 954 956 16
47747 954 464 72
47748 954 327 47
47749 954 789 76
47750 954 825 34
47751 954 655 18
47752 954 2 85
47753 954 179 18
47754 954 683 60
47755 954 474 25
47756 954 566 52
47757 954 712 12
47758 954 884 53
47759 954 322 57
47760 954 417 4
47761 954 54 82
47762 954 717 16
47763 954 708 46
47764 954 416 37
47765 954 894 91
47766 954 485 30
47767 954 637 95
47768 954 565 75
47769 954 879 45
47770 954 748 33
47771 954 794 12
47772 954 37 45
47773 954 679 8
47774 954 98 37
47775 954 81 43
47776 954 628 44
47777 954 563 16
47778 954 546 90
47779 954 267 12
47780 955 287 83
47781 955 310 20
47782 955 520 14
47783 955 65 5
47784 955 272 57
47785 955 248 15
47786 955 154 97
47787 955 874 18
47788 955 138 38
47789 955 194 74
47790 955 749 26
47791 955 924 26
47792 955 867 30
47793 955 82 6
47794 955 114 18
47795 955 550 91
47796 955 900 28
47797 955 541 42
47798 955 20 57
47799 955 644 41
47800 955 422 57
47801 955 726 64
47802 955 428 41
47803 955 125 52
47804 955 369 42
47805 955 516 41
47806 955 992 6
47807 955 48 67
47808 955 957 64
47809 955 800 56
47810 955 70 57
47811 955 115 70
47812 955 990 40
47813 955 57 100
47814 955 142 56
47815 955 225 44
47816 955 643 94
47817 955 641 18
47818 955 432 14
47819 955 944 74
47820 955 376 70
47821 955 645 53
47822 955 80 52
47823 955 741 17
47824 955 529 25
47825 955 491 45
47826 955 922 32
47827 955 925 14
47828 955 766 51
47829 955 984 25
47830 955 983 6
47831 955 783 70
47832 956 294 6
47833 956 171 98
47834 956 55 21
47835 956 419 52
47836 956 549 78
47837 956 154 84
47838 956 134 25
47839 956 238 68
47840 956 326 82
47841 956 279 87
47842 956 748 65
47843 956 702 45
47844 956 788 66
47845 956 129 82
47846 956 314 42
47847 956 657 80
47848 956 199 79
47849 956 142 82
47850 956 456 98
47851 956 473 15
47852 956 53 58
47853 956 80 49
47854 956 762 52
47855 956 118 31
47856 956 408 17
47857 956 36 86
47858 956 985 58
47859 956 433 79
47860 956 578 24
47861 956 824 55
47862 956 557 2
47863 956 687 85
47864 956 115 50
47865 956 7 83
47866 956 943 16
47867 956 273 98
47868 956 627 73
47869 956 565 31
47870 956 394 99
47871 956 737 96
47872 956 677 12
47873 956 572 2
47874 956 75 83
47875 956 911 9
47876 956 732 93
47877 956 30 59
47878 956 101 100
47879 956 336 20
47880 956 143 70
47881 956 511 21
47882 956 905 75
47883 956 609 23
47884 956 632 17
47885 957 330 71
47886 957 222 82
47887 957 581 91
47888 957 802 62
47889 957 963 64
47890 957 805 91
47891 957 153 68
47892 957 421 93
47893 957 43 99
47894 957 207 9
47895 957 81 55
47896 957 597 64
47897 957 550 87
47898 957 18 15
47899 957 701 33
47900 957 537 85
47901 957 722 91
47902 957 382 57
47903 957 483 71
47904 957 296 60
47905 957 693 91
47906 957 841 82
47907 957 415 47
47908 957 38 48
47909 957 63 4
47910 957 16 38
47911 957 571 9
47912 957 110 66
47913 957 673 84
47914 957 274 17
47915 957 29 4
47916 957 531 72
47917 957 651 92
47918 957 424 47
47919 957 248 46
47920 957 921 37
47921 958 179 80
47922 958 385 8
47923 958 10 18
47924 958 332 35
47925 958 490 54
47926 958 76 70
47927 958 814 59
47928 958 211 9
47929 958 641 56
47930 958 731 5
47931 958 429 69
47932 958 19 6
47933 958 260 16
47934 958 146 46
47935 958 320 63
47936 958 90 40
47937 958 808 13
47938 958 975 44
47939 958 144 9
47940 958 867 6
47941 958 543 3
47942 958 136 24
47943 958 244 32
47944 958 778 41
47945 958 69 97
47946 958 639 26
47947 958 943 66
47948 958 119 58
47949 958 484 10
47950 958 1 77
47951 958 55 37
47952 958 896 29
47953 958 299 68
47954 958 591 16
47955 958 23 3
47956 958 474 55
47957 958 891 76
47958 958 989 77
47959 958 324 35
47960 958 670 5
47961 958 172 87
47962 958 730 59
47963 958 512 29
47964 958 655 32
47965 958 962 81
47966 958 792 29
47967 958 734 63
47968 958 202 72
47969 958 911 95
47970 958 374 48
47971 958 26 41
47972 958 170 69
47973 959 952 8
47974 959 594 64
47975 959 553 70
47976 959 77 23
47977 959 439 84
47978 959 990 65
47979 959 259 50
47980 959 728 37
47981 959 63 20
47982 959 860 32
47983 959 691 46
47984 959 132 70
47985 959 391 68
47986 959 949 28
47987 959 621 45
47988 959 836 76
47989 959 229 59
47990 959 861 40
47991 959 788 1
47992 959 136 69
47993 959 262 34
47994 959 608 40
47995 959 443 20
47996 959 224 11
47997 959 755 44
47998 959 96 49
47999 959 656 21
48000 959 424 59
48001 959 181 51
48002 959 791 97
48003 959 505 83
48004 959 233 17
48005 959 584 16
48006 959 280 68
48007 959 974 27
48008 959 301 15
48009 959 602 78
48010 959 793 17
48011 959 648 65
48012 959 759 72
48013 959 681 75
48014 959 970 5
48015 959 376 6
48016 959 942 31
48017 959 797 83
48018 960 167 63
48019 960 451 44
48020 960 28 98
48021 960 887 53
48022 960 988 80
48023 960 837 58
48024 960 23 55
48025 960 340 27
48026 960 371 67
48027 960 290 35
48028 960 288 7
48029 960 623 100
48030 960 883 88
48031 960 248 7
48032 960 178 1
48033 960 831 43
48034 960 594 86
48035 960 787 100
48036 960 812 63
48037 960 523 93
48038 960 558 43
48039 960 802 15
48040 960 476 89
48041 960 799 63
48042 960 527 94
48043 960 566 60
48044 960 712 37
48045 960 355 41
48046 960 822 97
48047 960 2 56
48048 960 693 22
48049 960 783 80
48050 960 483 90
48051 960 177 3
48052 960 940 8
48053 960 254 41
48054 960 515 73
48055 960 950 81
48056 960 592 73
48057 960 469 76
48058 960 981 32
48059 960 308 35
48060 960 403 68
48061 960 154 23
48062 960 779 48
48063 960 590 32
48064 961 280 86
48065 961 79 32
48066 961 873 17
48067 961 230 49
48068 961 759 45
48069 961 629 8
48070 961 168 54
48071 961 307 90
48072 961 493 34
48073 961 257 28
48074 961 728 56
48075 961 854 54
48076 961 477 46
48077 961 299 67
48078 961 579 99
48079 961 42 12
48080 961 93 75
48081 961 523 64
48082 961 160 51
48083 961 592 65
48084 961 75 24
48085 961 593 87
48086 961 76 44
48087 961 572 38
48088 961 559 61
48089 961 247 81
48090 961 554 60
48091 961 803 85
48092 961 906 20
48093 961 722 25
48094 961 585 53
48095 961 613 68
48096 961 676 72
48097 961 682 12
48098 961 604 74
48099 961 210 16
48100 961 533 69
48101 961 935 79
48102 961 785 43
48103 961 555 37
48104 961 185 74
48105 961 437 38
48106 961 658 23
48107 961 508 88
48108 961 261 43
48109 961 932 67
48110 961 519 96
48111 961 27 56
48112 961 677 12
48113 961 793 56
48114 962 637 85
48115 962 689 72
48116 962 701 72
48117 962 6 78
48118 962 475 24
48119 962 736 71
48120 962 318 3
48121 962 781 41
48122 962 2 12
48123 962 474 95
48124 962 986 77
48125 962 970 18
48126 962 858 75
48127 962 699 95
48128 962 717 75
48129 962 127 5
48130 962 976 80
48131 962 531 62
48132 962 69 10
48133 962 253 44
48134 962 83 69
48135 962 262 95
48136 962 511 30
48137 962 721 10
48138 962 405 74
48139 962 524 87
48140 962 422 63
48141 962 718 21
48142 962 791 30
48143 962 309 92
48144 962 391 94
48145 962 585 7
48146 962 160 73
48147 962 130 40
48148 962 364 54
48149 962 996 45
48150 962 846 53
48151 962 887 7
48152 962 510 35
48153 962 198 53
48154 962 829 22
48155 962 250 58
48156 962 169 77
48157 962 602 50
48158 962 919 35
48159 962 748 57
48160 962 882 8
48161 962 794 66
48162 962 403 15
48163 962 145 64
48164 962 323 95
48165 962 178 36
48166 962 758 55
48167 962 497 63
48168 962 129 100
48169 962 564 87
48170 962 732 6
48171 962 562 92
48172 963 964 81
48173 963 459 68
48174 963 11 20
48175 963 430 98
48176 963 858 76
48177 963 29 62
48178 963 997 42
48179 963 834 14
48180 963 841 48
48181 963 542 9
48182 963 348 31
48183 963 335 43
48184 963 46 15
48185 963 890 83
48186 963 922 1
48187 963 130 47
48188 963 347 50
48189 963 721 46
48190 963 99 85
48191 963 223 73
48192 963 31 28
48193 963 90 91
48194 963 909 88
48195 963 563 39
48196 963 286 56
48197 963 778 36
48198 963 260 61
48199 963 378 11
48200 963 567 16
48201 963 83 5
48202 963 186 65
48203 963 660 39
48204 963 407 62
48205 963 419 60
48206 963 748 11
48207 963 970 56
48208 963 377 12
48209 963 602 31
48210 963 683 94
48211 963 69 28
48212 963 709 46
48213 963 256 49
48214 963 205 58
48215 963 827 18
48216 963 809 28
48217 963 549 62
48218 964 344 96
48219 964 775 94
48220 964 193 84
48221 964 988 96
48222 964 186 56
48223 964 234 51
48224 964 633 54
48225 964 165 3
48226 964 613 46
48227 964 784 86
48228 964 517 99
48229 964 975 42
48230 964 654 36
48231 964 823 59
48232 964 225 99
48233 964 822 28
48234 964 562 9
48235 964 984 6
48236 964 5 29
48237 964 340 84
48238 964 161 24
48239 964 467 44
48240 964 676 44
48241 964 109 81
48242 964 651 68
48243 964 346 94
48244 964 806 74
48245 964 191 20
48246 964 745 22
48247 964 764 24
48248 964 286 81
48249 964 415 59
48250 964 635 66
48251 964 238 48
48252 964 883 4
48253 964 703 64
48254 964 237 62
48255 964 826 96
48256 964 500 50
48257 964 471 23
48258 964 603 66
48259 964 833 67
48260 964 808 4
48261 964 4 96
48262 964 89 69
48263 964 600 11
48264 964 215 50
48265 965 805 9
48266 965 906 53
48267 965 843 84
48268 965 735 82
48269 965 772 41
48270 965 719 25
48271 965 872 64
48272 965 743 24
48273 965 420 17
48274 965 544 93
48275 965 227 5
48276 965 572 5
48277 965 802 87
48278 965 623 42
48279 965 53 54
48280 965 90 9
48281 965 624 52
48282 965 307 43
48283 965 64 58
48284 965 28 30
48285 965 109 45
48286 965 992 93
48287 965 457 5
48288 965 313 91
48289 965 867 49
48290 965 228 74
48291 965 133 92
48292 965 824 89
48293 965 751 73
48294 965 469 86
48295 965 163 67
48296 965 322 70
48297 965 790 45
48298 965 378 86
48299 965 707 3
48300 965 111 35
48301 965 890 27
48302 965 913 25
48303 965 42 19
48304 965 588 17
48305 965 853 47
48306 965 798 8
48307 965 536 10
48308 965 487 13
48309 965 402 95
48310 965 415 10
48311 966 372 11
48312 966 175 26
48313 966 454 74
48314 966 791 85
48315 966 181 64
48316 966 948 68
48317 966 506 29
48318 966 596 69
48319 966 208 50
48320 966 524 5
48321 966 664 42
48322 966 601 32
48323 966 753 85
48324 966 309 34
48325 966 348 91
48326 966 231 37
48327 966 810 35
48328 966 342 48
48329 966 611 15
48330 966 954 29
48331 966 405 35
48332 966 440 16
48333 966 568 48
48334 966 853 83
48335 966 989 99
48336 966 517 10
48337 966 364 39
48338 966 578 21
48339 966 159 87
48340 966 430 19
48341 966 483 68
48342 966 441 65
48343 966 174 48
48344 966 946 17
48345 966 984 98
48346 966 792 66
48347 966 607 96
48348 966 25 18
48349 966 344 45
48350 966 923 42
48351 966 347 55
48352 966 479 60
48353 966 239 63
48354 966 912 32
48355 966 321 29
48356 966 100 83
48357 966 356 68
48358 966 785 49
48359 966 693 48
48360 966 635 3
48361 966 4 85
48362 966 763 93
48363 966 741 64
48364 966 435 25
48365 966 626 37
48366 966 850 100
48367 967 496 63
48368 967 949 3
48369 967 991 27
48370 967 278 28
48371 967 503 71
48372 967 360 67
48373 967 414 40
48374 967 866 88
48375 967 460 12
48376 967 917 18
48377 967 9 80
48378 967 89 33
48379 967 534 74
48380 967 290 79
48381 967 67 44
48382 967 568 97
48383 967 372 57
48384 967 508 50
48385 967 5 19
48386 967 684 5
48387 967 760 98
48388 967 373 30
48389 967 288 91
48390 967 315 17
48391 967 293 73
48392 967 163 91
48393 967 662 92
48394 967 399 83
48395 967 204 29
48396 968 565 72
48397 968 673 31
48398 968 298 37
48399 968 218 99
48400 968 962 74
48401 968 207 1
48402 968 604 69
48403 968 975 97
48404 968 439 19
48405 968 472 34
48406 968 512 3
48407 968 0 92
48408 968 208 64
48409 968 50 25
48410 968 336 8
48411 968 391 57
48412 968 343 17
48413 968 479 53
48414 968 75 42
48415 968 999 20
48416 968 272 7
48417 968 378 15
48418 968 450 77
48419 968 70 74
48420 968 112 26
48421 968 519 29
48422 968 900 59
48423 968 918 36
48424 968 402 19
48425 968 789 82
48426 968 275 68
48427 968 758 80
48428 968 95 28
48429 968 243 93
48430 969 731 23
48431 969 404 1
48432 969 321 36
48433 969 984 17
48434 969 297 96
48435 969 866 37
48436 969 537 36
48437 969 878 89
48438 969 853 76
48439 969 306 43
48440 969 474 44
48441 969 176 22
48442 969 292 16
48443 969 453 97
48444 969 917 76
48445 969 56 75
48446 969 140 41
48447 969 944 34
48448 969 577 60
48449 969 230 35
48450 969 687 13
48451 969 992 66
48452 969 968 88
48453 969 167 33
48454 969 384 53
48455 969 420 14
48456 969 42 72
48457 969 812 34
48458 969 760 7
48459 969 12 25
48460 969 219 43
48461 969 788 21
48462 969 630 38
48463 969 289 18
48464 969 80 17
48465 969 789 48
48466 969 842 25
48467 969 519 10
48468 969 891 78
48469 969 766 88
48470 969 458 27
48471 969 43 70
48472 969 104 68
48473 969 821 66
48474 969 680 80
48475 969 513 59
48476 969 260 46
48477 969 598 92
48478 969 602 66
48479 970 272 22
48480 970 907 48
48481 970 0 29
48482 970 302 46
48483 970 491 53
48484 970 469 13
48485 970 301 50
48486 970 181 60
48487 970 553 57
48488 970 470 95
48489 970 254 33
48490 970 837 22
48491 970 997 85
48492 970 737 29
48493 970 959 19
48494 970 608 89
48495 970 502 6
48496 970 653 97
48497 970 700 71
48498 970 484 24
48499 970 516 7
48500 970 309 18
48501 970 170 30
48502 970 447 40
48503 970 702 53
48504 970 510 51
48505 970 134 68
48506 970 564 33
48507 970 577 96
48508 970 136 97
48509 970 680 51
48510 970 865 34
48511 970 476 34
48512 970 394 69
48513 970 933 100
48514 970 690 36
48515 970 558 27
48516 970 403 39
48517 970 597 4
48518 970 53 53
48519 970 791 29
48520 970 621 4
48521 970 86 39
48522 970 140 79
48523 970 882 67
48524 970 107 24
48525 970 392 6
48526 970 488 86
48527 970 106 81
48528 970 767 16
48529 970 920 9
48530 970 201 12
48531 971 825 60
48532 971 122 67
48533 971 709 47
48534 971 66 10
48535 971 74 68
48536 971 726 51
48537 971 445 69
48538 971 107 28
48539 971 170 6
48540 971 129 91
48541 971 116 55
48542 971 435 39
48543 971 507 33
48544 971 797 4
48545 971 387 8
48546 971 417 94
48547 971 861 5
48548 971 246 15
48549 971 393 91
48550 971 422 26
48551 971 954 95
48552 971 917 43
48553 971 760 63
48554 971 869 59
48555 971 437 96
48556 971 744 82
48557 971 593 47
48558 971 80 83
48559 971 299 39
48560 971 779 60
48561 971 603 2
48562 971 354 41
48563 971 439 63
48564 971 323 39
48565 971 69 75
48566 971 856 19
48567 971 925 53
48568 971 537 17
48569 971 542 20
48570 971 924 80
48571 971 532 42
48572 971 204 66
48573 971 172 26
48574 971 592 3
48575 971 800 58
48576 971 637 1
48577 971 63 6
48578 971 932 87
48579 971 630 38
48580 971 979 36
48581 972 50 37
48582 972 956 76
48583 972 179 4
48584 972 947 74
48585 972 955 6
48586 972 713 44
48587 972 11 57
48588 972 937 73
48589 972 501 73
48590 972 934 41
48591 972 622 44
48592 972 421 65
48593 972 392 21
48594 972 732 70
48595 972 733 16
48596 972 911 20
48597 972 460 18
48598 972 518 75
48599 972 520 15
48600 972 587 87
48601 972 310 45
48602 972 339 15
48603 972 279 3
48604 972 805 70
48605 972 272 100
48606 972 243 52
48607 972 825 98
48608 972 149 12
48609 972 849 17
48610 972 614 78
48611 972 642 9
48612 972 734 38
48613 972 173 92
48614 972 538 35
48615 972 322 56
48616 972 797 41
48617 972 393 3
48618 972 936 15
48619 972 366 48
48620 972 766 26
48621 972 163 15
48622 972 265 89
48623 972 313 99
48624 972 76 53
48625 972 200 51
48626 972 189 60
48627 972 749 90
48628 973 211 70
48629 973 948 96
48630 973 442 57
48631 973 589 26
48632 973 109 4
48633 973 930 92
48634 973 350 88
48635 973 289 70
48636 973 67 77
48637 973 841 55
48638 973 243 77
48639 973 957 74
48640 973 443 75
48641 973 48 91
48642 973 324 49
48643 973 159 73
48644 973 58 4
48645 973 549 42
48646 973 626 32
48647 973 401 10
48648 973 354 12
48649 973 638 12
48650 973 307 93
48651 973 238 29
48652 973 368 80
48653 973 580 71
48654 973 460 52
48655 973 496 83
48656 973 249 11
48657 973 910 9
48658 973 111 10
48659 973 787 74
48660 973 114 63
48661 973 107 44
48662 973 207 83
48663 973 878 34
48664 973 187 7
48665 973 830 69
48666 973 612 23
48667 973 493 22
48668 973 799 1
48669 973 283 11
48670 973 47 82
48671 973 440 95
48672 973 829 66
48673 973 260 84
48674 973 464 41
48675 973 640 77
48676 973 3 80
48677 974 38 89
48678 974 724 89
48679 974 736 44
48680 974 389 33
48681 974 659 50
48682 974 885 17
48683 974 639 61
48684 974 895 36
48685 974 356 52
48686 974 804 61
48687 974 470 79
48688 974 611 18
48689 974 865 2
48690 974 0 99
48691 974 835 62
48692 974 959 99
48693 974 973 29
48694 974 102 5
48695 974 933 67
48696 974 898 87
48697 974 937 58
48698 974 888 34
48699 974 666 94
48700 974 955 51
48701 974 108 80
48702 974 572 17
48703 974 162 79
48704 974 434 13
48705 974 559 21
48706 974 492 74
48707 974 526 90
48708 974 995 9
48709 974 906 96
48710 974 133 45
48711 974 594 36
48712 974 869 33
48713 974 9 50
48714 974 751 24
48715 974 58 42
48716 974 290 57
48717 974 607 55
48718 974 494 44
48719 974 672 96
48720 974 429 78
48721 974 164 45
48722 974 742 35
48723 974 169 46
48724 974 712 93
48725 974 991 97
48726 974 960 29
48727 974 443 29
48728 974 154 43
48729 974 892 4
48730 974 565 72
48731 974 711 10
48732 974 171 81
48733 974 394 33
48734 975 352 86
48735 975 970 1
48736 975 587 33
48737 975 230 43
48738 975 212 15
48739 975 764 39
48740 975 137 56
48741 975 357 3
48742 975 220 91
48743 975 480 25
48744 975 67 11
48745 975 317 60
48746 975 971 25
48747 975 861 14
48748 975 280 19
48749 975 923 77
48750 975 196 66
48751 975 398 99
48752 975 618 40
48753 975 307 42
48754 975 589 10
48755 975 913 72
48756 975 465 79
48757 975 79 9
48758 975 825 11
48759 975 231 68
48760 975 826 15
48761 975 159 20
48762 975 776 12
48763 975 974 29
48764 975 835 76
48765 975 571 87
48766 975 919 16
48767 975 911 4
48768 975 882 92
48769 975 44 42
48770 975 774 30
48771 975 955 1
48772 975 966 4
48773 975 885 86
48774 975 959 5
48775 975 103 88
48776 976 927 68
48777 976 543 29
48778 976 401 65
48779 976 618 13
48780 976 337 61
48781 976 655 58
48782 976 270 48
48783 976 595 25
48784 976 386 80
48785 976 305 46
48786 976 196 44
48787 976 709 15
48788 976 405 37
48789 976 786 22
48790 976 123 44
48791 976 223 64
48792 976 116 18
48793 976 697 65
48794 976 493 15
48795 976 892 24
48796 976 170 61
48797 976 859 30
48798 976 194 57
48799 976 905 14
48800 976 725 52
48801 976 377 95
48802 976 202 30
48803 976 460 60
48804 976 735 49
48805 976 604 29
48806 976 112 41
48807 976 958 67
48808 976 466 85
48809 976 174 76
48810 976 858 58
48811 976 240 61
48812 976 489 65
48813 976 243 1
48814 977 298 98
48815 977 23 11
48816 977 448 2
48817 977 361 74
48818 977 89 86
48819 977 773 40
48820 977 948 29
48821 977 474 66
48822 977 300 38
48823 977 850 83
48824 977 290 62
48825 977 838 44
48826 977 410 43
48827 977 956 91
48828 977 39 1
48829 977 454 55
48830 977 520 27
48831 977 242 9
48832 977 907 91
48833 977 163 76
48834 977 176 69
48835 977 265 2
48836 977 735 90
48837 977 289 85
48838 977 635 59
48839 977 91 1
48840 977 443 79
48841 977 375 22
48842 977 724 1
48843 977 831 66
48844 977 261 88
48845 977 3 16
48846 977 49 19
48847 977 138 82
48848 977 258 51
48849 977 827 2
48850 977 621 9
48851 977 990 92
48852 977 519 30
48853 977 608 8
48854 977 739 31
48855 977 577 12
48856 977 52 48
48857 977 177 94
48858 977 607 33
48859 977 863 9
48860 977 898 46
48861 977 979 7
48862 977 537 42
48863 977 991 59
48864 978 813 76
48865 978 564 9
48866 978 309 21
48867 978 107 93
48868 978 828 53
48869 978 210 90
48870 978 47 78
48871 978 465 68
48872 978 552 74
48873 978 755 29
48874 978 949 82
48875 978 355 74
48876 978 609 44
48877 978 778 12
48878 978 78 2
48879 978 691 74
48880 978 324 56
48881 978 156 73
48882 978 731 24
48883 978 556 11
48884 978 869 85
48885 978 353 38
48886 978 301 21
48887 978 650 19
48888 978 961 24
48889 978 812 19
48890 978 687 14
48891 978 27 70
48892 978 964 8
48893 978 260 68
48894 978 509 28
48895 978 220 94
48896 978 781 1
48897 978 43 72
48898 978 821 5
48899 978 639 48
48900 978 472 34
48901 978 392 39
48902 978 531 8
48903 978 7 1
48904 978 679 34
48905 978 989 66
48906 978 931 64
48907 978 955 70
48908 978 696 14
48909 978 665 90
48910 978 129 34
48911 978 915 38
48912 978 202 7
48913 978 477 25
48914 978 214 56
48915 979 129 4
48916 979 0 66
48917 979 133 10
48918 979 469 42
48919 979 977 6
48920 979 87 99
48921 979 227 24
48922 979 940 82
48923 979 142 38
48924 979 381 1
48925 979 634 100
48926 979 510 78
48927 979 926 81
48928 979 454 1
48929 979 85 24
48930 979 229 36
48931 979 1 55
48932 979 58 13
48933 979 391 17
48934 979 956 66
48935 979 910 75
48936 979 682 24
48937 979 134 45
48938 979 574 47
48939 979 576 4
48940 979 284 88
48941 979 571 62
48942 979 325 60
48943 979 196 42
48944 979 182 88
48945 979 898 31
48946 979 439 99
48947 979 761 88
48948 979 298 7
48949 979 77 3
48950 979 901 2
48951 979 943 29
48952 979 49 54
48953 979 427 22
48954 979 678 86
48955 979 677 48
48956 979 82 48
48957 979 448 81
48958 979 395 39
48959 979 602 43
48960 979 890 74
48961 979 334 48
48962 979 279 14
48963 979 764 58
48964 979 288 42
48965 979 367 83
48966 979 747 24
48967 979 857 46
48968 979 928 60
48969 980 11 45
48970 980 683 91
48971 980 543 96
48972 980 360 57
48973 980 524 2
48974 980 718 18
48975 980 831 23
48976 980 494 74
48977 980 444 84
48978 980 209 85
48979 980 151 53
48980 980 893 57
48981 980 290 87
48982 980 153 92
48983 980 239 63
48984 980 261 85
48985 980 333 42
48986 980 882 16
48987 980 943 8
48988 980 587 79
48989 980 365 81
48990 980 927 89
48991 980 10 12
48992 980 211 44
48993 980 754 58
48994 980 476 10
48995 980 860 1
48996 980 552 13
48997 980 253 55
48998 980 215 7
48999 980 715 15
49000 980 595 11
49001 980 570 90
49002 980 747 40
49003 980 677 84
49004 980 897 74
49005 980 137 78
49006 980 762 62
49007 980 184 42
49008 980 217 90
49009 980 340 48
49010 980 548 75
49011 980 257 5
49012 980 609 31
49013 980 895 95
49014 980 652 40
49015 980 375 16
49016 981 112 39
49017 981 286 9
49018 981 669 6
49019 981 873 38
49020 981 460 36
49021 981 597 7
49022 981 938 38
49023 981 210 49
49024 981 550 49
49025 981 557 45
49026 981 88 55
49027 981 87 40
49028 981 64 97
49029 981 769 34
49030 981 5 84
49031 981 825 91
49032 981 975 5
49033 981 884 13
49034 981 928 48
49035 981 548 28
49036 981 667 30
49037 981 483 13
49038 981 733 41
49039 981 138 60
49040 981 777 67
49041 981 773 65
49042 981 821 44
49043 981 479 52
49044 981 446 36
49045 981 855 74
49046 981 224 82
49047 981 937 67
49048 981 17 68
49049 981 718 63
49050 981 42 35
49051 981 266 99
49052 981 856 87
49053 981 780 92
49054 981 333 83
49055 981 519 57
49056 981 650 29
49057 981 140 32
49058 981 215 58
49059 981 173 80
49060 981 982 20
49061 981 565 74
49062 981 801 85
49063 981 659 46
49064 981 809 16
49065 981 287 83
49066 981 795 27
49067 981 817 56
49068 981 449 90
49069 982 750 45
49070 982 68 19
49071 982 305 20
49072 982 978 4
49073 982 507 9
49074 982 886 87
49075 982 489 71
49076 982 922 73
49077 982 168 55
49078 982 760 36
49079 982 380 92
49080 982 148 20
49081 982 789 10
49082 982 971 57
49083 982 811 77
49084 982 912 4
49085 982 445 55
49086 982 133 49
49087 982 216 49
49088 982 247 31
49089 982 114 68
49090 982 28 70
49091 982 312 98
49092 982 972 95
49093 982 159 92
49094 982 279 52
49095 982 947 28
49096 982 167 96
49097 982 62 58
49098 982 708 96
49099 982 525 51
49100 982 269 29
49101 982 410 78
49102 982 436 43
49103 982 556 29
49104 982 889 70
49105 982 942 13
49106 982 658 56
49107 982 126 66
49108 982 546 69
49109 982 198 91
49110 982 680 87
49111 982 951 9
49112 982 719 77
49113 982 33 12
49114 982 518 57
49115 982 671 33
49116 982 27 34
49117 983 999 49
49118 983 233 29
49119 983 328 85
49120 983 430 46
49121 983 694 56
49122 983 913 10
49123 983 366 7
49124 983 672 45
49125 983 779 96
49126 983 921 29
49127 983 530 73
49128 983 550 8
49129 983 99 38
49130 983 22 62
49131 983 501 89
49132 983 725 3
49133 983 778 4
49134 983 252 21
49135 983 601 31
49136 983 384 69
49137 983 891 15
49138 983 832 91
49139 983 857 55
49140 983 85 63
49141 983 568 13
49142 983 340 55
49143 983 625 61
49144 983 792 36
49145 983 853 43
49146 983 228 29
49147 983 492 99
49148 983 335 32
49149 983 237 85
49150 983 698 69
49151 983 339 31
49152 983 510 23
49153 983 649 74
49154 983 661 61
49155 983 573 59
49156 983 909 80
49157 983 667 23
49158 983 208 22
49159 983 869 4
49160 983 418 78
49161 983 876 46
49162 983 221 17
49163 983 87 13
49164 983 24 71
49165 983 403 74
49166 983 438 86
49167 983 783 6
49168 983 6 77
49169 983 997 98
49170 983 734 40
49171 983 574 95
49172 983 723 44
49173 983 795 36
49174 983 619 96
49175 983 240 45
49176 984 342 39
49177 984 674 74
49178 984 207 20
49179 984 108 95
49180 984 384 44
49181 984 557 12
49182 984 332 78
49183 984 370 23
49184 984 165 99
49185 984 516 3
49186 984 952 5
49187 984 856 91
49188 984 286 28
49189 984 414 51
49190 984 777 23
49191 984 249 91
49192 984 864 44
49193 984 835 25
49194 984 491 96
49195 984 602 59
49196 984 590 13
49197 984 104 45
49198 984 630 35
49199 984 558 78
49200 984 562 11
49201 984 928 24
49202 984 314 32
49203 984 909 44
49204 984 896 58
49205 984 344 96
49206 984 980 38
49207 984 427 56
49208 984 519 91
49209 984 957 10
49210 984 794 89
49211 984 234 45
49212 984 171 35
49213 984 8 87
49214 984 377 6
49215 984 596 60
49216 984 796 70
49217 984 151 63
49218 984 723 81
49219 984 646 54
49220 984 86 16
49221 985 256 19
49222 985 59 28
49223 985 11 84
49224 985 708 48
49225 985 631 60
49226 985 300 61
49227 985 304 70
49228 985 392 64
49229 985 19 1
49230 985 142 63
49231 985 25 63
49232 985 976 77
49233 985 380 54
49234 985 794 88
49235 985 355 99
49236 985 879 2
49237 985 988 57
49238 985 330 24
49239 985 938 56
49240 985 518 75
49241 985 721 9
49242 985 558 12
49243 985 590 57
49244 985 132 28
49245 985 788 64
49246 985 538 29
49247 985 426 42
49248 985 653 14
49249 985 717 60
49250 985 376 41
49251 985 926 2
49252 985 528 49
49253 985 339 79
49254 985 190 13
49255 985 29 90
49256 985 759 35
49257 985 637 33
49258 985 780 95
49259 985 843 86
49260 985 3 40
49261 985 640 48
49262 985 68 82
49263 985 22 3
49264 985 124 37
49265 985 801 5
49266 985 992 37
49267 985 185 81
49268 985 596 54
49269 985 344 49
49270 985 781 14
49271 985 971 49
49272 985 964 45
49273 985 782 71
49274 985 583 38
49275 985 150 34
49276 986 403 97
49277 986 225 54
49278 986 571 74
49279 986 832 48
49280 986 144 79
49281 986 479 42
49282 986 429 92
49283 986 171 68
49284 986 214 23
49285 986 678 43
49286 986 729 6
49287 986 280 21
49288 986 930 90
49289 986 17 28
49290 986 241 96
49291 986 788 36
49292 986 703 56
49293 986 265 56
49294 986 203 36
49295 986 661 29
49296 986 406 55
49297 986 325 85
49298 986 693 93
49299 986 464 49
49300 986 682 55
49301 986 794 96
49302 986 922 13
49303 986 700 68
49304 986 887 97
49305 986 591 27
49306 986 905 82
49307 986 247 88
49308 986 227 94
49309 986 45 28
49310 986 43 92
49311 986 843 79
49312 986 522 16
49313 986 835 81
49314 986 4 55
49315 986 750 52
49316 986 300 28
49317 986 632 81
49318 986 54 79
49319 986 478 8
49320 986 616 30
49321 986 677 79
49322 986 525 76
49323 986 740 86
49324 986 418 13
49325 986 829 15
49326 986 233 78
49327 986 93 20
49328 986 799 57
49329 987 787 48
49330 987 72 62
49331 987 148 69
49332 987 580 5
49333 987 779 25
49334 987 897 49
49335 987 798 24
49336 987 600 54
49337 987 208 71
49338 987 128 11
49339 987 638 25
49340 987 365 5
49341 987 542 96
49342 987 416 61
49343 987 395 29
49344 987 699 100
49345 987 900 19
49346 987 543 23
49347 987 947 62
49348 987 255 33
49349 987 341 62
49350 987 641 71
49351 987 610 62
49352 987 333 95
49353 987 326 66
49354 987 771 53
49355 987 283 51
49356 987 394 67
49357 987 767 17
49358 987 775 56
49359 987 594 34
49360 987 972 26
49361 987 218 71
49362 987 872 74
49363 987 115 1
49364 987 271 55
49365 987 229 62
49366 987 403 23
49367 987 903 57
49368 987 612 87
49369 987 86 80
49370 987 444 86
49371 987 818 65
49372 988 878 79
49373 988 190 70
49374 988 427 20
49375 988 691 80
49376 988 905 23
49377 988 401 73
49378 988 386 4
49379 988 807 2
49380 988 972 45
49381 988 28 31
49382 988 457 92
49383 988 185 63
49384 988 473 75
49385 988 475 83
49386 988 869 7
49387 988 549 40
49388 988 597 90
49389 988 221 64
49390 988 621 37
49391 988 574 60
49392 988 928 42
49393 988 718 18
49394 988 812 82
49395 988 352 56
49396 988 32 93
49397 988 994 87
49398 988 922 69
49399 988 347 73
49400 988 585 23
49401 988 648 27
49402 988 299 31
49403 988 426 37
49404 988 758 42
49405 988 417 95
49406 988 689 42
49407 988 877 92
49408 988 474 73
49409 988 214 63
49410 988 443 62
49411 988 508 82
49412 988 893 80
49413 988 481 82
49414 988 85 24
49415 988 863 19
49416 988 955 27
49417 988 522 95
49418 988 101 45
49419 988 429 11
49420 989 516 9
49421 989 636 89
49422 989 249 25
49423 989 66 95
49424 989 243 10
49425 989 556 71
49426 989 49 37
49427 989 217 5
49428 989 940 26
49429 989 862 8
49430 989 954 82
49431 989 336 7
49432 989 252 31
49433 989 499 55
49434 989 45 67
49435 989 123 67
49436 989 970 58
49437 989 38 11
49438 989 552 7
49439 989 91 34
49440 989 54 94
49441 989 171 8
49442 989 780 96
49443 989 439 46
49444 989 433 10
49445 989 254 27
49446 989 430 99
49447 989 845 16
49448 989 634 72
49449 989 434 58
49450 989 71 12
49451 989 29 89
49452 989 126 27
49453 989 673 66
49454 989 615 56
49455 989 215 31
49456 989 185 99
49457 989 30 34
49458 989 277 22
49459 989 938 94
49460 989 180 78
49461 989 766 2
49462 989 183 8
49463 989 198 94
49464 989 820 13
49465 989 605 90
49466 989 528 6
49467 989 881 63
49468 989 25 93
49469 989 711 100
49470 990 399 100
49471 990 940 57
49472 990 794 7
49473 990 305 61
49474 990 789 61
49475 990 565 57
49476 990 523 76
49477 990 787 8
49478 990 563 32
49479 990 210 30
49480 990 802 59
49481 990 744 83
49482 990 364 88
49483 990 468 22
49484 990 137 28
49485 990 475 80
49486 990 60 22
49487 990 961 31
49488 990 409 68
49489 990 927 58
49490 990 237 25
49491 990 4 11
49492 990 771 21
49493 990 537 62
49494 990 404 54
49495 990 174 50
49496 990 264 80
49497 990 994 34
49498 990 727 44
49499 990 451 59
49500 990 992 42
49501 990 166 54
49502 990 806 13
49503 990 952 99
49504 990 872 27
49505 990 173 69
49506 990 290 32
49507 990 448 37
49508 990 932 85
49509 990 797 15
49510 990 870 5
49511 990 534 19
49512 990 157 44
49513 990 438 58
49514 990 132 93
49515 990 639 81
49516 990 77 15
49517 990 586 11
49518 990 232 12
49519 990 920 44
49520 990 931 82
49521 990 696 54
49522 990 65 38
49523 990 158 98
49524 990 941 86
49525 990 129 41
49526 990 864 67
49527 990 538 42
49528 990 186 36
49529 990 788 61
49530 990 767 100
49531 990 761 88
49532 990 671 89
49533 991 482 54
49534 991 936 23
49535 991 501 16
49536 991 574 33
49537 991 564 51
49538 991 655 21
49539 991 586 12
49540 991 560 91
49541 991 238 97
49542 991 521 48
49543 991 652 31
49544 991 250 68
49545 991 740 30
49546 991 204 90
49547 991 715 26
49548 991 386 69
49549 991 640 3
49550 991 78 97
49551 991 878 9
49552 991 41 25
49553 991 51 16
49554 991 583 26
49555 991 709 29
49556 991 214 80
49557 991 343 24
49558 991 492 8
49559 991 522 84
49560 991 653 4
49561 991 700 25
49562 991 558 63
49563 991 859 87
49564 991 959 66
49565 991 870 49
49566 991 57 78
49567 991 798 37
49568 991 438 89
49569 991 360 26
49570 991 533 92
49571 991 473 4
49572 991 232 70
49573 991 733 71
49574 991 348 22
49575 991 488 31
49576 991 39 77
49577 991 518 63
49578 991 167 6
49579 991 979 14
49580 992 609 54
49581 992 187 41
49582 992 376 89
49583 992 634 95
49584 992 595 99
49585 992 507 46
49586 992 984 46
49587 992 759 90
49588 992 440 17
49589 992 688 75
49590 992 65 5
49591 992 10 92
49592 992 198 79
49593 992 311 3
49594 992 932 69
49595 992 604 34
49596 992 627 56
49597 992 239 94
49598 992 860 44
49599 992 874 67
49600 992 875 2
49601 992 829 35
49602 992 813 72
49603 992 968 65
49604 992 272 73
49605 992 54 10
49606 992 751 61
49607 992 559 53
49608 992 112 94
49609 992 910 66
49610 992 288 79
49611 992 286 56
49612 992 674 67
49613 992 724 98
49614 992 883 95
49615 992 449 62
49616 992 207 87
49617 992 448 27
49618 992 81 71
49619 992 679 94
49620 992 313 94
49621 992 799 97
49622 992 637 93
49623 992 255 89
49624 992 819 54
49625 992 249 84
49626 992 105 91
49627 992 999 97
49628 992 7 2
49629 992 721 57
49630 992 287 80
49631 993 784 59
49632 993 230 99
49633 993 508 58
49634 993 690 12
49635 993 982 92
49636 993 921 56
49637 993 559 28
49638 993 317 66
49639 993 581 59
49640 993 842 73
49641 993 517 50
49642 993 675 41
49643 993 984 67
49644 993 419 86
49645 993 343 66
49646 993 385 91
49647 993 34 58
49648 993 299 20
49649 993 196 36
49650 993 657 97
49651 993 7 20
49652 993 191 69
49653 993 310 93
49654 993 252 8
49655 993 893 74
49656 993 143 15
49657 993 718 54
49658 993 45 80
49659 993 502 25
49660 993 179 29
49661 993 929 76
49662 993 263 7
49663 993 423 100
49664 993 52 17
49665 993 123 7
49666 993 636 69
49667 993 603 50
49668 993 75 72
49669 993 545 24
49670 993 248 25
49671 993 329 8
49672 993 396 62
49673 993 572 48
49674 993 471 96
49675 993 115 67
49676 993 724 66
49677 993 414 94
49678 993 539 33
49679 993 578 30
49680 994 940 98
49681 994 221 86
49682 994 226 5
49683 994 352 31
49684 994 824 87
49685 994 403 52
49686 994 348 47
49687 994 678 73
49688 994 10 30
49689 994 422 32
49690 994 245 41
49691 994 305 53
49692 994 216 37
49693 994 891 66
49694 994 928 93
49695 994 93 77
49696 994 757 53
49697 994 765 11
49698 994 847 49
49699 994 883 29
49700 994 733 69
49701 994 41 21
49702 994 903 86
49703 994 527 78
49704 994 370 54
49705 994 272 73
49706 994 357 71
49707 994 196 75
49708 994 945 86
49709 994 142 96
49710 994 957 16
49711 994 4 54
49712 994 96 50
49713 994 71 63
49714 994 446 79
49715 994 315 96
49716 994 153 28
49717 994 411 20
49718 994 459 91
49719 994 258 50
49720 994 927 43
49721 994 328 6
49722 994 487 9
49723 994 592 78
49724 994 20 50
49725 994 658 73
49726 994 959 50
49727 994 792 22
49728 994 229 56
49729 994 984 60
49730 994 936 16
49731 994 127 23
49732 995 355 46
49733 995 87 34
49734 995 956 4
49735 995 274 63
49736 995 856 56
49737 995 620 88
49738 995 238 57
49739 995 307 60
49740 995 579 77
49741 995 51 38
49742 995 417 97
49743 995 795 84
49744 995 115 12
49745 995 721 2
49746 995 724 36
49747 995 692 85
49748 995 864 83
49749 995 613 27
49750 995 197 57
49751 995 986 69
49752 995 901 4
49753 995 380 64
49754 995 791 26
49755 995 30 77
49756 995 845 38
49757 995 519 20
49758 995 503 96
49759 995 527 38
49760 995 623 70
49761 995 715 34
49762 995 650 99
49763 995 746 88
49764 995 542 88
49765 995 288 35
49766 995 700 4
49767 995 357 8
49768 995 239 30
49769 995 785 62
49770 995 580 32
49771 995 293 1
49772 995 121 57
49773 995 117 19
49774 995 735 58
49775 995 204 93
49776 995 926 48
49777 995 397 75
49778 995 669 38
49779 995 728 11
49780 995 533 40
49781 995 859 90
49782 995 707 66
49783 995 63 66
49784 995 343 1
49785 995 609 53
49786 996 934 28
49787 996 799 1
49788 996 374 60
49789 996 861 89
49790 996 323 85
49791 996 180 70
49792 996 646 6
49793 996 9 93
49794 996 903 23
49795 996 47 3
49796 996 172 90
49797 996 821 60
49798 996 904 93
49799 996 212 82
49800 996 516 9
49801 996 285 78
49802 996 771 12
49803 996 705 89
49804 996 928 22
49805 996 633 79
49806 996 967 71
49807 996 414 45
49808 996 981 21
49809 996 593 10
49810 996 921 46
49811 996 715 13
49812 996 214 76
49813 996 313 82
49814 996 128 86
49815 996 146 86
49816 996 741 89
49817 996 882 90
49818 996 354 37
49819 996 855 16
49820 996 169 87
49821 996 569 1
49822 996 141 77
49823 996 511 40
49824 996 379 86
49825 996 365 82
49826 996 187 11
49827 996 27 30
49828 996 344 80
49829 996 997 64
49830 997 71 24
49831 997 578 14
49832 997 416 67
49833 997 341 65
49834 997 584 3
49835 997 247 35
49836 997 933 66
49837 997 699 90
49838 997 565 46
49839 997 610 29
49840 997 191 67
49841 997 863 56
49842 997 31 84
49843 997 789 66
49844 997 277 4
49845 997 185 98
49846 997 951 84
49847 997 495 9
49848 997 962 96
49849 997 106 55
49850 997 638 36
49851 997 852 46
49852 997 342 28
49853 997 956 35
49854 997 484 1
49855 997 899 93
49856 997 969 97
49857 997 390 72
49858 997 423 87
49859 997 298 75
49860 997 658 98
49861 997 387 69
49862 997 581 4
49863 997 84 67
49864 997 126 24
49865 997 947 79
49866 997 576 15
49867 997 77 12
49868 997 745 38
49869 997 245 67
49870 997 383 68
49871 997 823 97
49872 997 900 27
49873 997 821 77
49874 997 813 13
49875 997 377 95
49876 997 345 77
49877 997 125 67
49878 997 960 30
49879 997 545 93
49880 997 843 96
49881 997 511 59
49882 997 208 43
49883 997 973 25
49884 997 834 27
49885 997 59 13
49886 997 405 46
49887 998 446 43
49888 998 413 12
49889 998 746 6
49890 998 458 96
49891 998 860 53
49892 998 297 79
49893 998 508 14
49894 998 668 59
49895 998 62 9
49896 998 800 15
49897 998 912 79
49898 998 502 10
49899 998 440 52
49900 998 661 46
49901 998 513 41
49902 998 970 59
49903 998 627 53
49904 998 615 2
49905 998 97 57
49906 998 599 37
49907 998 922 71
49908 998 161 80
49909 998 174 45
49910 998 345 82
49911 998 317 6
49912 998 522 56
49913 998 964 27
49914 998 755 89
49915 998 218 97
49916 998 595 47
49917 998 15 80
49918 998 978 55
49919 998 239 60
49920 998 843 5
49921 998 240 55
49922 998 72 4
49923 998 483 100
49924 998 540 26
49925 998 81 19
49926 998 904 17
49927 998 871 36
49928 998 186 95
49929 998 898 4
49930 998 124 95
49931 998 266 33
49932 998 566 31
49933 998 406 84
49934 998 356 4
49935 998 232 54
49936 998 771 9
49937 998 422 18
49938 998 609 56
49939 998 701 56
49940 998 298 16
49941 998 672 45
49942 999 311 13
49943 999 250 7
49944 999 444 20
49945 999 864 72
49946 999 826 93
49947 999 788 4
49948 999 556 6
49949 999 281 55
49950 999 837 72
49951 999 587 80
49952 999 317 71
49953 999 478 98
49954 999 111 61
49955 999 964 29
49956 999 86 3
49957 999 490 39
49958 999 485 25
49959 999 261 13
49960 999 661 18
49961 999 113 21
49962 999 706 69
49963 999 237 33
49964 999 784 87
49965 999 381 78
49966 999 886 13
49967 999 139 11
49968 999 323 12
49969 999 822 59
49970 999 533 3
49971 999 751 53
49972 999 503 30
49973 999 447 50
49974 999 226 8
49975 999 663 44
49976 999 274 64
49977 999 350 68
49978 999 932 51
49979 999 593 71
49980 999 303 45
49981 999 273 82
49982 999 343 69
49983 999 387 47
49984 999 185 2
49985 999 425 92
49986 999 68 97
49987 999 229 53
49988 999 78 95
49989 999 221 34
49990 999 961 68
49991 999 51 41
49992 999 543 47
49993 999 278 74
49994 999 560 87
49995 999 206 12
49996 999 738 44
49997 999 975 36
49998 999 828 28
49999 999 454 97
