0 0 50 4
1 0 156 67
2 0 21 78
3 0 113 92
4 0 15 33
5 0 82 93
6 0 90 39
7 0 19 6
8 0 141 50
9 0 142 45
10 0 54 91
11 0 34 92
12 0 38 81
13 0 129 38
14 0 67 46
15 0 152 20
16 0 94 95
17 0 108 43
18 0 88 74
19 0 16 26
20 0 183 48
21 0 53 60
22 0 35 3
23 0 76 85
24 0 36 64
25 0 69 49
26 0 14 48
27 0 73 1
28 0 199 74
29 0 118 34
30 0 25 51
31 0 71 24
32 0 186 2
33 0 48 61
34 0 2 69
35 0 194 83
36 0 114 42
37 0 130 55
38 0 102 19
39 0 68 84
40 0 185 93
41 0 193 24
42 0 12 58
43 0 120 15
44 0 180 75
45 0 65 85
46 0 150 21
47 0 140 53
48 0 87 4
49 0 59 98
50 0 133 17
51 0 162 81
52 0 184 85
53 0 62 50
54 0 13 95
55 0 81 9
56 1 194 16
57 1 14 72
58 1 123 56
59 1 72 66
60 1 46 3
61 1 175 95
62 1 124 16
63 1 182 4
64 1 89 78
65 1 116 29
66 1 0 56
67 1 93 1
68 1 122 76
69 1 138 84
70 1 42 9
71 1 146 76
72 1 77 36
73 1 21 74
74 1 79 1
75 1 177 72
76 1 121 9
77 1 55 84
78 1 95 60
79 1 179 7
80 1 25 7
81 1 36 26
82 1 102 18
83 1 44 64
84 1 120 89
85 1 101 52
86 1 47 86
87 1 105 22
88 1 38 68
89 1 33 4
90 1 18 45
91 1 84 86
92 1 82 86
93 1 4 89
94 1 59 68
95 1 12 60
96 1 7 60
97 1 65 63
98 1 29 64
99 1 147 7
100 1 131 11
101 1 24 36
102 1 133 86
103 1 67 76
104 1 117 60
105 1 30 18
106 1 5 90
107 1 91 50
108 2 40 65
109 2 55 17
110 2 177 13
111 2 172 14
112 2 77 73
113 2 146 43
114 2 194 55
115 2 112 83
116 2 95 84
117 2 26 99
118 2 154 95
119 2 73 77
120 2 67 52
121 2 86 40
122 2 138 56
123 2 75 4
124 2 127 63
125 2 114 58
126 2 53 26
127 2 8 82
128 2 170 41
129 2 81 77
130 2 3 47
131 2 188 50
132 2 46 90
133 2 98 73
134 2 84 88
135 2 150 15
136 2 74 76
137 2 72 22
138 2 121 20
139 2 136 5
140 2 113 46
141 2 145 16
142 2 13 27
143 2 45 48
144 2 110 52
145 2 197 31
146 2 156 94
147 2 50 73
148 2 118 95
149 2 36 85
150 2 99 59
151 2 65 37
152 2 60 94
153 2 109 68
154 2 153 86
155 2 10 79
156 2 87 23
157 2 115 46
158 2 165 6
159 2 51 7
160 2 85 64
161 2 76 46
162 2 168 14
163 2 68 55
164 2 101 60
165 2 27 96
166 2 196 35
167 2 160 93
168 2 39 68
169 2 142 54
170 2 152 82
171 2 191 61
172 3 165 25
173 3 94 47
174 3 135 70
175 3 77 16
176 3 52 71
177 3 164 17
178 3 188 94
179 3 38 15
180 3 32 63
181 3 125 94
182 3 12 64
183 3 196 34
184 3 64 66
185 3 67 58
186 3 6 37
187 3 91 64
188 3 17 58
189 3 53 78
190 3 172 31
191 3 43 48
192 3 23 79
193 3 146 80
194 3 121 86
195 3 142 87
196 3 13 43
197 3 35 84
198 3 10 71
199 3 72 40
200 3 76 28
201 3 149 69
202 3 137 31
203 3 96 48
204 3 101 50
205 3 26 78
206 3 16 75
207 3 150 76
208 3 119 61
209 3 127 97
210 3 24 16
211 3 107 23
212 3 2 45
213 3 122 19
214 3 37 99
215 3 166 5
216 3 62 11
217 3 55 79
218 3 139 26
219 3 95 8
220 3 88 90
221 3 176 49
222 3 28 33
223 3 48 55
224 3 74 82
225 3 0 74
226 3 173 16
227 3 181 20
228 4 117 49
229 4 187 63
230 4 36 15
231 4 101 74
232 4 7 12
233 4 162 73
234 4 78 54
235 4 183 75
236 4 149 74
237 4 140 25
238 4 73 27
239 4 39 48
240 4 198 31
241 4 55 87
242 4 197 5
243 4 62 28
244 4 80 81
245 4 33 10
246 4 172 32
247 4 131 98
248 4 175 72
249 4 24 62
250 4 142 72
251 4 34 28
252 4 18 6
253 4 157 42
254 4 104 83
255 4 71 51
256 4 165 68
257 4 134 17
258 4 15 66
259 4 53 95
260 4 156 93
261 4 19 62
262 4 110 48
263 4 99 30
264 4 60 31
265 4 181 43
266 4 21 43
267 4 29 23
268 4 169 55
269 4 125 89
270 4 74 22
271 4 84 7
272 4 56 18
273 4 79 77
274 4 126 87
275 5 22 36
276 5 0 100
277 5 166 71
278 5 104 63
279 5 42 33
280 5 14 62
281 5 188 65
282 5 103 16
283 5 143 15
284 5 191 24
285 5 147 72
286 5 53 21
287 5 148 52
288 5 120 76
289 5 43 86
290 5 74 76
291 5 168 26
292 5 62 38
293 5 107 96
294 5 39 48
295 5 16 16
296 5 169 58
297 5 139 30
298 5 35 74
299 5 10 22
300 5 78 17
301 5 157 18
302 5 130 75
303 5 102 29
304 5 90 11
305 5 55 57
306 5 115 83
307 5 197 59
308 5 122 66
309 5 65 56
310 5 50 43
311 5 99 2
312 5 87 32
313 5 37 73
314 5 123 84
315 5 15 36
316 5 105 88
317 5 133 93
318 5 195 57
319 5 85 48
320 5 149 98
321 5 153 83
322 5 109 83
323 6 103 8
324 6 177 41
325 6 198 42
326 6 64 62
327 6 130 89
328 6 27 85
329 6 117 64
330 6 158 93
331 6 101 62
332 6 189 100
333 6 97 73
334 6 113 11
335 6 18 59
336 6 192 39
337 6 38 27
338 6 194 10
339 6 119 17
340 6 105 86
341 6 12 39
342 6 76 28
343 6 172 39
344 6 147 83
345 6 131 41
346 6 140 27
347 6 178 45
348 6 41 32
349 6 129 65
350 6 168 90
351 6 67 10
352 6 136 9
353 6 43 89
354 6 54 43
355 6 100 64
356 6 164 46
357 6 184 5
358 6 122 76
359 6 20 19
360 6 28 59
361 6 87 21
362 6 72 7
363 6 50 80
364 6 148 35
365 6 15 66
366 6 60 5
367 6 51 94
368 6 30 25
369 6 22 49
370 6 36 76
371 7 94 90
372 7 36 48
373 7 8 58
374 7 67 83
375 7 28 46
376 7 66 54
377 7 40 24
378 7 150 79
379 7 15 33
380 7 114 26
381 7 167 26
382 7 141 74
383 7 61 13
384 7 52 53
385 7 131 69
386 7 1 49
387 7 145 59
388 7 113 1
389 7 161 67
390 7 24 69
391 7 29 41
392 7 191 42
393 7 129 3
394 7 193 52
395 7 169 74
396 7 16 98
397 7 71 35
398 7 135 30
399 7 44 100
400 7 168 75
401 7 122 83
402 7 173 35
403 7 158 35
404 7 124 14
405 7 148 8
406 7 39 92
407 7 155 9
408 7 42 3
409 7 177 39
410 7 126 19
411 7 2 63
412 7 199 100
413 7 17 96
414 7 23 76
415 7 185 61
416 7 112 34
417 7 43 80
418 7 128 25
419 7 195 45
420 8 118 36
421 8 15 75
422 8 146 20
423 8 176 15
424 8 50 1
425 8 65 14
426 8 26 68
427 8 51 10
428 8 185 65
429 8 167 70
430 8 135 82
431 8 95 79
432 8 189 54
433 8 149 79
434 8 108 80
435 8 148 83
436 8 132 15
437 8 151 28
438 8 166 20
439 8 101 98
440 8 150 81
441 8 91 76
442 8 34 32
443 8 191 48
444 8 55 58
445 8 54 42
446 8 197 27
447 8 143 68
448 8 164 40
449 8 161 65
450 8 78 82
451 8 125 10
452 8 144 13
453 8 104 12
454 8 97 42
455 8 56 92
456 8 129 64
457 8 178 5
458 8 110 25
459 8 190 39
460 8 131 59
461 8 85 48
462 8 20 51
463 8 33 7
464 8 124 83
465 8 41 12
466 8 66 53
467 8 52 37
468 8 154 88
469 8 123 21
470 8 47 50
471 8 94 24
472 8 156 39
473 8 199 43
474 8 163 42
475 9 162 37
476 9 6 54
477 9 25 21
478 9 144 1
479 9 77 23
480 9 96 16
481 9 131 30
482 9 105 44
483 9 98 91
484 9 97 33
485 9 154 50
486 9 163 80
487 9 181 91
488 9 30 90
489 9 8 22
490 9 44 19
491 9 73 85
492 9 39 32
493 9 150 73
494 9 89 37
495 9 126 1
496 9 81 63
497 9 129 11
498 9 195 97
499 9 66 57
500 9 48 32
501 9 24 86
502 9 31 38
503 9 82 30
504 9 27 36
505 9 71 50
506 9 169 50
507 9 111 8
508 9 170 80
509 9 33 44
510 9 95 34
511 9 20 61
512 9 113 88
513 9 10 7
514 9 7 93
515 9 110 85
516 9 14 7
517 9 102 54
518 9 172 7
519 9 91 32
520 9 149 74
521 9 116 68
522 9 194 10
523 9 93 7
524 10 164 57
525 10 198 74
526 10 40 100
527 10 98 46
528 10 136 14
529 10 77 51
530 10 149 25
531 10 60 44
532 10 38 18
533 10 110 10
534 10 99 34
535 10 101 81
536 10 146 98
537 10 95 95
538 10 67 11
539 10 34 95
540 10 71 23
541 10 178 1
542 10 114 22
543 10 90 22
544 10 61 38
545 10 173 82
546 10 186 14
547 10 58 63
548 10 115 44
549 10 174 52
550 10 21 9
551 10 179 50
552 10 184 66
553 10 8 6
554 10 3 78
555 10 154 44
556 10 130 56
557 10 111 33
558 10 43 86
559 10 132 11
560 10 194 68
561 10 72 94
562 10 74 43
563 10 190 35
564 10 92 16
565 10 14 25
566 10 122 28
567 10 39 87
568 10 80 26
569 10 195 56
570 10 23 51
571 10 69 47
572 10 49 94
573 10 144 2
574 10 170 18
575 10 138 67
576 10 124 44
577 10 112 77
578 10 126 9
579 10 62 43
580 10 15 56
581 11 190 90
582 11 39 98
583 11 126 41
584 11 129 71
585 11 92 15
586 11 91 57
587 11 59 83
588 11 195 79
589 11 130 13
590 11 40 86
591 11 32 48
592 11 69 94
593 11 72 61
594 11 173 71
595 11 100 22
596 11 107 73
597 11 12 8
598 11 99 91
599 11 199 43
600 11 166 23
601 11 37 95
602 11 114 39
603 11 139 76
604 11 81 23
605 11 34 22
606 11 159 11
607 11 6 75
608 11 157 15
609 11 19 83
610 11 144 88
611 11 21 14
612 11 71 84
613 11 44 37
614 11 1 21
615 11 10 74
616 11 42 75
617 11 66 78
618 11 165 35
619 11 84 65
620 11 125 15
621 11 187 38
622 11 150 15
623 11 184 37
624 11 82 1
625 11 20 97
626 11 89 11
627 11 56 28
628 11 109 66
629 11 83 47
630 11 115 89
631 11 186 91
632 11 172 51
633 11 62 74
634 11 13 75
635 11 193 25
636 11 31 75
637 11 191 16
638 11 53 37
639 11 188 22
640 11 123 53
641 11 160 42
642 12 16 20
643 12 84 1
644 12 100 16
645 12 2 21
646 12 104 91
647 12 28 4
648 12 0 14
649 12 98 58
650 12 94 39
651 12 5 6
652 12 41 20
653 12 78 7
654 12 52 80
655 12 65 65
656 12 72 83
657 12 159 39
658 12 197 90
659 12 139 40
660 12 116 56
661 12 50 80
662 12 99 65
663 12 27 66
664 12 167 67
665 12 55 51
666 12 67 52
667 12 160 47
668 12 192 80
669 12 114 39
670 12 180 70
671 12 144 10
672 12 145 89
673 12 22 70
674 12 32 19
675 12 187 60
676 12 196 24
677 12 3 77
678 12 83 16
679 12 38 32
680 12 69 85
681 12 101 50
682 12 143 59
683 12 164 86
684 12 73 42
685 12 14 78
686 12 199 14
687 12 155 54
688 13 181 40
689 13 175 35
690 13 45 89
691 13 170 82
692 13 95 74
693 13 128 16
694 13 135 41
695 13 156 25
696 13 9 20
697 13 37 93
698 13 21 15
699 13 78 72
700 13 184 84
701 13 104 4
702 13 153 13
703 13 195 13
704 13 80 25
705 13 88 8
706 13 81 67
707 13 60 41
708 13 33 18
709 13 98 28
710 13 15 14
711 13 47 46
712 13 29 52
713 13 134 69
714 13 187 99
715 13 122 22
716 13 100 31
717 13 49 38
718 13 150 24
719 13 16 70
720 13 106 33
721 13 124 92
722 13 169 2
723 13 31 94
724 13 58 17
725 13 182 19
726 13 69 93
727 13 116 95
728 13 43 33
729 13 118 51
730 13 32 23
731 13 74 51
732 13 111 62
733 13 173 11
734 13 168 81
735 13 82 32
736 13 76 100
737 13 1 21
738 13 38 2
739 13 54 18
740 13 131 41
741 13 143 32
742 13 172 97
743 13 0 33
744 14 93 21
745 14 69 31
746 14 130 69
747 14 39 55
748 14 112 57
749 14 99 6
750 14 0 58
751 14 86 61
752 14 51 50
753 14 183 4
754 14 188 40
755 14 121 99
756 14 162 18
757 14 132 80
758 14 181 94
759 14 113 26
760 14 35 84
761 14 88 82
762 14 104 85
763 14 145 85
764 14 165 76
765 14 184 97
766 14 166 69
767 14 37 64
768 14 43 82
769 14 98 91
770 14 80 55
771 14 174 91
772 14 90 51
773 14 116 61
774 14 52 39
775 14 146 7
776 14 68 70
777 14 123 90
778 14 110 64
779 14 61 63
780 14 87 18
781 14 79 10
782 14 21 6
783 14 179 58
784 14 53 84
785 14 120 44
786 14 54 23
787 14 148 38
788 14 190 89
789 14 38 7
790 14 70 3
791 14 77 31
792 14 175 28
793 15 103 90
794 15 160 5
795 15 77 48
796 15 165 10
797 15 115 3
798 15 4 89
799 15 176 87
800 15 34 97
801 15 159 77
802 15 2 92
803 15 5 64
804 15 118 19
805 15 55 37
806 15 108 60
807 15 40 18
808 15 32 45
809 15 195 36
810 15 63 24
811 15 146 56
812 15 53 45
813 15 178 38
814 15 20 9
815 15 39 56
816 15 138 96
817 15 92 86
818 15 79 69
819 15 25 76
820 15 105 86
821 15 188 27
822 15 78 76
823 15 7 23
824 15 1 63
825 15 67 56
826 15 144 97
827 15 119 93
828 15 116 97
829 15 181 91
830 15 194 92
831 15 157 30
832 15 135 75
833 15 47 71
834 15 46 41
835 15 129 90
836 15 28 24
837 16 15 29
838 16 18 72
839 16 107 85
840 16 6 14
841 16 79 71
842 16 80 22
843 16 119 66
844 16 135 74
845 16 129 25
846 16 3 49
847 16 90 83
848 16 157 25
849 16 74 86
850 16 93 81
851 16 115 22
852 16 155 100
853 16 78 59
854 16 117 71
855 16 186 84
856 16 64 55
857 16 131 67
858 16 36 3
859 16 183 62
860 16 89 95
861 16 121 6
862 16 85 36
863 16 71 24
864 16 11 84
865 16 17 30
866 16 86 46
867 16 160 59
868 16 66 99
869 16 116 84
870 16 177 30
871 16 163 11
872 16 122 67
873 16 194 79
874 16 26 78
875 16 104 48
876 16 109 75
877 16 138 31
878 16 8 10
879 16 143 11
880 16 31 93
881 16 82 55
882 17 90 88
883 17 140 75
884 17 165 76
885 17 94 24
886 17 66 87
887 17 187 11
888 17 87 84
889 17 167 25
890 17 146 41
891 17 121 32
892 17 127 40
893 17 89 91
894 17 180 60
895 17 10 93
896 17 102 8
897 17 74 45
898 17 112 1
899 17 51 61
900 17 99 84
901 17 54 1
902 17 186 64
903 17 76 62
904 17 32 48
905 17 172 1
906 17 15 93
907 17 174 72
908 17 163 71
909 17 101 100
910 17 77 39
911 17 161 73
912 17 70 37
913 17 64 85
914 17 55 74
915 17 36 79
916 17 171 79
917 17 45 52
918 17 157 26
919 17 132 45
920 17 119 59
921 17 155 49
922 17 182 65
923 17 92 54
924 17 137 91
925 17 123 54
926 17 18 17
927 17 48 99
928 17 13 10
929 17 188 31
930 18 93 70
931 18 110 2
932 18 9 42
933 18 139 75
934 18 126 46
935 18 175 10
936 18 44 79
937 18 19 100
938 18 159 33
939 18 78 71
940 18 57 36
941 18 35 95
942 18 96 46
943 18 115 36
944 18 116 96
945 18 127 22
946 18 142 21
947 18 158 48
948 18 189 75
949 18 154 43
950 18 72 44
951 18 46 13
952 18 53 26
953 18 95 25
954 18 111 91
955 18 64 5
956 18 87 96
957 18 33 42
958 18 12 79
959 18 22 9
960 18 181 45
961 18 6 38
962 18 161 13
963 18 52 75
964 18 150 53
965 18 146 27
966 18 102 85
967 18 80 89
968 18 1 46
969 18 106 15
970 18 149 96
971 18 15 91
972 18 197 13
973 18 49 4
974 18 136 77
975 18 120 53
976 18 124 64
977 19 24 40
978 19 115 44
979 19 65 14
980 19 95 87
981 19 159 30
982 19 52 55
983 19 3 30
984 19 123 52
985 19 179 97
986 19 12 46
987 19 67 94
988 19 187 78
989 19 79 2
990 19 131 43
991 19 140 94
992 19 108 4
993 19 181 33
994 19 175 9
995 19 82 63
996 19 62 31
997 19 126 64
998 19 109 19
999 19 120 19
1000 19 138 31
1001 19 69 34
1002 19 66 18
1003 19 64 54
1004 19 171 90
1005 19 76 63
1006 19 165 65
1007 19 176 60
1008 19 53 6
1009 19 9 91
1010 19 100 26
1011 19 22 87
1012 19 188 23
1013 19 195 28
1014 20 141 82
1015 20 191 70
1016 20 81 15
1017 20 51 18
1018 20 180 67
1019 20 45 11
1020 20 28 57
1021 20 80 9
1022 20 146 68
1023 20 44 80
1024 20 2 84
1025 20 126 93
1026 20 166 73
1027 20 135 97
1028 20 22 30
1029 20 102 46
1030 20 149 40
1031 20 157 87
1032 20 179 57
1033 20 68 95
1034 20 23 88
1035 20 38 96
1036 20 40 41
1037 20 49 18
1038 20 9 16
1039 20 122 10
1040 20 95 21
1041 20 195 57
1042 20 159 96
1043 20 139 41
1044 20 6 75
1045 20 17 55
1046 20 153 32
1047 20 89 97
1048 20 124 64
1049 20 151 28
1050 20 66 10
1051 20 74 12
1052 20 35 40
1053 20 134 78
1054 20 117 27
1055 20 133 31
1056 20 171 14
1057 20 94 3
1058 20 177 69
1059 20 128 65
1060 20 31 52
1061 20 78 21
1062 20 57 31
1063 20 86 7
1064 20 121 56
1065 21 146 94
1066 21 129 99
1067 21 17 43
1068 21 138 75
1069 21 46 34
1070 21 156 87
1071 21 140 4
1072 21 81 4
1073 21 125 31
1074 21 83 69
1075 21 147 13
1076 21 186 66
1077 21 98 3
1078 21 95 32
1079 21 79 91
1080 21 25 54
1081 21 197 39
1082 21 164 71
1083 21 82 48
1084 21 73 92
1085 21 145 12
1086 21 37 87
1087 21 35 5
1088 21 101 6
1089 21 9 17
1090 21 190 9
1091 21 137 65
1092 21 85 20
1093 21 162 39
1094 21 194 10
1095 21 91 91
1096 21 170 33
1097 21 54 4
1098 21 102 70
1099 21 1 12
1100 21 14 58
1101 21 183 6
1102 21 90 18
1103 21 178 67
1104 21 18 34
1105 21 43 55
1106 21 40 9
1107 21 157 55
1108 21 32 82
1109 21 113 71
1110 21 57 61
1111 21 2 69
1112 21 87 58
1113 21 39 83
1114 21 65 81
1115 21 161 25
1116 21 198 24
1117 22 124 98
1118 22 80 9
1119 22 159 37
1120 22 43 73
1121 22 106 78
1122 22 75 74
1123 22 87 62
1124 22 129 2
1125 22 126 27
1126 22 109 86
1127 22 38 17
1128 22 165 3
1129 22 12 36
1130 22 48 25
1131 22 40 83
1132 22 7 40
1133 22 185 86
1134 22 32 64
1135 22 196 33
1136 22 82 28
1137 22 73 93
1138 22 19 27
1139 22 193 40
1140 22 95 40
1141 22 140 17
1142 22 84 14
1143 22 74 6
1144 22 116 53
1145 22 179 47
1146 22 77 9
1147 22 14 6
1148 22 62 3
1149 22 186 38
1150 22 170 51
1151 22 166 1
1152 22 146 9
1153 22 122 2
1154 22 136 81
1155 22 190 38
1156 22 33 15
1157 22 128 26
1158 22 175 16
1159 22 91 31
1160 22 59 44
1161 22 29 47
1162 22 27 43
1163 22 99 96
1164 22 195 59
1165 22 36 74
1166 22 141 39
1167 22 23 18
1168 22 110 7
1169 22 187 93
1170 22 16 61
1171 22 183 98
1172 22 121 19
1173 22 0 88
1174 22 90 88
1175 22 5 17
1176 22 67 87
1177 22 94 30
1178 22 78 77
1179 22 160 46
1180 22 45 55
1181 22 105 97
1182 23 18 89
1183 23 155 60
1184 23 34 17
1185 23 29 85
1186 23 142 11
1187 23 12 63
1188 23 147 49
1189 23 161 100
1190 23 116 10
1191 23 120 91
1192 23 17 67
1193 23 93 98
1194 23 165 77
1195 23 31 98
1196 23 98 72
1197 23 169 75
1198 23 176 71
1199 23 0 64
1200 23 41 92
1201 23 144 71
1202 23 22 59
1203 23 100 63
1204 23 117 55
1205 23 39 61
1206 23 108 95
1207 23 135 57
1208 23 134 48
1209 23 16 9
1210 23 85 28
1211 23 30 65
1212 23 9 62
1213 23 74 60
1214 23 64 85
1215 23 107 10
1216 23 145 17
1217 23 52 28
1218 23 159 78
1219 23 68 69
1220 23 66 11
1221 23 8 69
1222 23 48 74
1223 23 76 29
1224 23 45 79
1225 23 166 59
1226 23 113 83
1227 23 123 82
1228 23 95 21
1229 23 43 6
1230 23 55 36
1231 23 121 65
1232 23 27 61
1233 23 174 29
1234 23 114 5
1235 24 56 36
1236 24 17 47
1237 24 111 15
1238 24 156 76
1239 24 34 33
1240 24 49 41
1241 24 44 44
1242 24 59 95
1243 24 180 65
1244 24 126 53
1245 24 133 66
1246 24 14 11
1247 24 68 83
1248 24 69 95
1249 24 91 59
1250 24 83 93
1251 24 82 29
1252 24 85 36
1253 24 174 15
1254 24 144 69
1255 24 131 72
1256 24 74 88
1257 24 102 4
1258 24 70 64
1259 24 25 75
1260 24 119 85
1261 24 193 52
1262 24 11 100
1263 24 142 40
1264 24 79 94
1265 24 35 87
1266 24 141 6
1267 24 43 32
1268 24 80 81
1269 24 176 82
1270 24 120 14
1271 24 52 45
1272 24 150 63
1273 24 78 41
1274 24 65 66
1275 24 197 43
1276 24 28 80
1277 24 93 25
1278 24 100 73
1279 24 42 14
1280 24 125 99
1281 24 30 70
1282 24 175 82
1283 24 94 42
1284 24 152 31
1285 24 106 85
1286 24 138 51
1287 24 29 93
1288 24 46 18
1289 24 21 5
1290 24 19 47
1291 24 118 36
1292 25 8 40
1293 25 21 77
1294 25 118 25
1295 25 195 99
1296 25 165 31
1297 25 63 75
1298 25 172 24
1299 25 131 58
1300 25 97 11
1301 25 162 87
1302 25 27 73
1303 25 191 41
1304 25 11 33
1305 25 148 4
1306 25 94 53
1307 25 87 30
1308 25 124 67
1309 25 150 41
1310 25 130 54
1311 25 134 59
1312 25 44 2
1313 25 196 18
1314 25 58 7
1315 25 185 95
1316 25 100 60
1317 25 72 82
1318 25 52 10
1319 25 179 99
1320 25 149 46
1321 25 96 26
1322 25 28 59
1323 25 151 72
1324 25 53 85
1325 25 12 36
1326 25 186 24
1327 25 109 8
1328 25 176 88
1329 25 137 45
1330 25 48 46
1331 25 45 88
1332 25 133 84
1333 25 75 45
1334 25 111 93
1335 25 84 44
1336 25 39 97
1337 25 192 29
1338 25 60 87
1339 26 141 41
1340 26 59 35
1341 26 174 37
1342 26 60 98
1343 26 121 5
1344 26 151 58
1345 26 42 98
1346 26 113 67
1347 26 152 91
1348 26 27 76
1349 26 97 87
1350 26 159 53
1351 26 107 59
1352 26 192 60
1353 26 3 90
1354 26 80 65
1355 26 68 68
1356 26 102 69
1357 26 20 76
1358 26 125 22
1359 26 70 83
1360 26 103 92
1361 26 79 94
1362 26 188 18
1363 26 86 14
1364 26 4 98
1365 26 5 5
1366 26 57 95
1367 26 112 5
1368 26 22 59
1369 26 128 100
1370 26 87 18
1371 26 164 87
1372 26 36 86
1373 26 47 2
1374 26 148 36
1375 26 28 3
1376 26 67 99
1377 26 116 97
1378 26 75 80
1379 26 44 40
1380 26 41 64
1381 26 162 98
1382 26 117 9
1383 26 185 16
1384 26 183 23
1385 26 96 38
1386 26 106 52
1387 26 78 14
1388 26 149 89
1389 26 9 57
1390 26 53 47
1391 26 170 86
1392 26 95 63
1393 27 168 69
1394 27 10 89
1395 27 117 2
1396 27 197 36
1397 27 193 13
1398 27 34 3
1399 27 4 89
1400 27 55 40
1401 27 57 71
1402 27 97 55
1403 27 52 53
1404 27 147 62
1405 27 140 11
1406 27 130 67
1407 27 192 54
1408 27 109 33
1409 27 189 35
1410 27 108 20
1411 27 178 56
1412 27 46 17
1413 27 151 99
1414 27 84 38
1415 27 93 39
1416 27 72 64
1417 27 199 8
1418 27 106 90
1419 27 82 34
1420 27 125 73
1421 27 112 71
1422 27 153 54
1423 27 149 61
1424 27 13 11
1425 27 144 15
1426 27 95 3
1427 27 181 16
1428 27 6 65
1429 27 122 60
1430 27 176 60
1431 27 127 100
1432 27 24 2
1433 27 173 30
1434 27 190 32
1435 27 196 21
1436 27 3 42
1437 27 17 60
1438 27 92 100
1439 27 167 7
1440 27 111 89
1441 27 65 37
1442 28 86 85
1443 28 128 38
1444 28 71 29
1445 28 96 97
1446 28 182 4
1447 28 135 60
1448 28 156 32
1449 28 12 18
1450 28 151 40
1451 28 126 49
1452 28 145 85
1453 28 106 55
1454 28 199 99
1455 28 175 68
1456 28 52 73
1457 28 2 79
1458 28 72 62
1459 28 184 85
1460 28 43 33
1461 28 147 77
1462 28 140 87
1463 28 168 8
1464 28 36 97
1465 28 17 28
1466 28 121 82
1467 28 124 100
1468 28 183 8
1469 28 18 34
1470 28 101 30
1471 28 88 66
1472 28 133 13
1473 28 85 60
1474 28 172 57
1475 28 136 80
1476 28 170 77
1477 28 29 95
1478 28 10 65
1479 28 196 76
1480 28 0 74
1481 28 89 19
1482 28 54 34
1483 28 30 52
1484 28 32 74
1485 28 177 21
1486 28 1 37
1487 28 146 60
1488 29 22 3
1489 29 23 37
1490 29 77 68
1491 29 136 16
1492 29 154 14
1493 29 122 88
1494 29 18 25
1495 29 161 8
1496 29 135 12
1497 29 175 66
1498 29 8 55
1499 29 61 99
1500 29 104 37
1501 29 73 32
1502 29 158 18
1503 29 3 32
1504 29 191 11
1505 29 87 34
1506 29 121 46
1507 29 168 89
1508 29 66 49
1509 29 194 48
1510 29 54 13
1511 29 52 66
1512 29 58 16
1513 29 100 22
1514 29 133 60
1515 29 21 48
1516 29 195 77
1517 29 99 11
1518 29 148 61
1519 29 109 8
1520 29 98 3
1521 29 46 32
1522 29 176 35
1523 29 111 31
1524 29 198 98
1525 29 190 59
1526 29 76 35
1527 29 146 26
1528 29 147 94
1529 29 106 20
1530 29 86 46
1531 29 48 49
1532 29 17 88
1533 29 93 61
1534 29 174 38
1535 30 120 4
1536 30 0 89
1537 30 7 43
1538 30 107 27
1539 30 68 49
1540 30 20 18
1541 30 195 41
1542 30 150 12
1543 30 135 84
1544 30 8 86
1545 30 27 20
1546 30 57 27
1547 30 24 16
1548 30 181 10
1549 30 194 44
1550 30 125 34
1551 30 99 14
1552 30 36 82
1553 30 177 9
1554 30 116 15
1555 30 90 76
1556 30 4 4
1557 30 138 82
1558 30 28 18
1559 30 183 4
1560 30 70 49
1561 30 33 2
1562 30 89 63
1563 30 163 14
1564 30 162 32
1565 30 130 95
1566 30 61 52
1567 30 171 84
1568 30 157 75
1569 30 198 27
1570 30 85 7
1571 30 26 5
1572 30 143 47
1573 30 190 17
1574 30 139 23
1575 30 128 10
1576 30 100 87
1577 30 19 40
1578 30 161 34
1579 30 46 21
1580 30 148 83
1581 30 11 55
1582 30 40 57
1583 31 73 84
1584 31 126 32
1585 31 50 96
1586 31 39 97
1587 31 167 47
1588 31 37 26
1589 31 12 72
1590 31 135 34
1591 31 113 86
1592 31 147 18
1593 31 62 41
1594 31 10 100
1595 31 9 55
1596 31 25 16
1597 31 81 16
1598 31 92 53
1599 31 63 14
1600 31 146 88
1601 31 7 41
1602 31 88 86
1603 31 153 98
1604 31 89 80
1605 31 59 74
1606 31 26 92
1607 31 185 79
1608 31 28 40
1609 31 178 35
1610 31 66 95
1611 31 85 19
1612 31 33 53
1613 31 19 90
1614 31 102 11
1615 31 100 69
1616 31 67 36
1617 31 154 43
1618 31 195 41
1619 31 99 27
1620 31 84 57
1621 31 44 98
1622 31 78 100
1623 31 168 41
1624 31 161 69
1625 31 120 20
1626 31 1 52
1627 31 3 68
1628 31 174 17
1629 31 190 93
1630 31 108 83
1631 32 0 80
1632 32 93 48
1633 32 8 8
1634 32 183 69
1635 32 188 14
1636 32 154 35
1637 32 9 79
1638 32 119 75
1639 32 29 85
1640 32 146 40
1641 32 101 5
1642 32 54 24
1643 32 50 25
1644 32 143 18
1645 32 60 25
1646 32 55 45
1647 32 68 72
1648 32 95 48
1649 32 145 76
1650 32 99 30
1651 32 126 45
1652 32 33 66
1653 32 164 8
1654 32 137 89
1655 32 34 27
1656 32 97 86
1657 32 195 95
1658 32 138 81
1659 32 140 43
1660 32 78 83
1661 32 122 22
1662 32 192 66
1663 32 132 67
1664 32 177 4
1665 32 22 44
1666 32 168 4
1667 32 131 64
1668 32 65 41
1669 32 134 6
1670 32 172 64
1671 32 75 92
1672 32 73 86
1673 32 156 66
1674 32 63 12
1675 32 124 75
1676 32 62 88
1677 32 43 81
1678 32 174 58
1679 32 87 28
1680 32 84 47
1681 32 69 34
1682 32 185 38
1683 32 106 17
1684 32 24 46
1685 32 125 24
1686 32 113 36
1687 33 110 91
1688 33 100 90
1689 33 183 61
1690 33 196 64
1691 33 43 63
1692 33 58 62
1693 33 37 33
1694 33 15 37
1695 33 199 100
1696 33 74 36
1697 33 21 73
1698 33 47 50
1699 33 27 34
1700 33 116 76
1701 33 1 32
1702 33 46 5
1703 33 193 40
1704 33 95 55
1705 33 104 37
1706 33 187 7
1707 33 25 7
1708 33 155 56
1709 33 136 2
1710 33 6 50
1711 33 62 73
1712 33 120 69
1713 33 114 66
1714 33 20 18
1715 33 84 50
1716 33 194 39
1717 33 141 70
1718 33 86 56
1719 33 64 17
1720 33 138 95
1721 33 119 86
1722 33 89 59
1723 33 11 47
1724 33 88 47
1725 33 71 27
1726 33 2 64
1727 33 75 60
1728 33 171 76
1729 33 160 30
1730 33 115 72
1731 33 162 46
1732 33 121 84
1733 33 186 38
1734 33 38 84
1735 33 184 49
1736 33 52 3
1737 33 14 75
1738 33 29 13
1739 33 150 18
1740 33 101 16
1741 34 157 3
1742 34 169 33
1743 34 61 4
1744 34 8 60
1745 34 133 21
1746 34 4 47
1747 34 84 33
1748 34 7 46
1749 34 148 94
1750 34 150 26
1751 34 165 78
1752 34 89 56
1753 34 1 6
1754 34 54 12
1755 34 59 97
1756 34 14 56
1757 34 103 8
1758 34 41 74
1759 34 195 79
1760 34 191 29
1761 34 75 19
1762 34 5 81
1763 34 118 96
1764 34 82 33
1765 34 117 60
1766 34 6 4
1767 34 156 57
1768 34 144 73
1769 34 176 19
1770 34 71 51
1771 34 180 18
1772 34 124 47
1773 34 190 86
1774 34 38 14
1775 34 66 91
1776 34 121 62
1777 34 189 38
1778 34 161 26
1779 34 30 16
1780 34 76 88
1781 34 141 51
1782 34 140 100
1783 34 182 8
1784 34 99 28
1785 34 12 17
1786 34 102 48
1787 34 86 8
1788 34 35 84
1789 34 33 30
1790 34 167 96
1791 34 109 88
1792 34 126 89
1793 34 15 100
1794 34 175 75
1795 34 101 39
1796 34 68 32
1797 35 18 87
1798 35 124 82
1799 35 138 77
1800 35 4 66
1801 35 107 68
1802 35 145 34
1803 35 82 35
1804 35 117 20
1805 35 80 59
1806 35 73 72
1807 35 182 74
1808 35 175 46
1809 35 180 20
1810 35 167 88
1811 35 141 32
1812 35 139 55
1813 35 66 12
1814 35 51 64
1815 35 163 76
1816 35 79 34
1817 35 95 73
1818 35 49 54
1819 35 168 93
1820 35 85 34
1821 35 98 44
1822 35 191 40
1823 35 58 78
1824 35 134 90
1825 35 10 96
1826 35 38 46
1827 35 81 92
1828 35 172 80
1829 35 170 46
1830 35 151 59
1831 35 118 94
1832 35 126 65
1833 35 22 15
1834 35 32 23
1835 35 121 58
1836 35 136 93
1837 35 174 25
1838 35 189 93
1839 35 19 14
1840 35 21 64
1841 35 106 91
1842 35 56 37
1843 35 196 88
1844 35 41 94
1845 35 179 85
1846 35 12 19
1847 35 27 57
1848 36 96 94
1849 36 154 14
1850 36 145 68
1851 36 121 30
1852 36 117 17
1853 36 82 19
1854 36 41 88
1855 36 126 36
1856 36 183 4
1857 36 195 21
1858 36 199 28
1859 36 162 77
1860 36 18 27
1861 36 124 51
1862 36 87 86
1863 36 187 17
1864 36 194 61
1865 36 25 50
1866 36 9 14
1867 36 122 60
1868 36 179 53
1869 36 167 35
1870 36 76 91
1871 36 93 4
1872 36 106 99
1873 36 32 86
1874 36 99 36
1875 36 59 6
1876 36 46 36
1877 36 4 94
1878 36 191 50
1879 36 31 44
1880 36 141 85
1881 36 113 47
1882 36 58 13
1883 36 66 11
1884 36 79 21
1885 36 5 71
1886 36 150 49
1887 36 151 30
1888 36 61 65
1889 36 112 11
1890 36 90 16
1891 36 104 3
1892 36 148 45
1893 36 55 1
1894 36 135 18
1895 36 77 91
1896 36 163 17
1897 36 143 69
1898 36 108 92
1899 36 139 78
1900 36 134 21
1901 36 193 5
1902 36 170 62
1903 36 50 100
1904 36 116 84
1905 37 71 38
1906 37 65 87
1907 37 56 82
1908 37 43 44
1909 37 185 76
1910 37 86 46
1911 37 63 22
1912 37 118 68
1913 37 115 92
1914 37 121 18
1915 37 46 57
1916 37 123 100
1917 37 99 54
1918 37 97 63
1919 37 75 62
1920 37 42 35
1921 37 47 24
1922 37 50 27
1923 37 141 80
1924 37 174 27
1925 37 82 41
1926 37 181 90
1927 37 7 34
1928 37 156 28
1929 37 20 97
1930 37 137 30
1931 37 85 82
1932 37 119 59
1933 37 4 25
1934 37 57 94
1935 37 48 18
1936 37 147 92
1937 37 131 57
1938 37 130 67
1939 37 15 28
1940 37 112 78
1941 37 168 54
1942 37 61 99
1943 37 87 96
1944 37 138 75
1945 37 165 24
1946 37 120 11
1947 37 188 45
1948 37 70 16
1949 37 148 6
1950 37 58 2
1951 37 13 18
1952 37 160 49
1953 37 173 1
1954 37 73 63
1955 37 64 57
1956 37 27 97
1957 37 69 22
1958 38 145 9
1959 38 25 33
1960 38 123 25
1961 38 163 81
1962 38 3 81
1963 38 36 33
1964 38 190 90
1965 38 139 67
1966 38 199 50
1967 38 60 73
1968 38 4 86
1969 38 66 49
1970 38 22 44
1971 38 170 28
1972 38 115 64
1973 38 100 9
1974 38 155 47
1975 38 108 46
1976 38 135 61
1977 38 11 32
1978 38 62 15
1979 38 41 4
1980 38 46 46
1981 38 61 24
1982 38 175 1
1983 38 131 72
1984 38 42 73
1985 38 124 72
1986 38 64 25
1987 38 50 9
1988 38 162 72
1989 38 47 59
1990 38 138 29
1991 38 40 4
1992 38 1 86
1993 38 15 73
1994 38 6 47
1995 38 127 7
1996 38 69 61
1997 38 176 80
1998 38 125 27
1999 38 186 30
2000 38 32 60
2001 38 107 58
2002 39 130 30
2003 39 15 14
2004 39 167 17
2005 39 159 79
2006 39 173 61
2007 39 4 25
2008 39 165 36
2009 39 111 11
2010 39 194 95
2011 39 33 40
2012 39 28 67
2013 39 96 44
2014 39 95 7
2015 39 23 99
2016 39 105 21
2017 39 32 88
2018 39 193 89
2019 39 51 59
2020 39 44 86
2021 39 54 48
2022 39 142 78
2023 39 60 82
2024 39 145 90
2025 39 58 4
2026 39 6 68
2027 39 99 20
2028 39 72 53
2029 39 177 70
2030 39 5 92
2031 39 40 3
2032 39 123 1
2033 39 120 78
2034 39 14 8
2035 39 62 61
2036 39 128 20
2037 39 146 23
2038 39 135 4
2039 39 140 72
2040 39 75 84
2041 39 182 81
2042 39 3 62
2043 39 97 11
2044 39 117 21
2045 39 69 97
2046 39 43 16
2047 39 102 67
2048 39 88 75
2049 39 71 97
2050 39 17 36
2051 39 91 45
2052 39 26 24
2053 39 183 32
2054 39 108 77
2055 39 114 83
2056 39 84 90
2057 39 11 42
2058 40 99 73
2059 40 52 53
2060 40 106 99
2061 40 53 5
2062 40 26 17
2063 40 153 31
2064 40 38 27
2065 40 16 10
2066 40 51 42
2067 40 108 80
2068 40 69 100
2069 40 157 80
2070 40 194 67
2071 40 146 93
2072 40 89 60
2073 40 190 45
2074 40 37 15
2075 40 42 59
2076 40 183 47
2077 40 62 58
2078 40 94 80
2079 40 73 4
2080 40 141 26
2081 40 105 22
2082 40 197 26
2083 40 170 2
2084 40 71 71
2085 40 109 68
2086 40 98 69
2087 40 79 8
2088 40 147 56
2089 40 66 1
2090 40 80 78
2091 40 159 37
2092 40 178 9
2093 40 83 60
2094 40 27 44
2095 40 177 2
2096 40 48 22
2097 40 22 94
2098 40 111 36
2099 40 196 16
2100 40 124 29
2101 40 23 4
2102 41 143 7
2103 41 176 57
2104 41 162 66
2105 41 0 81
2106 41 153 70
2107 41 135 55
2108 41 118 64
2109 41 169 84
2110 41 5 45
2111 41 156 67
2112 41 138 90
2113 41 106 63
2114 41 117 42
2115 41 102 44
2116 41 23 88
2117 41 91 70
2118 41 94 44
2119 41 15 1
2120 41 31 76
2121 41 58 44
2122 41 168 74
2123 41 81 97
2124 41 196 13
2125 41 6 39
2126 41 101 43
2127 41 87 6
2128 41 42 38
2129 41 9 80
2130 41 133 57
2131 41 163 23
2132 41 71 32
2133 41 179 51
2134 41 34 53
2135 41 194 80
2136 41 99 38
2137 41 151 87
2138 41 97 51
2139 41 52 17
2140 41 181 58
2141 41 29 23
2142 41 65 65
2143 41 103 55
2144 42 101 44
2145 42 180 14
2146 42 36 70
2147 42 109 16
2148 42 1 37
2149 42 169 99
2150 42 77 89
2151 42 140 18
2152 42 51 6
2153 42 142 40
2154 42 14 29
2155 42 47 84
2156 42 87 71
2157 42 91 35
2158 42 147 98
2159 42 137 85
2160 42 15 42
2161 42 117 6
2162 42 103 88
2163 42 198 89
2164 42 99 34
2165 42 94 52
2166 42 176 19
2167 42 81 14
2168 42 123 63
2169 42 187 50
2170 42 194 34
2171 42 84 85
2172 42 66 25
2173 42 184 38
2174 42 86 78
2175 42 61 26
2176 42 19 74
2177 42 7 37
2178 42 73 14
2179 42 92 55
2180 42 4 92
2181 42 154 97
2182 42 110 49
2183 42 197 58
2184 42 199 33
2185 42 160 5
2186 42 46 57
2187 42 107 72
2188 42 157 87
2189 42 53 72
2190 42 102 87
2191 42 9 89
2192 42 89 54
2193 42 67 73
2194 42 150 66
2195 42 18 95
2196 42 62 90
2197 43 162 47
2198 43 184 69
2199 43 37 41
2200 43 40 58
2201 43 180 35
2202 43 46 80
2203 43 166 10
2204 43 59 97
2205 43 14 12
2206 43 110 7
2207 43 16 51
2208 43 41 83
2209 43 150 56
2210 43 73 59
2211 43 56 83
2212 43 183 20
2213 43 58 55
2214 43 168 38
2215 43 161 12
2216 43 89 65
2217 43 63 58
2218 43 92 80
2219 43 75 31
2220 43 141 84
2221 43 138 75
2222 43 102 58
2223 43 31 69
2224 43 29 79
2225 43 132 41
2226 43 190 28
2227 43 169 59
2228 43 188 61
2229 43 62 7
2230 43 186 10
2231 43 153 21
2232 43 167 36
2233 43 79 74
2234 44 139 28
2235 44 130 15
2236 44 0 56
2237 44 71 95
2238 44 129 35
2239 44 107 46
2240 44 4 87
2241 44 164 86
2242 44 26 77
2243 44 46 67
2244 44 152 19
2245 44 50 34
2246 44 12 32
2247 44 163 57
2248 44 11 70
2249 44 142 2
2250 44 98 35
2251 44 194 57
2252 44 184 1
2253 44 18 38
2254 44 160 6
2255 44 61 62
2256 44 72 81
2257 44 39 76
2258 44 79 26
2259 44 16 50
2260 44 36 45
2261 44 90 9
2262 44 87 66
2263 44 28 58
2264 44 131 48
2265 44 159 51
2266 44 9 75
2267 44 106 23
2268 44 158 56
2269 44 189 90
2270 44 187 76
2271 44 56 18
2272 45 41 97
2273 45 128 7
2274 45 118 100
2275 45 110 100
2276 45 94 29
2277 45 153 86
2278 45 96 93
2279 45 38 21
2280 45 145 61
2281 45 19 27
2282 45 142 44
2283 45 101 100
2284 45 47 64
2285 45 95 16
2286 45 36 19
2287 45 14 47
2288 45 20 50
2289 45 65 62
2290 45 186 24
2291 45 190 10
2292 45 12 20
2293 45 30 32
2294 45 103 1
2295 45 168 4
2296 45 152 71
2297 45 27 100
2298 45 143 44
2299 45 55 59
2300 45 135 85
2301 45 67 65
2302 45 134 74
2303 45 87 45
2304 45 155 76
2305 45 86 15
2306 45 28 48
2307 45 80 30
2308 45 51 19
2309 45 125 91
2310 45 180 40
2311 45 160 24
2312 45 21 44
2313 46 0 100
2314 46 92 50
2315 46 17 49
2316 46 112 3
2317 46 88 1
2318 46 28 75
2319 46 98 70
2320 46 180 93
2321 46 59 1
2322 46 48 43
2323 46 114 63
2324 46 67 69
2325 46 39 28
2326 46 101 53
2327 46 31 84
2328 46 109 78
2329 46 116 6
2330 46 54 90
2331 46 100 27
2332 46 23 4
2333 46 15 26
2334 46 191 35
2335 46 188 10
2336 46 165 32
2337 46 10 82
2338 46 107 52
2339 46 63 44
2340 46 5 84
2341 46 151 25
2342 46 164 17
2343 46 66 76
2344 46 82 66
2345 46 56 42
2346 46 133 56
2347 46 170 94
2348 46 55 69
2349 46 52 35
2350 46 51 79
2351 46 147 87
2352 46 106 78
2353 46 171 57
2354 46 166 93
2355 46 138 57
2356 46 58 4
2357 46 118 95
2358 46 20 64
2359 46 127 6
2360 46 178 55
2361 46 152 6
2362 46 83 4
2363 46 194 64
2364 46 110 35
2365 46 186 49
2366 46 104 13
2367 46 35 36
2368 46 61 31
2369 47 97 32
2370 47 109 57
2371 47 73 5
2372 47 149 7
2373 47 169 36
2374 47 194 94
2375 47 81 76
2376 47 147 11
2377 47 99 94
2378 47 45 85
2379 47 15 63
2380 47 33 40
2381 47 25 37
2382 47 80 26
2383 47 91 50
2384 47 139 72
2385 47 74 57
2386 47 30 11
2387 47 37 85
2388 47 113 94
2389 47 142 82
2390 47 7 49
2391 47 173 31
2392 47 105 65
2393 47 17 90
2394 47 164 59
2395 47 154 56
2396 47 42 24
2397 47 95 11
2398 47 168 46
2399 47 62 62
2400 47 143 91
2401 47 198 63
2402 47 29 39
2403 47 128 1
2404 47 170 95
2405 47 82 42
2406 47 114 33
2407 47 61 48
2408 47 181 65
2409 47 108 56
2410 47 140 55
2411 47 67 16
2412 47 117 68
2413 47 155 20
2414 47 187 38
2415 47 152 98
2416 47 183 70
2417 47 40 93
2418 47 24 64
2419 47 190 40
2420 47 46 9
2421 47 161 36
2422 47 57 22
2423 47 175 63
2424 47 38 65
2425 47 120 47
2426 47 126 30
2427 47 79 81
2428 47 26 9
2429 47 75 33
2430 47 32 14
2431 47 130 93
2432 47 58 94
2433 47 184 78
2434 47 160 65
2435 47 92 65
2436 47 0 61
2437 47 13 23
2438 47 125 54
2439 47 87 27
2440 48 33 91
2441 48 110 34
2442 48 183 88
2443 48 49 74
2444 48 133 23
2445 48 7 11
2446 48 84 82
2447 48 66 21
2448 48 24 18
2449 48 39 27
2450 48 74 92
2451 48 171 29
2452 48 162 74
2453 48 42 75
2454 48 150 68
2455 48 44 21
2456 48 88 16
2457 48 195 41
2458 48 76 73
2459 48 154 4
2460 48 36 2
2461 48 58 60
2462 48 86 90
2463 48 153 16
2464 48 37 28
2465 48 65 18
2466 48 1 85
2467 48 142 90
2468 48 104 1
2469 48 20 38
2470 48 174 92
2471 48 69 35
2472 48 114 66
2473 48 2 34
2474 48 155 100
2475 48 12 45
2476 48 130 54
2477 48 87 59
2478 48 51 62
2479 48 182 10
2480 48 94 47
2481 48 105 86
2482 48 81 35
2483 48 50 15
2484 48 35 94
2485 48 186 60
2486 48 194 84
2487 48 113 90
2488 48 172 49
2489 48 78 50
2490 48 26 1
2491 48 125 38
2492 48 30 41
2493 48 63 54
2494 49 140 71
2495 49 145 76
2496 49 30 30
2497 49 189 74
2498 49 46 11
2499 49 112 13
2500 49 32 52
2501 49 78 88
2502 49 105 95
2503 49 196 40
2504 49 114 48
2505 49 63 57
2506 49 193 84
2507 49 41 52
2508 49 148 63
2509 49 53 86
2510 49 65 58
2511 49 82 97
2512 49 13 52
2513 49 58 48
2514 49 128 61
2515 49 81 93
2516 49 122 56
2517 49 113 50
2518 49 75 52
2519 49 21 33
2520 49 107 62
2521 49 109 51
2522 49 158 6
2523 49 119 72
2524 49 155 46
2525 49 161 17
2526 49 142 2
2527 49 9 65
2528 49 174 86
2529 49 8 95
2530 49 194 44
2531 49 91 83
2532 49 106 18
2533 49 116 76
2534 49 147 56
2535 49 175 40
2536 49 166 43
2537 49 66 42
2538 49 132 24
2539 49 71 10
2540 49 11 63
2541 49 176 47
2542 49 51 8
2543 49 117 37
2544 49 64 74
2545 50 179 80
2546 50 0 69
2547 50 63 67
2548 50 9 64
2549 50 51 68
2550 50 28 18
2551 50 191 76
2552 50 5 72
2553 50 93 65
2554 50 53 63
2555 50 105 19
2556 50 117 60
2557 50 32 47
2558 50 20 39
2559 50 90 95
2560 50 38 36
2561 50 3 19
2562 50 173 22
2563 50 175 1
2564 50 104 56
2565 50 10 10
2566 50 60 88
2567 50 4 90
2568 50 75 71
2569 50 14 47
2570 50 139 89
2571 50 82 6
2572 50 56 54
2573 50 68 78
2574 50 136 22
2575 50 197 77
2576 50 193 69
2577 50 161 60
2578 50 78 87
2579 50 152 30
2580 50 40 83
2581 50 126 68
2582 50 96 56
2583 50 74 88
2584 50 48 36
2585 50 174 5
2586 50 165 8
2587 50 19 49
2588 50 15 62
2589 50 196 18
2590 50 146 40
2591 50 2 54
2592 50 16 56
2593 51 11 26
2594 51 79 75
2595 51 92 5
2596 51 97 32
2597 51 146 21
2598 51 66 12
2599 51 32 33
2600 51 173 32
2601 51 147 8
2602 51 137 25
2603 51 69 12
2604 51 114 70
2605 51 154 90
2606 51 14 25
2607 51 174 73
2608 51 178 31
2609 51 0 31
2610 51 151 3
2611 51 1 11
2612 51 186 14
2613 51 3 15
2614 51 165 66
2615 51 76 34
2616 51 40 86
2617 51 41 3
2618 51 179 52
2619 51 197 46
2620 51 54 33
2621 51 123 65
2622 51 142 69
2623 51 83 42
2624 51 64 44
2625 51 88 67
2626 51 132 64
2627 51 20 41
2628 51 117 48
2629 51 102 18
2630 51 195 90
2631 52 12 38
2632 52 109 46
2633 52 187 20
2634 52 75 73
2635 52 2 51
2636 52 185 14
2637 52 128 44
2638 52 102 10
2639 52 4 36
2640 52 9 25
2641 52 46 53
2642 52 15 78
2643 52 86 59
2644 52 150 33
2645 52 44 45
2646 52 114 59
2647 52 77 91
2648 52 47 67
2649 52 197 28
2650 52 132 41
2651 52 19 10
2652 52 115 58
2653 52 134 74
2654 52 177 70
2655 52 149 26
2656 52 189 84
2657 52 175 65
2658 52 58 59
2659 52 192 92
2660 52 123 12
2661 52 40 85
2662 52 91 31
2663 52 186 43
2664 52 55 45
2665 52 89 51
2666 52 50 55
2667 52 172 80
2668 52 145 56
2669 52 147 32
2670 52 51 85
2671 52 117 27
2672 52 10 70
2673 52 24 92
2674 52 69 74
2675 52 67 46
2676 52 184 91
2677 52 72 96
2678 52 162 69
2679 52 87 56
2680 52 160 86
2681 52 166 33
2682 52 131 9
2683 53 12 60
2684 53 55 84
2685 53 161 69
2686 53 167 19
2687 53 81 42
2688 53 14 88
2689 53 101 50
2690 53 135 6
2691 53 56 89
2692 53 194 16
2693 53 78 77
2694 53 186 79
2695 53 159 96
2696 53 184 75
2697 53 62 15
2698 53 144 100
2699 53 26 95
2700 53 92 56
2701 53 25 17
2702 53 76 34
2703 53 65 55
2704 53 57 78
2705 53 121 40
2706 53 134 82
2707 53 95 61
2708 53 1 54
2709 53 23 91
2710 53 36 22
2711 53 87 76
2712 53 164 26
2713 53 94 51
2714 53 0 88
2715 53 166 69
2716 53 163 37
2717 53 99 18
2718 53 77 56
2719 53 150 68
2720 53 7 47
2721 53 176 15
2722 53 107 63
2723 53 64 76
2724 53 47 59
2725 53 102 25
2726 53 49 56
2727 53 84 62
2728 53 35 73
2729 53 198 94
2730 53 63 78
2731 53 41 7
2732 53 58 12
2733 53 52 1
2734 54 34 17
2735 54 105 84
2736 54 197 64
2737 54 186 10
2738 54 184 78
2739 54 109 98
2740 54 97 8
2741 54 60 87
2742 54 95 80
2743 54 123 41
2744 54 91 93
2745 54 103 95
2746 54 5 87
2747 54 76 17
2748 54 168 2
2749 54 62 25
2750 54 16 70
2751 54 111 85
2752 54 77 59
2753 54 56 21
2754 54 108 13
2755 54 84 17
2756 54 172 16
2757 54 41 100
2758 54 161 47
2759 54 134 82
2760 54 70 10
2761 54 141 74
2762 54 130 6
2763 54 158 82
2764 54 189 36
2765 54 69 46
2766 54 59 94
2767 54 46 49
2768 54 3 22
2769 54 17 40
2770 54 192 93
2771 54 112 35
2772 54 86 54
2773 54 79 89
2774 54 162 24
2775 54 153 20
2776 54 122 5
2777 54 196 13
2778 54 30 51
2779 54 128 44
2780 54 110 55
2781 54 52 53
2782 54 135 28
2783 54 106 81
2784 55 77 31
2785 55 169 78
2786 55 105 28
2787 55 18 87
2788 55 69 46
2789 55 75 5
2790 55 28 67
2791 55 162 20
2792 55 107 37
2793 55 176 25
2794 55 12 94
2795 55 0 17
2796 55 199 50
2797 55 181 17
2798 55 83 42
2799 55 82 31
2800 55 76 87
2801 55 25 69
2802 55 194 12
2803 55 17 36
2804 55 140 2
2805 55 121 31
2806 55 9 7
2807 55 95 83
2808 55 122 64
2809 55 104 41
2810 55 111 41
2811 55 71 77
2812 55 175 97
2813 55 154 68
2814 55 64 37
2815 55 191 9
2816 55 78 87
2817 55 142 36
2818 55 197 21
2819 55 29 8
2820 55 153 19
2821 55 148 37
2822 55 145 68
2823 55 59 39
2824 55 115 25
2825 55 7 97
2826 55 32 45
2827 55 66 7
2828 55 8 63
2829 55 173 36
2830 55 183 48
2831 55 101 2
2832 55 50 98
2833 55 23 96
2834 56 180 77
2835 56 175 28
2836 56 183 95
2837 56 33 32
2838 56 51 24
2839 56 198 66
2840 56 120 7
2841 56 78 75
2842 56 21 82
2843 56 50 73
2844 56 142 78
2845 56 110 60
2846 56 49 4
2847 56 131 18
2848 56 88 34
2849 56 14 35
2850 56 162 1
2851 56 147 39
2852 56 6 26
2853 56 144 12
2854 56 89 4
2855 56 62 80
2856 56 173 2
2857 56 43 60
2858 56 167 62
2859 56 123 13
2860 56 68 86
2861 56 107 72
2862 56 63 23
2863 56 1 31
2864 56 32 87
2865 56 94 43
2866 56 81 90
2867 56 65 89
2868 56 176 31
2869 56 4 17
2870 56 31 97
2871 56 79 63
2872 56 122 61
2873 56 11 81
2874 56 86 83
2875 56 54 29
2876 56 172 63
2877 56 190 56
2878 56 133 46
2879 56 112 44
2880 56 118 33
2881 56 154 57
2882 56 76 51
2883 56 29 9
2884 56 87 57
2885 56 10 17
2886 56 48 57
2887 57 182 46
2888 57 145 61
2889 57 62 29
2890 57 82 44
2891 57 147 42
2892 57 12 40
2893 57 180 72
2894 57 183 14
2895 57 154 37
2896 57 123 60
2897 57 194 13
2898 57 33 24
2899 57 86 50
2900 57 28 53
2901 57 32 55
2902 57 44 14
2903 57 103 44
2904 57 172 88
2905 57 117 32
2906 57 18 75
2907 57 107 28
2908 57 153 99
2909 57 131 74
2910 57 184 96
2911 57 7 17
2912 57 55 78
2913 57 59 35
2914 57 5 23
2915 57 192 60
2916 57 71 91
2917 57 129 7
2918 57 91 18
2919 57 80 9
2920 57 171 45
2921 57 127 8
2922 57 159 83
2923 57 186 13
2924 57 4 27
2925 57 73 33
2926 57 42 29
2927 57 43 82
2928 57 108 32
2929 57 68 73
2930 57 148 7
2931 57 63 56
2932 57 19 21
2933 57 14 61
2934 57 61 80
2935 57 100 95
2936 57 119 70
2937 57 81 79
2938 57 106 83
2939 57 54 43
2940 58 165 65
2941 58 146 24
2942 58 143 37
2943 58 137 58
2944 58 5 61
2945 58 195 25
2946 58 151 28
2947 58 119 91
2948 58 10 73
2949 58 123 9
2950 58 135 17
2951 58 25 78
2952 58 6 78
2953 58 180 6
2954 58 8 29
2955 58 173 58
2956 58 44 15
2957 58 118 89
2958 58 169 77
2959 58 16 15
2960 58 198 19
2961 58 158 57
2962 58 28 45
2963 58 102 77
2964 58 60 32
2965 58 35 73
2966 58 196 90
2967 58 110 47
2968 58 76 41
2969 58 57 60
2970 58 64 86
2971 58 174 12
2972 58 184 37
2973 58 88 24
2974 58 100 11
2975 58 145 95
2976 58 168 12
2977 58 183 54
2978 58 153 87
2979 58 56 24
2980 58 27 23
2981 58 41 5
2982 58 85 91
2983 58 15 51
2984 58 84 84
2985 58 73 93
2986 58 141 87
2987 58 62 42
2988 58 136 77
2989 58 65 12
2990 59 138 6
2991 59 170 1
2992 59 179 92
2993 59 20 36
2994 59 2 33
2995 59 188 25
2996 59 111 51
2997 59 69 33
2998 59 78 28
2999 59 79 51
3000 59 31 35
3001 59 184 38
3002 59 157 33
3003 59 118 27
3004 59 109 21
3005 59 23 96
3006 59 57 100
3007 59 197 73
3008 59 26 54
3009 59 91 76
3010 59 115 12
3011 59 21 33
3012 59 189 19
3013 59 85 21
3014 59 121 89
3015 59 164 98
3016 59 0 91
3017 59 146 1
3018 59 193 81
3019 59 194 8
3020 59 49 60
3021 59 13 81
3022 59 175 20
3023 59 70 22
3024 59 16 57
3025 59 76 51
3026 59 167 92
3027 59 90 65
3028 59 135 31
3029 59 74 41
3030 59 127 21
3031 59 1 60
3032 59 136 66
3033 59 80 7
3034 59 119 81
3035 59 58 65
3036 59 99 58
3037 59 4 70
3038 60 32 41
3039 60 163 86
3040 60 7 62
3041 60 158 14
3042 60 89 8
3043 60 181 78
3044 60 193 28
3045 60 82 25
3046 60 93 70
3047 60 22 97
3048 60 83 48
3049 60 104 28
3050 60 159 6
3051 60 151 2
3052 60 189 6
3053 60 157 76
3054 60 21 6
3055 60 49 8
3056 60 16 86
3057 60 110 55
3058 60 27 28
3059 60 166 82
3060 60 137 18
3061 60 44 44
3062 60 112 66
3063 60 111 94
3064 60 191 55
3065 60 170 83
3066 60 11 61
3067 60 176 58
3068 60 58 43
3069 60 177 37
3070 60 194 52
3071 60 80 48
3072 60 118 71
3073 60 64 53
3074 60 119 16
3075 60 127 62
3076 60 48 22
3077 60 71 71
3078 60 39 85
3079 60 109 40
3080 60 69 60
3081 60 42 84
3082 60 129 4
3083 60 186 31
3084 60 134 38
3085 60 85 36
3086 60 139 54
3087 60 1 82
3088 61 122 28
3089 61 107 29
3090 61 34 24
3091 61 19 92
3092 61 111 37
3093 61 3 49
3094 61 164 46
3095 61 149 84
3096 61 141 98
3097 61 151 86
3098 61 71 53
3099 61 127 68
3100 61 142 37
3101 61 159 99
3102 61 168 9
3103 61 55 43
3104 61 195 38
3105 61 175 96
3106 61 0 53
3107 61 51 95
3108 61 59 26
3109 61 7 43
3110 61 184 16
3111 61 1 60
3112 61 39 41
3113 61 143 64
3114 61 5 27
3115 61 108 41
3116 61 137 97
3117 61 73 9
3118 61 150 66
3119 61 95 47
3120 61 76 14
3121 61 94 94
3122 61 114 64
3123 61 91 51
3124 61 13 73
3125 61 27 87
3126 61 197 50
3127 61 4 46
3128 61 70 91
3129 61 118 73
3130 61 82 47
3131 61 117 75
3132 61 173 53
3133 61 176 42
3134 61 44 53
3135 61 74 2
3136 61 11 6
3137 61 113 82
3138 61 103 99
3139 62 95 30
3140 62 1 91
3141 62 192 29
3142 62 90 58
3143 62 2 96
3144 62 118 41
3145 62 80 20
3146 62 58 24
3147 62 73 73
3148 62 53 51
3149 62 34 95
3150 62 104 35
3151 62 10 67
3152 62 133 33
3153 62 147 82
3154 62 91 18
3155 62 127 12
3156 62 70 2
3157 62 54 73
3158 62 13 21
3159 62 3 24
3160 62 180 17
3161 62 182 42
3162 62 112 12
3163 62 184 94
3164 62 5 34
3165 62 116 44
3166 62 145 46
3167 62 159 62
3168 62 186 76
3169 62 102 82
3170 62 188 48
3171 62 24 93
3172 62 121 26
3173 62 193 59
3174 62 194 83
3175 62 100 17
3176 62 87 30
3177 62 78 63
3178 62 132 51
3179 62 50 53
3180 62 82 6
3181 62 48 35
3182 62 123 9
3183 62 27 37
3184 62 142 19
3185 62 178 55
3186 62 181 40
3187 62 81 28
3188 62 44 8
3189 62 124 24
3190 62 67 80
3191 62 38 61
3192 62 17 6
3193 62 170 70
3194 63 49 10
3195 63 111 29
3196 63 197 63
3197 63 138 20
3198 63 158 23
3199 63 136 76
3200 63 22 72
3201 63 74 19
3202 63 0 16
3203 63 7 3
3204 63 113 80
3205 63 132 100
3206 63 78 26
3207 63 154 47
3208 63 149 82
3209 63 163 97
3210 63 39 20
3211 63 88 40
3212 63 101 86
3213 63 125 25
3214 63 148 78
3215 63 65 20
3216 63 186 22
3217 63 145 78
3218 63 17 82
3219 63 19 48
3220 63 152 5
3221 63 33 12
3222 63 187 92
3223 63 192 87
3224 63 155 86
3225 63 103 40
3226 63 191 73
3227 63 52 51
3228 63 87 18
3229 63 169 72
3230 63 171 34
3231 63 13 4
3232 63 69 59
3233 63 46 56
3234 63 97 87
3235 63 183 83
3236 63 64 86
3237 63 104 76
3238 63 55 43
3239 63 123 26
3240 63 23 78
3241 63 83 7
3242 64 76 70
3243 64 62 60
3244 64 22 69
3245 64 101 28
3246 64 39 85
3247 64 145 85
3248 64 43 38
3249 64 104 97
3250 64 136 64
3251 64 91 52
3252 64 33 59
3253 64 30 88
3254 64 34 80
3255 64 71 4
3256 64 154 7
3257 64 85 57
3258 64 176 65
3259 64 4 20
3260 64 58 40
3261 64 88 39
3262 64 44 52
3263 64 197 56
3264 64 95 51
3265 64 98 49
3266 64 99 78
3267 64 23 40
3268 64 7 89
3269 64 116 72
3270 64 102 29
3271 64 138 56
3272 64 5 88
3273 64 132 1
3274 64 163 88
3275 64 16 73
3276 64 79 82
3277 64 105 40
3278 64 143 27
3279 64 65 67
3280 64 127 53
3281 64 117 65
3282 64 81 21
3283 64 55 88
3284 64 45 96
3285 65 179 46
3286 65 134 94
3287 65 76 3
3288 65 129 68
3289 65 63 42
3290 65 143 43
3291 65 96 75
3292 65 17 24
3293 65 78 43
3294 65 147 82
3295 65 40 55
3296 65 160 22
3297 65 106 74
3298 65 120 62
3299 65 77 24
3300 65 137 49
3301 65 99 49
3302 65 140 73
3303 65 85 97
3304 65 175 19
3305 65 163 27
3306 65 81 100
3307 65 12 19
3308 65 70 42
3309 65 178 58
3310 65 53 95
3311 65 187 21
3312 65 157 63
3313 65 195 32
3314 65 88 81
3315 65 6 39
3316 65 181 92
3317 65 30 53
3318 65 67 70
3319 65 84 92
3320 65 199 78
3321 65 9 92
3322 65 55 22
3323 65 7 61
3324 65 62 8
3325 65 73 94
3326 65 118 88
3327 65 98 35
3328 66 85 60
3329 66 112 23
3330 66 51 25
3331 66 68 100
3332 66 169 87
3333 66 159 88
3334 66 114 31
3335 66 173 33
3336 66 177 82
3337 66 99 33
3338 66 170 56
3339 66 40 54
3340 66 1 51
3341 66 72 14
3342 66 155 6
3343 66 143 46
3344 66 10 13
3345 66 42 39
3346 66 17 77
3347 66 18 94
3348 66 128 96
3349 66 39 50
3350 66 97 12
3351 66 179 70
3352 66 161 7
3353 66 93 49
3354 66 116 66
3355 66 144 51
3356 66 103 22
3357 66 32 65
3358 66 52 71
3359 66 69 50
3360 66 55 97
3361 66 29 95
3362 66 175 96
3363 66 181 67
3364 66 168 90
3365 66 158 67
3366 66 77 61
3367 66 106 79
3368 66 3 22
3369 66 142 35
3370 66 91 33
3371 66 192 78
3372 66 198 33
3373 66 36 3
3374 66 46 97
3375 66 149 32
3376 67 184 88
3377 67 183 98
3378 67 11 84
3379 67 63 87
3380 67 166 80
3381 67 4 47
3382 67 104 11
3383 67 48 67
3384 67 87 55
3385 67 162 80
3386 67 42 91
3387 67 176 42
3388 67 109 54
3389 67 136 12
3390 67 165 30
3391 67 43 86
3392 67 5 39
3393 67 23 35
3394 67 45 7
3395 67 149 72
3396 67 129 70
3397 67 22 30
3398 67 9 90
3399 67 38 84
3400 67 164 31
3401 67 12 13
3402 67 72 70
3403 67 61 32
3404 67 160 70
3405 67 64 4
3406 67 144 16
3407 67 170 51
3408 67 26 75
3409 67 20 95
3410 67 135 25
3411 67 195 35
3412 67 152 61
3413 67 92 54
3414 67 112 75
3415 67 34 9
3416 67 110 18
3417 67 128 83
3418 67 151 27
3419 67 177 64
3420 67 56 64
3421 67 142 78
3422 67 188 32
3423 67 28 81
3424 67 189 79
3425 67 159 71
3426 67 84 1
3427 67 59 12
3428 68 33 100
3429 68 172 87
3430 68 94 21
3431 68 47 21
3432 68 120 4
3433 68 52 10
3434 68 194 50
3435 68 79 28
3436 68 130 13
3437 68 164 65
3438 68 141 98
3439 68 101 47
3440 68 197 24
3441 68 19 4
3442 68 88 1
3443 68 16 81
3444 68 44 20
3445 68 108 31
3446 68 2 75
3447 68 80 13
3448 68 171 47
3449 68 28 20
3450 68 91 28
3451 68 189 10
3452 68 124 25
3453 68 35 32
3454 68 4 51
3455 68 129 82
3456 68 143 98
3457 68 46 88
3458 68 87 28
3459 68 187 87
3460 68 156 9
3461 68 73 38
3462 68 133 99
3463 68 15 1
3464 68 161 76
3465 68 146 71
3466 68 13 23
3467 68 6 11
3468 68 99 22
3469 68 174 63
3470 68 123 6
3471 68 163 24
3472 68 25 32
3473 68 64 16
3474 68 118 71
3475 68 144 77
3476 68 92 55
3477 68 177 62
3478 68 131 24
3479 68 66 5
3480 68 10 15
3481 68 196 24
3482 69 139 80
3483 69 4 45
3484 69 104 78
3485 69 118 3
3486 69 62 32
3487 69 171 13
3488 69 136 85
3489 69 116 99
3490 69 198 59
3491 69 25 63
3492 69 78 82
3493 69 88 41
3494 69 159 52
3495 69 15 74
3496 69 59 90
3497 69 169 89
3498 69 130 2
3499 69 183 1
3500 69 161 90
3501 69 100 1
3502 69 86 89
3503 69 134 14
3504 69 37 84
3505 69 199 75
3506 69 195 82
3507 69 187 97
3508 69 81 96
3509 69 61 11
3510 69 152 60
3511 69 2 49
3512 69 17 44
3513 69 39 28
3514 69 122 97
3515 69 175 23
3516 69 127 38
3517 69 112 40
3518 69 147 68
3519 69 96 31
3520 69 114 33
3521 69 174 28
3522 69 189 66
3523 69 117 100
3524 69 125 62
3525 69 97 15
3526 69 48 48
3527 69 107 10
3528 69 66 41
3529 69 52 37
3530 69 173 93
3531 69 180 64
3532 69 95 39
3533 69 34 56
3534 69 13 80
3535 69 135 15
3536 70 13 15
3537 70 180 60
3538 70 84 81
3539 70 182 8
3540 70 17 92
3541 70 148 89
3542 70 19 71
3543 70 188 58
3544 70 86 2
3545 70 110 18
3546 70 150 62
3547 70 8 19
3548 70 127 69
3549 70 14 24
3550 70 73 5
3551 70 54 33
3552 70 114 7
3553 70 4 6
3554 70 27 80
3555 70 170 31
3556 70 103 85
3557 70 169 94
3558 70 136 93
3559 70 28 67
3560 70 20 2
3561 70 43 70
3562 70 78 94
3563 70 42 26
3564 70 137 37
3565 70 22 81
3566 70 2 92
3567 70 76 73
3568 70 158 83
3569 70 44 15
3570 70 131 23
3571 70 135 27
3572 70 81 22
3573 70 124 15
3574 70 12 49
3575 70 50 86
3576 70 80 88
3577 70 69 2
3578 70 167 4
3579 70 132 48
3580 70 163 77
3581 70 178 91
3582 70 113 28
3583 70 26 23
3584 70 7 34
3585 71 120 90
3586 71 89 10
3587 71 32 70
3588 71 81 30
3589 71 189 18
3590 71 145 88
3591 71 108 95
3592 71 97 97
3593 71 157 45
3594 71 16 24
3595 71 138 92
3596 71 21 58
3597 71 66 50
3598 71 40 21
3599 71 102 47
3600 71 109 19
3601 71 198 84
3602 71 168 6
3603 71 68 21
3604 71 173 12
3605 71 160 29
3606 71 75 15
3607 71 153 13
3608 71 191 56
3609 71 119 60
3610 71 44 73
3611 71 80 45
3612 71 147 93
3613 71 36 38
3614 71 96 22
3615 71 139 68
3616 71 187 96
3617 71 186 28
3618 71 167 22
3619 71 91 50
3620 71 123 64
3621 71 37 87
3622 71 194 4
3623 71 57 13
3624 71 136 96
3625 71 23 97
3626 71 112 11
3627 71 58 52
3628 71 84 58
3629 71 131 65
3630 71 50 15
3631 71 103 15
3632 71 18 56
3633 71 100 60
3634 71 144 95
3635 71 7 69
3636 71 73 53
3637 71 141 95
3638 72 0 18
3639 72 144 77
3640 72 122 1
3641 72 182 23
3642 72 187 41
3643 72 103 13
3644 72 83 43
3645 72 194 25
3646 72 148 65
3647 72 164 51
3648 72 54 33
3649 72 177 97
3650 72 56 22
3651 72 85 56
3652 72 12 57
3653 72 124 30
3654 72 129 100
3655 72 172 3
3656 72 84 22
3657 72 165 22
3658 72 15 6
3659 72 114 79
3660 72 40 74
3661 72 35 39
3662 72 189 11
3663 72 6 62
3664 72 153 88
3665 72 45 44
3666 72 195 27
3667 72 4 83
3668 72 155 3
3669 72 140 37
3670 72 63 87
3671 72 77 2
3672 72 167 47
3673 72 3 26
3674 72 159 10
3675 72 57 78
3676 72 21 67
3677 72 188 36
3678 72 120 100
3679 72 76 10
3680 72 139 8
3681 72 73 86
3682 72 156 44
3683 72 178 4
3684 72 162 58
3685 72 23 42
3686 72 169 41
3687 72 176 1
3688 72 149 68
3689 72 94 34
3690 72 62 65
3691 72 100 41
3692 72 30 21
3693 73 78 71
3694 73 93 38
3695 73 169 53
3696 73 161 63
3697 73 175 58
3698 73 187 8
3699 73 128 30
3700 73 140 64
3701 73 191 65
3702 73 84 33
3703 73 143 56
3704 73 6 58
3705 73 174 79
3706 73 105 63
3707 73 182 7
3708 73 120 94
3709 73 62 1
3710 73 181 72
3711 73 88 84
3712 73 199 93
3713 73 129 30
3714 73 146 4
3715 73 166 84
3716 73 4 58
3717 73 141 51
3718 73 157 35
3719 73 19 85
3720 73 22 38
3721 73 75 6
3722 73 31 44
3723 73 74 66
3724 73 14 30
3725 73 144 42
3726 73 102 42
3727 73 1 92
3728 73 106 1
3729 73 89 11
3730 73 126 64
3731 73 149 21
3732 73 86 57
3733 74 190 22
3734 74 46 59
3735 74 75 83
3736 74 198 77
3737 74 80 57
3738 74 24 32
3739 74 154 93
3740 74 73 18
3741 74 63 71
3742 74 103 24
3743 74 149 73
3744 74 110 4
3745 74 40 16
3746 74 132 89
3747 74 67 71
3748 74 98 31
3749 74 148 17
3750 74 51 2
3751 74 145 47
3752 74 91 14
3753 74 47 12
3754 74 126 97
3755 74 178 21
3756 74 100 9
3757 74 0 25
3758 74 35 33
3759 74 31 4
3760 74 62 55
3761 74 88 26
3762 74 68 50
3763 74 78 69
3764 74 134 4
3765 74 41 10
3766 74 16 80
3767 74 133 77
3768 74 186 6
3769 74 108 47
3770 74 10 4
3771 74 151 23
3772 74 7 39
3773 74 197 6
3774 74 101 52
3775 74 32 41
3776 74 90 9
3777 74 38 9
3778 74 55 87
3779 75 141 61
3780 75 98 82
3781 75 95 92
3782 75 170 35
3783 75 110 61
3784 75 77 10
3785 75 112 93
3786 75 28 12
3787 75 99 59
3788 75 45 7
3789 75 121 86
3790 75 74 51
3791 75 18 35
3792 75 63 70
3793 75 197 46
3794 75 56 57
3795 75 76 73
3796 75 62 56
3797 75 79 66
3798 75 116 72
3799 75 169 52
3800 75 35 25
3801 75 55 81
3802 75 199 85
3803 75 6 12
3804 75 37 21
3805 75 167 33
3806 75 68 8
3807 75 40 58
3808 75 10 95
3809 75 174 85
3810 75 130 78
3811 75 2 4
3812 75 0 40
3813 75 185 82
3814 75 85 39
3815 75 129 70
3816 75 151 88
3817 75 104 11
3818 75 72 32
3819 75 44 70
3820 75 17 85
3821 75 122 67
3822 75 32 16
3823 75 26 74
3824 75 90 8
3825 75 181 16
3826 75 81 13
3827 75 73 97
3828 75 52 36
3829 75 172 43
3830 75 11 90
3831 75 191 53
3832 75 182 64
3833 75 54 89
3834 75 51 52
3835 75 148 60
3836 75 48 57
3837 76 22 54
3838 76 103 10
3839 76 60 75
3840 76 84 44
3841 76 112 17
3842 76 179 35
3843 76 135 73
3844 76 67 52
3845 76 54 95
3846 76 36 4
3847 76 184 13
3848 76 139 62
3849 76 98 5
3850 76 121 73
3851 76 37 20
3852 76 197 13
3853 76 118 58
3854 76 178 55
3855 76 12 40
3856 76 186 43
3857 76 68 10
3858 76 23 62
3859 76 155 60
3860 76 156 98
3861 76 26 6
3862 76 81 17
3863 76 8 20
3864 76 87 86
3865 76 93 27
3866 76 63 72
3867 76 100 1
3868 76 174 33
3869 76 141 91
3870 76 159 45
3871 76 4 30
3872 76 167 40
3873 76 27 58
3874 76 143 65
3875 76 48 21
3876 76 116 57
3877 76 18 59
3878 76 61 85
3879 76 88 18
3880 76 14 42
3881 76 102 25
3882 76 126 94
3883 76 65 20
3884 76 72 8
3885 76 131 80
3886 77 45 46
3887 77 114 82
3888 77 132 76
3889 77 59 83
3890 77 113 89
3891 77 16 24
3892 77 28 69
3893 77 138 35
3894 77 75 68
3895 77 128 73
3896 77 37 72
3897 77 91 61
3898 77 0 31
3899 77 146 47
3900 77 175 91
3901 77 19 65
3902 77 34 64
3903 77 94 23
3904 77 155 59
3905 77 164 22
3906 77 101 80
3907 77 32 78
3908 77 47 25
3909 77 141 28
3910 77 118 81
3911 77 157 93
3912 77 117 44
3913 77 22 90
3914 77 136 61
3915 77 111 88
3916 77 92 81
3917 77 131 3
3918 77 174 21
3919 77 180 90
3920 77 169 33
3921 77 30 4
3922 77 185 79
3923 77 199 32
3924 77 12 74
3925 77 18 65
3926 77 179 52
3927 77 33 86
3928 77 39 55
3929 77 195 26
3930 77 176 92
3931 77 189 78
3932 77 143 68
3933 77 186 40
3934 77 193 99
3935 77 31 50
3936 77 11 37
3937 77 57 69
3938 77 112 37
3939 77 190 35
3940 77 69 18
3941 77 17 87
3942 77 49 59
3943 78 84 32
3944 78 130 75
3945 78 197 72
3946 78 18 30
3947 78 157 41
3948 78 175 93
3949 78 170 98
3950 78 43 51
3951 78 53 87
3952 78 167 45
3953 78 85 17
3954 78 156 91
3955 78 189 31
3956 78 113 78
3957 78 119 10
3958 78 35 71
3959 78 134 94
3960 78 81 71
3961 78 128 54
3962 78 165 85
3963 78 155 59
3964 78 33 52
3965 78 112 22
3966 78 32 20
3967 78 152 61
3968 78 83 32
3969 78 56 43
3970 78 115 29
3971 78 57 31
3972 78 41 40
3973 78 48 1
3974 78 158 50
3975 78 2 81
3976 78 194 21
3977 78 143 8
3978 78 118 14
3979 78 103 53
3980 78 72 55
3981 79 143 25
3982 79 13 32
3983 79 54 35
3984 79 51 100
3985 79 139 8
3986 79 22 15
3987 79 117 34
3988 79 78 89
3989 79 198 18
3990 79 57 12
3991 79 40 48
3992 79 97 51
3993 79 125 89
3994 79 50 26
3995 79 156 33
3996 79 39 89
3997 79 17 44
3998 79 94 23
3999 79 167 54
4000 79 19 28
4001 79 0 52
4002 79 49 22
4003 79 136 68
4004 79 176 72
4005 79 162 54
4006 79 11 24
4007 79 127 28
4008 79 24 25
4009 79 42 47
4010 79 157 59
4011 79 83 5
4012 79 76 37
4013 79 46 36
4014 79 96 35
4015 79 152 47
4016 79 33 47
4017 79 65 92
4018 79 44 16
4019 79 181 95
4020 79 107 84
4021 79 153 40
4022 79 41 27
4023 79 187 35
4024 79 145 38
4025 79 1 19
4026 80 30 11
4027 80 68 10
4028 80 144 14
4029 80 65 60
4030 80 145 44
4031 80 178 34
4032 80 181 74
4033 80 63 34
4034 80 48 38
4035 80 193 73
4036 80 1 43
4037 80 25 62
4038 80 46 83
4039 80 37 37
4040 80 190 22
4041 80 89 98
4042 80 24 11
4043 80 69 81
4044 80 58 71
4045 80 49 69
4046 80 156 92
4047 80 35 39
4048 80 163 23
4049 80 16 81
4050 80 108 99
4051 80 43 39
4052 80 11 49
4053 80 191 31
4054 80 96 65
4055 80 104 15
4056 80 78 47
4057 80 20 10
4058 80 71 21
4059 80 155 80
4060 80 121 15
4061 80 146 16
4062 80 47 53
4063 80 195 35
4064 80 115 97
4065 80 168 63
4066 80 177 83
4067 80 73 79
4068 80 59 23
4069 80 149 33
4070 80 33 85
4071 80 197 50
4072 80 133 37
4073 80 79 23
4074 80 53 76
4075 80 26 77
4076 80 123 65
4077 81 111 57
4078 81 58 23
4079 81 153 33
4080 81 188 57
4081 81 54 94
4082 81 193 27
4083 81 137 42
4084 81 78 28
4085 81 79 84
4086 81 177 80
4087 81 120 80
4088 81 10 68
4089 81 164 64
4090 81 122 48
4091 81 108 98
4092 81 189 83
4093 81 59 73
4094 81 50 16
4095 81 84 47
4096 81 179 31
4097 81 90 1
4098 81 97 8
4099 81 22 60
4100 81 107 41
4101 81 144 16
4102 81 7 34
4103 81 121 48
4104 81 13 84
4105 81 98 10
4106 81 157 68
4107 81 128 29
4108 81 136 36
4109 81 116 62
4110 81 18 73
4111 81 140 23
4112 81 71 88
4113 81 166 31
4114 81 118 7
4115 81 88 44
4116 81 4 60
4117 81 129 72
4118 81 178 22
4119 81 113 34
4120 81 20 42
4121 82 25 95
4122 82 104 26
4123 82 66 10
4124 82 196 4
4125 82 88 93
4126 82 182 65
4127 82 195 12
4128 82 96 18
4129 82 190 33
4130 82 102 52
4131 82 5 39
4132 82 38 31
4133 82 19 96
4134 82 40 62
4135 82 65 69
4136 82 21 82
4137 82 111 88
4138 82 180 50
4139 82 126 22
4140 82 84 40
4141 82 0 27
4142 82 73 96
4143 82 69 7
4144 82 123 82
4145 82 44 10
4146 82 7 35
4147 82 24 81
4148 82 26 54
4149 82 142 2
4150 82 153 55
4151 82 194 54
4152 82 57 95
4153 82 141 96
4154 82 184 76
4155 82 53 50
4156 82 20 15
4157 82 157 93
4158 82 59 4
4159 82 143 49
4160 82 130 77
4161 82 87 81
4162 82 125 53
4163 82 166 32
4164 82 52 96
4165 82 114 58
4166 83 113 40
4167 83 67 78
4168 83 45 14
4169 83 43 19
4170 83 95 9
4171 83 186 67
4172 83 58 63
4173 83 34 77
4174 83 57 90
4175 83 4 81
4176 83 180 5
4177 83 66 50
4178 83 87 44
4179 83 171 2
4180 83 179 55
4181 83 192 10
4182 83 27 99
4183 83 117 35
4184 83 160 57
4185 83 38 11
4186 83 35 45
4187 83 39 75
4188 83 136 2
4189 83 98 14
4190 83 126 14
4191 83 23 22
4192 83 53 41
4193 83 0 1
4194 83 155 18
4195 83 147 94
4196 83 21 25
4197 83 81 11
4198 83 24 54
4199 83 161 6
4200 83 169 1
4201 83 108 33
4202 83 16 98
4203 83 90 7
4204 83 196 24
4205 83 7 62
4206 83 17 22
4207 83 103 72
4208 83 77 80
4209 83 138 70
4210 83 173 54
4211 83 96 66
4212 83 33 30
4213 83 29 82
4214 83 191 18
4215 83 132 15
4216 83 84 23
4217 83 149 8
4218 83 172 71
4219 84 190 51
4220 84 5 11
4221 84 75 34
4222 84 109 96
4223 84 79 90
4224 84 8 79
4225 84 3 71
4226 84 123 38
4227 84 60 19
4228 84 162 48
4229 84 192 5
4230 84 25 60
4231 84 0 80
4232 84 128 51
4233 84 43 98
4234 84 183 49
4235 84 90 80
4236 84 55 78
4237 84 173 82
4238 84 13 97
4239 84 68 58
4240 84 157 65
4241 84 168 34
4242 84 127 21
4243 84 194 5
4244 84 56 8
4245 84 62 83
4246 84 107 9
4247 84 87 37
4248 84 138 11
4249 84 9 36
4250 84 185 35
4251 84 74 18
4252 84 153 33
4253 84 111 51
4254 84 31 2
4255 84 166 83
4256 84 102 61
4257 84 94 29
4258 84 156 63
4259 84 6 22
4260 84 23 32
4261 84 95 91
4262 84 198 69
4263 84 119 55
4264 84 178 9
4265 84 160 92
4266 84 30 46
4267 84 131 75
4268 84 39 48
4269 84 182 22
4270 84 99 67
4271 84 11 91
4272 84 163 42
4273 84 77 95
4274 84 76 77
4275 84 174 91
4276 84 86 77
4277 84 189 35
4278 85 130 59
4279 85 13 42
4280 85 83 85
4281 85 140 61
4282 85 158 90
4283 85 169 56
4284 85 186 28
4285 85 59 97
4286 85 137 63
4287 85 144 90
4288 85 60 98
4289 85 66 78
4290 85 192 65
4291 85 50 22
4292 85 122 76
4293 85 157 30
4294 85 188 4
4295 85 87 44
4296 85 178 41
4297 85 55 64
4298 85 62 62
4299 85 163 74
4300 85 126 61
4301 85 67 85
4302 85 143 77
4303 85 8 83
4304 85 173 69
4305 85 104 27
4306 85 21 50
4307 85 35 57
4308 85 57 56
4309 85 56 3
4310 85 193 61
4311 85 116 40
4312 85 102 93
4313 85 151 81
4314 85 181 13
4315 85 24 6
4316 85 92 48
4317 85 78 76
4318 85 132 28
4319 85 152 78
4320 85 33 35
4321 86 38 94
4322 86 8 87
4323 86 60 69
4324 86 49 14
4325 86 162 41
4326 86 163 1
4327 86 88 99
4328 86 72 36
4329 86 58 30
4330 86 9 73
4331 86 144 8
4332 86 59 31
4333 86 23 44
4334 86 40 56
4335 86 133 95
4336 86 149 4
4337 86 3 18
4338 86 53 68
4339 86 191 46
4340 86 121 99
4341 86 42 71
4342 86 80 81
4343 86 197 53
4344 86 71 80
4345 86 198 81
4346 86 157 50
4347 86 169 55
4348 86 36 92
4349 86 64 2
4350 86 68 80
4351 86 73 54
4352 86 175 28
4353 86 103 46
4354 86 82 40
4355 86 39 87
4356 86 17 60
4357 86 173 51
4358 86 57 3
4359 86 128 63
4360 86 137 42
4361 86 74 11
4362 86 136 22
4363 86 145 12
4364 86 192 8
4365 86 152 12
4366 86 123 65
4367 86 30 38
4368 86 93 17
4369 86 151 50
4370 87 104 22
4371 87 37 85
4372 87 73 18
4373 87 189 49
4374 87 83 40
4375 87 41 84
4376 87 63 37
4377 87 175 14
4378 87 159 68
4379 87 13 3
4380 87 137 17
4381 87 184 36
4382 87 161 45
4383 87 110 75
4384 87 96 38
4385 87 145 8
4386 87 162 65
4387 87 20 45
4388 87 177 78
4389 87 5 82
4390 87 70 30
4391 87 62 42
4392 87 153 52
4393 87 10 48
4394 87 109 31
4395 87 69 44
4396 87 29 21
4397 87 118 36
4398 87 74 83
4399 87 128 32
4400 87 129 61
4401 87 77 99
4402 87 100 59
4403 87 33 98
4404 87 45 94
4405 87 127 76
4406 87 86 43
4407 87 43 5
4408 87 101 58
4409 87 38 93
4410 87 190 54
4411 87 172 88
4412 88 174 47
4413 88 33 100
4414 88 41 100
4415 88 183 42
4416 88 89 59
4417 88 32 29
4418 88 143 63
4419 88 192 33
4420 88 184 72
4421 88 142 96
4422 88 29 94
4423 88 128 46
4424 88 144 94
4425 88 25 96
4426 88 6 20
4427 88 15 43
4428 88 139 10
4429 88 126 22
4430 88 56 22
4431 88 135 43
4432 88 28 96
4433 88 91 71
4434 88 23 38
4435 88 86 54
4436 88 145 59
4437 88 108 76
4438 88 83 82
4439 88 62 7
4440 88 27 11
4441 88 31 85
4442 88 105 63
4443 88 99 42
4444 88 5 99
4445 88 17 22
4446 88 38 21
4447 88 36 62
4448 88 14 76
4449 88 43 97
4450 88 92 82
4451 88 171 23
4452 89 143 80
4453 89 2 36
4454 89 8 73
4455 89 124 88
4456 89 28 98
4457 89 72 55
4458 89 49 42
4459 89 18 21
4460 89 47 27
4461 89 169 80
4462 89 55 51
4463 89 193 64
4464 89 130 33
4465 89 157 87
4466 89 106 75
4467 89 15 73
4468 89 126 79
4469 89 189 7
4470 89 194 19
4471 89 23 8
4472 89 74 29
4473 89 76 86
4474 89 22 67
4475 89 104 44
4476 89 97 35
4477 89 141 5
4478 89 107 57
4479 89 79 1
4480 89 183 8
4481 89 160 72
4482 89 125 34
4483 89 54 98
4484 89 134 12
4485 89 152 44
4486 89 168 74
4487 89 170 92
4488 89 66 11
4489 89 0 17
4490 89 98 37
4491 89 118 19
4492 89 117 54
4493 90 198 73
4494 90 20 95
4495 90 181 41
4496 90 57 61
4497 90 165 41
4498 90 26 29
4499 90 151 89
4500 90 175 70
4501 90 44 44
4502 90 61 9
4503 90 119 91
4504 90 186 26
4505 90 2 87
4506 90 56 78
4507 90 98 62
4508 90 130 49
4509 90 65 91
4510 90 192 32
4511 90 135 43
4512 90 176 21
4513 90 153 79
4514 90 101 37
4515 90 167 54
4516 90 9 10
4517 90 126 40
4518 90 50 17
4519 90 32 93
4520 90 22 56
4521 90 107 96
4522 90 110 22
4523 90 195 3
4524 90 100 35
4525 90 145 8
4526 90 136 66
4527 90 122 46
4528 90 172 19
4529 90 111 3
4530 90 11 51
4531 90 7 32
4532 90 102 27
4533 90 59 34
4534 90 160 53
4535 90 67 10
4536 90 70 9
4537 90 25 68
4538 90 86 77
4539 90 154 64
4540 91 116 68
4541 91 15 64
4542 91 88 25
4543 91 32 58
4544 91 39 19
4545 91 145 67
4546 91 165 23
4547 91 99 84
4548 91 148 49
4549 91 108 45
4550 91 163 78
4551 91 16 25
4552 91 154 85
4553 91 188 28
4554 91 198 89
4555 91 22 65
4556 91 162 6
4557 91 81 37
4558 91 18 14
4559 91 149 92
4560 91 23 79
4561 91 63 9
4562 91 109 62
4563 91 155 11
4564 91 56 50
4565 91 175 7
4566 91 164 32
4567 91 6 26
4568 91 35 95
4569 91 66 87
4570 91 107 30
4571 91 76 8
4572 91 43 65
4573 91 127 48
4574 91 170 38
4575 91 147 37
4576 91 1 12
4577 91 136 68
4578 91 80 84
4579 91 113 39
4580 91 103 32
4581 91 78 54
4582 91 64 84
4583 91 7 56
4584 91 36 7
4585 91 141 86
4586 91 102 24
4587 91 159 87
4588 91 86 3
4589 92 58 81
4590 92 112 78
4591 92 114 26
4592 92 147 12
4593 92 168 29
4594 92 81 61
4595 92 163 71
4596 92 74 70
4597 92 78 7
4598 92 50 94
4599 92 36 21
4600 92 52 88
4601 92 3 9
4602 92 66 5
4603 92 122 75
4604 92 184 31
4605 92 87 54
4606 92 111 63
4607 92 70 93
4608 92 45 93
4609 92 103 53
4610 92 125 64
4611 92 177 59
4612 92 198 60
4613 92 196 59
4614 92 148 31
4615 92 73 54
4616 92 132 44
4617 92 59 98
4618 92 83 59
4619 92 76 49
4620 92 20 40
4621 92 62 46
4622 92 124 45
4623 92 82 39
4624 92 118 43
4625 92 60 80
4626 92 7 8
4627 92 149 27
4628 92 174 33
4629 92 183 65
4630 92 8 15
4631 92 77 79
4632 92 117 43
4633 92 173 90
4634 92 165 33
4635 92 157 26
4636 92 187 46
4637 92 154 99
4638 92 164 95
4639 92 188 93
4640 92 143 15
4641 92 40 14
4642 92 88 7
4643 92 158 18
4644 92 150 49
4645 93 101 80
4646 93 144 27
4647 93 103 74
4648 93 170 41
4649 93 171 48
4650 93 98 27
4651 93 12 31
4652 93 163 7
4653 93 2 69
4654 93 178 80
4655 93 195 94
4656 93 63 97
4657 93 62 18
4658 93 182 25
4659 93 59 89
4660 93 54 32
4661 93 129 25
4662 93 115 84
4663 93 46 11
4664 93 6 27
4665 93 172 47
4666 93 61 87
4667 93 50 96
4668 93 37 9
4669 93 134 40
4670 93 7 84
4671 93 90 67
4672 93 19 41
4673 93 188 44
4674 93 119 96
4675 93 95 4
4676 93 198 60
4677 93 143 3
4678 93 85 19
4679 93 69 49
4680 93 66 33
4681 93 91 3
4682 93 102 56
4683 93 10 18
4684 93 142 55
4685 93 20 2
4686 93 11 50
4687 93 187 57
4688 93 128 37
4689 93 43 92
4690 93 55 14
4691 93 155 41
4692 93 36 81
4693 93 127 16
4694 93 146 96
4695 93 92 39
4696 93 153 40
4697 93 165 65
4698 93 150 62
4699 93 86 56
4700 93 31 21
4701 93 48 14
4702 94 71 54
4703 94 59 37
4704 94 90 72
4705 94 144 32
4706 94 5 95
4707 94 198 33
4708 94 186 85
4709 94 83 18
4710 94 86 59
4711 94 12 90
4712 94 148 75
4713 94 195 59
4714 94 199 32
4715 94 70 7
4716 94 102 23
4717 94 11 75
4718 94 38 37
4719 94 85 7
4720 94 125 56
4721 94 30 73
4722 94 63 42
4723 94 189 62
4724 94 76 22
4725 94 155 45
4726 94 113 22
4727 94 1 86
4728 94 37 5
4729 94 112 21
4730 94 103 30
4731 94 147 95
4732 94 17 100
4733 94 139 47
4734 94 88 65
4735 94 162 80
4736 94 122 27
4737 94 110 59
4738 94 168 60
4739 94 31 99
4740 94 180 15
4741 94 18 21
4742 94 72 48
4743 94 52 70
4744 94 105 24
4745 94 179 69
4746 95 57 34
4747 95 184 68
4748 95 147 99
4749 95 137 72
4750 95 176 78
4751 95 22 11
4752 95 199 76
4753 95 5 86
4754 95 198 92
4755 95 55 76
4756 95 124 39
4757 95 50 78
4758 95 33 46
4759 95 17 11
4760 95 128 50
4761 95 96 87
4762 95 26 93
4763 95 151 43
4764 95 113 80
4765 95 108 75
4766 95 93 9
4767 95 47 96
4768 95 132 91
4769 95 155 90
4770 95 156 75
4771 95 53 36
4772 95 119 41
4773 95 182 51
4774 95 179 85
4775 95 175 38
4776 95 0 39
4777 95 129 56
4778 95 82 33
4779 95 74 99
4780 95 41 42
4781 95 71 19
4782 95 172 31
4783 95 187 75
4784 95 195 1
4785 95 177 4
4786 95 125 34
4787 95 192 10
4788 95 105 48
4789 95 103 22
4790 95 168 39
4791 95 117 20
4792 95 160 95
4793 95 97 68
4794 95 9 49
4795 96 5 64
4796 96 155 69
4797 96 42 47
4798 96 159 43
4799 96 46 33
4800 96 69 64
4801 96 196 2
4802 96 19 9
4803 96 94 65
4804 96 41 76
4805 96 65 61
4806 96 157 98
4807 96 140 63
4808 96 147 77
4809 96 194 88
4810 96 21 45
4811 96 164 98
4812 96 81 6
4813 96 156 16
4814 96 25 88
4815 96 0 39
4816 96 67 49
4817 96 8 58
4818 96 188 6
4819 96 13 96
4820 96 187 79
4821 96 130 87
4822 96 3 97
4823 96 74 30
4824 96 162 55
4825 96 93 63
4826 96 134 19
4827 96 4 98
4828 96 119 83
4829 96 190 44
4830 96 141 6
4831 96 108 96
4832 96 153 17
4833 96 84 65
4834 96 36 90
4835 96 146 4
4836 96 144 8
4837 96 92 89
4838 96 168 40
4839 96 122 86
4840 96 166 10
4841 96 78 60
4842 96 63 62
4843 96 7 92
4844 96 193 5
4845 96 150 82
4846 96 56 64
4847 96 40 31
4848 96 183 35
4849 96 64 90
4850 96 77 55
4851 96 73 6
4852 97 161 87
4853 97 142 32
4854 97 67 14
4855 97 16 53
4856 97 101 13
4857 97 192 29
4858 97 49 85
4859 97 193 39
4860 97 134 2
4861 97 9 96
4862 97 147 63
4863 97 1 76
4864 97 72 80
4865 97 3 17
4866 97 25 88
4867 97 156 96
4868 97 15 12
4869 97 75 50
4870 97 31 35
4871 97 154 45
4872 97 2 62
4873 97 153 42
4874 97 167 23
4875 97 198 63
4876 97 45 45
4877 97 164 37
4878 97 176 83
4879 97 158 23
4880 97 37 92
4881 97 11 65
4882 97 115 92
4883 97 135 86
4884 97 177 26
4885 97 190 17
4886 97 181 98
4887 97 46 72
4888 97 136 97
4889 97 155 52
4890 97 197 63
4891 97 30 88
4892 97 182 65
4893 97 43 44
4894 97 171 12
4895 97 109 46
4896 97 96 88
4897 97 78 7
4898 97 51 55
4899 98 100 51
4900 98 34 67
4901 98 44 66
4902 98 88 9
4903 98 69 45
4904 98 24 46
4905 98 96 96
4906 98 13 60
4907 98 64 15
4908 98 67 89
4909 98 46 42
4910 98 26 47
4911 98 162 54
4912 98 76 87
4913 98 178 54
4914 98 103 11
4915 98 181 54
4916 98 63 54
4917 98 183 72
4918 98 56 75
4919 98 166 39
4920 98 161 6
4921 98 112 73
4922 98 110 31
4923 98 62 54
4924 98 43 96
4925 98 19 31
4926 98 158 50
4927 98 125 33
4928 98 140 53
4929 98 48 82
4930 98 175 2
4931 98 117 44
4932 98 143 73
4933 98 128 48
4934 98 21 41
4935 98 116 16
4936 98 4 90
4937 98 163 53
4938 98 169 15
4939 98 1 10
4940 98 195 29
4941 98 7 27
4942 98 75 76
4943 98 191 43
4944 98 38 54
4945 98 198 25
4946 98 55 24
4947 99 138 17
4948 99 24 34
4949 99 18 48
4950 99 183 10
4951 99 62 66
4952 99 172 20
4953 99 191 48
4954 99 163 51
4955 99 194 78
4956 99 65 52
4957 99 89 9
4958 99 39 76
4959 99 113 17
4960 99 178 11
4961 99 133 19
4962 99 120 83
4963 99 190 91
4964 99 104 55
4965 99 132 73
4966 99 31 58
4967 99 49 95
4968 99 156 40
4969 99 167 72
4970 99 126 98
4971 99 27 90
4972 99 17 50
4973 99 154 75
4974 99 57 63
4975 99 90 71
4976 99 102 39
4977 99 50 68
4978 99 72 62
4979 99 84 74
4980 99 86 97
4981 99 29 65
4982 99 151 81
4983 99 55 78
4984 99 83 53
4985 99 96 95
4986 99 168 26
4987 99 25 11
4988 99 147 74
4989 99 174 55
4990 99 123 29
4991 99 69 8
4992 99 73 45
4993 99 141 21
4994 99 112 64
4995 99 13 81
4996 99 149 7
4997 99 186 34
4998 99 150 91
4999 99 34 27
5000 99 135 50
5001 99 8 74
5002 99 33 24
5003 99 21 24
5004 99 16 98
5005 99 142 45
5006 99 20 73
5007 99 26 94
5008 99 134 11
5009 99 107 55
5010 100 94 33
5011 100 73 18
5012 100 125 31
5013 100 41 1
5014 100 39 16
5015 100 50 18
5016 100 98 62
5017 100 45 37
5018 100 91 52
5019 100 86 76
5020 100 2 92
5021 100 32 99
5022 100 173 2
5023 100 106 15
5024 100 155 63
5025 100 36 50
5026 100 149 27
5027 100 175 14
5028 100 151 97
5029 100 43 78
5030 100 72 12
5031 100 33 74
5032 100 196 65
5033 100 60 55
5034 100 10 32
5035 100 61 60
5036 100 111 88
5037 100 131 84
5038 100 47 3
5039 100 80 68
5040 100 137 47
5041 100 160 86
5042 100 169 45
5043 100 76 29
5044 100 40 50
5045 100 122 1
5046 100 176 54
5047 100 136 20
5048 100 194 23
5049 100 118 25
5050 100 82 2
5051 100 168 53
5052 100 156 25
5053 100 48 45
5054 100 77 54
5055 100 116 61
5056 100 67 27
5057 100 12 83
5058 100 7 95
5059 100 132 46
5060 100 87 63
5061 100 143 59
5062 100 59 48
5063 100 24 51
5064 100 110 80
5065 101 149 94
5066 101 25 38
5067 101 175 22
5068 101 78 99
5069 101 145 78
5070 101 99 67
5071 101 138 40
5072 101 136 9
5073 101 124 1
5074 101 3 39
5075 101 47 2
5076 101 170 91
5077 101 68 5
5078 101 193 28
5079 101 165 96
5080 101 114 21
5081 101 186 61
5082 101 12 27
5083 101 61 3
5084 101 103 28
5085 101 111 97
5086 101 140 17
5087 101 183 40
5088 101 30 99
5089 101 50 68
5090 101 146 23
5091 101 91 91
5092 101 178 57
5093 101 122 39
5094 101 180 89
5095 101 74 49
5096 101 139 27
5097 101 79 96
5098 101 9 42
5099 101 191 17
5100 101 185 88
5101 101 63 93
5102 101 131 30
5103 101 144 44
5104 101 128 53
5105 101 156 11
5106 101 40 15
5107 101 110 72
5108 101 94 66
5109 101 8 89
5110 101 126 97
5111 101 92 20
5112 101 11 2
5113 102 157 32
5114 102 152 70
5115 102 174 1
5116 102 169 88
5117 102 58 55
5118 102 76 87
5119 102 146 91
5120 102 89 93
5121 102 72 75
5122 102 191 43
5123 102 74 65
5124 102 95 86
5125 102 35 53
5126 102 145 18
5127 102 114 85
5128 102 168 9
5129 102 13 72
5130 102 50 43
5131 102 32 26
5132 102 64 84
5133 102 38 86
5134 102 179 9
5135 102 142 91
5136 102 37 14
5137 102 175 13
5138 102 61 84
5139 102 12 21
5140 102 33 65
5141 102 82 98
5142 102 137 11
5143 102 123 60
5144 102 198 63
5145 102 53 78
5146 102 81 4
5147 102 196 27
5148 102 166 82
5149 102 44 51
5150 102 118 55
5151 102 91 50
5152 102 27 51
5153 102 195 30
5154 102 133 51
5155 102 130 84
5156 102 109 93
5157 102 22 79
5158 102 4 39
5159 102 71 62
5160 102 65 23
5161 102 154 65
5162 102 161 10
5163 102 116 84
5164 102 10 32
5165 102 49 21
5166 102 43 54
5167 102 34 42
5168 102 96 75
5169 102 125 66
5170 102 160 36
5171 102 111 44
5172 102 140 2
5173 102 24 25
5174 102 97 26
5175 103 35 88
5176 103 7 63
5177 103 14 79
5178 103 29 7
5179 103 146 92
5180 103 116 23
5181 103 0 86
5182 103 110 85
5183 103 66 77
5184 103 191 36
5185 103 147 4
5186 103 43 29
5187 103 141 63
5188 103 120 47
5189 103 150 28
5190 103 180 45
5191 103 118 82
5192 103 2 89
5193 103 24 26
5194 103 8 86
5195 103 74 96
5196 103 48 14
5197 103 67 85
5198 103 144 26
5199 103 73 20
5200 103 104 91
5201 103 198 33
5202 103 148 95
5203 103 52 44
5204 103 139 17
5205 103 34 89
5206 103 152 58
5207 103 127 89
5208 103 98 43
5209 103 132 54
5210 103 197 58
5211 103 124 13
5212 103 9 75
5213 103 84 81
5214 103 137 44
5215 103 112 7
5216 103 177 94
5217 103 11 32
5218 103 172 7
5219 103 117 48
5220 103 106 52
5221 103 174 65
5222 103 83 59
5223 103 76 72
5224 103 122 8
5225 103 26 59
5226 103 72 9
5227 103 123 17
5228 103 105 90
5229 103 165 99
5230 103 178 51
5231 103 140 43
5232 103 70 20
5233 103 135 37
5234 104 124 80
5235 104 37 38
5236 104 40 70
5237 104 44 78
5238 104 150 10
5239 104 191 65
5240 104 29 46
5241 104 83 21
5242 104 1 93
5243 104 67 77
5244 104 139 65
5245 104 6 31
5246 104 136 65
5247 104 102 65
5248 104 100 22
5249 104 152 1
5250 104 72 92
5251 104 45 10
5252 104 71 42
5253 104 49 16
5254 104 164 36
5255 104 140 76
5256 104 138 60
5257 104 43 57
5258 104 118 64
5259 104 160 53
5260 104 108 35
5261 104 187 74
5262 104 173 12
5263 104 85 32
5264 104 51 52
5265 104 48 93
5266 104 181 11
5267 104 95 53
5268 104 130 46
5269 104 105 57
5270 104 92 53
5271 104 189 45
5272 104 163 18
5273 104 91 66
5274 104 17 22
5275 104 62 18
5276 104 143 91
5277 104 76 97
5278 104 157 50
5279 104 148 14
5280 104 54 73
5281 104 3 84
5282 104 30 42
5283 104 141 85
5284 104 46 35
5285 104 2 91
5286 104 174 73
5287 104 182 86
5288 104 170 4
5289 104 153 17
5290 104 88 73
5291 105 151 40
5292 105 187 72
5293 105 130 34
5294 105 56 75
5295 105 172 100
5296 105 168 38
5297 105 27 25
5298 105 55 86
5299 105 118 96
5300 105 19 33
5301 105 147 95
5302 105 65 41
5303 105 81 59
5304 105 115 62
5305 105 145 53
5306 105 192 51
5307 105 121 10
5308 105 38 93
5309 105 144 31
5310 105 186 70
5311 105 15 69
5312 105 132 56
5313 105 173 44
5314 105 179 81
5315 105 152 44
5316 105 66 3
5317 105 162 100
5318 105 89 95
5319 105 194 5
5320 105 110 91
5321 105 102 75
5322 105 84 12
5323 105 141 90
5324 105 153 48
5325 105 34 77
5326 105 193 45
5327 105 103 93
5328 105 45 52
5329 105 177 96
5330 105 36 57
5331 105 29 66
5332 105 21 25
5333 105 133 19
5334 105 6 27
5335 105 107 73
5336 105 108 90
5337 105 79 84
5338 105 33 95
5339 105 195 98
5340 105 1 47
5341 105 70 97
5342 105 78 76
5343 105 125 97
5344 105 191 25
5345 106 194 50
5346 106 85 2
5347 106 100 15
5348 106 88 75
5349 106 129 100
5350 106 190 37
5351 106 59 12
5352 106 60 20
5353 106 109 82
5354 106 120 59
5355 106 101 4
5356 106 32 54
5357 106 33 50
5358 106 185 14
5359 106 135 72
5360 106 97 100
5361 106 159 42
5362 106 96 86
5363 106 105 30
5364 106 76 53
5365 106 24 5
5366 106 30 91
5367 106 23 68
5368 106 56 64
5369 106 108 69
5370 106 126 6
5371 106 2 57
5372 106 67 18
5373 106 91 1
5374 106 26 86
5375 106 70 18
5376 106 37 4
5377 106 78 29
5378 106 4 82
5379 106 53 92
5380 106 175 28
5381 106 177 71
5382 106 115 71
5383 106 0 13
5384 106 25 9
5385 106 170 21
5386 106 81 2
5387 106 19 98
5388 106 22 74
5389 106 137 80
5390 106 182 55
5391 106 58 51
5392 106 189 62
5393 106 118 55
5394 106 130 29
5395 107 18 57
5396 107 135 21
5397 107 173 3
5398 107 90 26
5399 107 51 83
5400 107 20 57
5401 107 148 29
5402 107 196 38
5403 107 53 100
5404 107 5 33
5405 107 164 65
5406 107 17 29
5407 107 180 49
5408 107 137 47
5409 107 66 54
5410 107 190 62
5411 107 115 1
5412 107 191 59
5413 107 192 82
5414 107 179 13
5415 107 138 75
5416 107 49 81
5417 107 124 90
5418 107 103 1
5419 107 82 45
5420 107 123 52
5421 107 127 85
5422 107 125 42
5423 107 50 63
5424 107 154 37
5425 107 24 25
5426 107 182 76
5427 107 71 53
5428 107 12 63
5429 107 2 62
5430 107 35 5
5431 107 155 41
5432 107 152 34
5433 107 60 51
5434 107 119 58
5435 107 19 26
5436 107 197 77
5437 107 26 32
5438 107 169 10
5439 107 44 51
5440 107 146 33
5441 107 79 93
5442 107 142 77
5443 107 67 1
5444 107 85 76
5445 107 48 96
5446 107 163 44
5447 107 70 35
5448 107 6 55
5449 107 193 71
5450 107 198 84
5451 107 168 69
5452 107 9 64
5453 107 195 96
5454 107 84 31
5455 108 68 92
5456 108 79 85
5457 108 6 7
5458 108 109 97
5459 108 104 46
5460 108 193 67
5461 108 151 65
5462 108 143 55
5463 108 196 69
5464 108 127 16
5465 108 149 8
5466 108 34 21
5467 108 122 43
5468 108 1 28
5469 108 153 13
5470 108 197 18
5471 108 148 76
5472 108 70 23
5473 108 30 55
5474 108 23 54
5475 108 65 17
5476 108 157 41
5477 108 185 35
5478 108 16 64
5479 108 141 100
5480 108 63 66
5481 108 123 7
5482 108 132 88
5483 108 28 5
5484 108 83 73
5485 108 155 42
5486 108 35 67
5487 108 146 7
5488 108 61 40
5489 108 72 2
5490 108 5 12
5491 108 93 100
5492 108 124 38
5493 108 77 50
5494 108 114 16
5495 108 129 41
5496 108 37 78
5497 108 82 60
5498 108 184 99
5499 108 44 94
5500 108 41 2
5501 108 102 6
5502 108 71 4
5503 108 144 10
5504 108 18 75
5505 108 186 86
5506 108 66 8
5507 108 105 5
5508 109 176 58
5509 109 36 27
5510 109 162 67
5511 109 131 65
5512 109 65 41
5513 109 155 33
5514 109 199 51
5515 109 8 57
5516 109 84 98
5517 109 7 91
5518 109 76 30
5519 109 148 81
5520 109 49 40
5521 109 63 94
5522 109 48 64
5523 109 87 37
5524 109 52 32
5525 109 100 52
5526 109 140 97
5527 109 27 74
5528 109 30 30
5529 109 122 74
5530 109 10 82
5531 109 178 5
5532 109 168 71
5533 109 154 78
5534 109 44 36
5535 109 60 14
5536 109 124 27
5537 109 149 14
5538 109 119 74
5539 109 54 68
5540 109 194 41
5541 109 177 74
5542 109 90 49
5543 109 34 64
5544 109 1 9
5545 109 158 68
5546 109 138 29
5547 109 139 19
5548 109 147 14
5549 109 20 26
5550 109 81 2
5551 109 38 45
5552 109 135 38
5553 109 133 17
5554 109 68 85
5555 109 126 70
5556 109 33 82
5557 109 19 33
5558 110 107 84
5559 110 142 91
5560 110 53 23
5561 110 77 46
5562 110 25 81
5563 110 64 9
5564 110 183 14
5565 110 90 12
5566 110 49 75
5567 110 146 84
5568 110 11 6
5569 110 125 26
5570 110 40 97
5571 110 70 46
5572 110 163 77
5573 110 0 39
5574 110 55 96
5575 110 99 2
5576 110 123 74
5577 110 85 38
5578 110 115 22
5579 110 145 85
5580 110 113 74
5581 110 111 37
5582 110 152 9
5583 110 149 24
5584 110 186 41
5585 110 34 73
5586 110 127 58
5587 110 59 80
5588 110 26 80
5589 110 17 95
5590 110 174 76
5591 110 83 5
5592 110 97 94
5593 110 168 88
5594 110 177 30
5595 110 160 98
5596 110 188 99
5597 110 92 18
5598 110 101 32
5599 110 14 72
5600 110 169 70
5601 110 89 91
5602 110 193 58
5603 110 114 87
5604 110 103 54
5605 111 110 60
5606 111 68 50
5607 111 9 56
5608 111 54 5
5609 111 30 81
5610 111 181 50
5611 111 40 22
5612 111 127 94
5613 111 63 68
5614 111 37 74
5615 111 160 41
5616 111 122 10
5617 111 76 26
5618 111 69 100
5619 111 192 40
5620 111 158 3
5621 111 194 83
5622 111 19 28
5623 111 33 73
5624 111 164 79
5625 111 2 61
5626 111 189 71
5627 111 169 28
5628 111 108 69
5629 111 74 60
5630 111 88 37
5631 111 153 38
5632 111 23 86
5633 111 89 90
5634 111 82 84
5635 111 157 25
5636 111 199 3
5637 111 61 68
5638 111 156 13
5639 111 198 66
5640 111 147 26
5641 111 18 53
5642 111 79 31
5643 111 167 21
5644 111 27 89
5645 111 15 97
5646 111 97 73
5647 111 70 86
5648 111 129 27
5649 111 174 82
5650 111 53 80
5651 111 45 88
5652 111 59 58
5653 111 1 91
5654 111 47 2
5655 111 104 24
5656 111 103 50
5657 111 90 97
5658 111 140 49
5659 112 19 32
5660 112 13 66
5661 112 72 22
5662 112 122 1
5663 112 127 61
5664 112 116 16
5665 112 110 45
5666 112 137 40
5667 112 166 72
5668 112 73 11
5669 112 43 71
5670 112 190 42
5671 112 20 16
5672 112 168 29
5673 112 107 29
5674 112 87 14
5675 112 40 10
5676 112 170 61
5677 112 48 66
5678 112 121 54
5679 112 173 8
5680 112 115 44
5681 112 96 57
5682 112 187 58
5683 112 149 52
5684 112 180 58
5685 112 58 64
5686 112 139 10
5687 112 21 76
5688 112 191 18
5689 112 185 91
5690 112 194 86
5691 112 188 72
5692 112 6 71
5693 112 0 78
5694 112 7 18
5695 112 93 98
5696 112 45 5
5697 112 104 30
5698 112 70 8
5699 112 101 20
5700 112 89 68
5701 112 198 57
5702 113 180 41
5703 113 56 57
5704 113 118 35
5705 113 58 5
5706 113 163 46
5707 113 68 65
5708 113 190 80
5709 113 166 97
5710 113 37 24
5711 113 130 31
5712 113 133 87
5713 113 26 2
5714 113 110 27
5715 113 199 54
5716 113 108 2
5717 113 78 49
5718 113 7 57
5719 113 136 63
5720 113 192 68
5721 113 49 62
5722 113 105 15
5723 113 29 77
5724 113 0 83
5725 113 109 22
5726 113 101 35
5727 113 64 98
5728 113 40 77
5729 113 3 61
5730 113 6 85
5731 113 131 23
5732 113 55 49
5733 113 164 42
5734 113 137 44
5735 113 89 97
5736 113 82 60
5737 113 189 9
5738 113 111 25
5739 113 102 52
5740 113 196 37
5741 113 184 74
5742 113 112 54
5743 113 21 62
5744 113 93 34
5745 113 150 90
5746 113 124 47
5747 113 27 13
5748 113 70 89
5749 113 126 96
5750 113 95 40
5751 113 152 41
5752 113 191 30
5753 113 38 58
5754 113 53 46
5755 113 23 98
5756 113 167 23
5757 113 193 46
5758 113 148 57
5759 114 138 93
5760 114 49 39
5761 114 113 39
5762 114 52 87
5763 114 94 67
5764 114 145 69
5765 114 17 19
5766 114 10 42
5767 114 21 18
5768 114 152 93
5769 114 140 54
5770 114 107 84
5771 114 126 78
5772 114 196 74
5773 114 44 7
5774 114 0 91
5775 114 157 15
5776 114 163 67
5777 114 14 47
5778 114 148 14
5779 114 3 98
5780 114 106 14
5781 114 120 15
5782 114 143 41
5783 114 58 95
5784 114 187 56
5785 114 178 61
5786 114 134 32
5787 114 45 30
5788 114 31 70
5789 114 77 45
5790 114 70 10
5791 114 20 41
5792 114 61 59
5793 114 64 55
5794 114 39 37
5795 114 5 95
5796 114 180 54
5797 114 151 64
5798 114 78 5
5799 114 9 84
5800 114 103 48
5801 114 11 8
5802 114 150 85
5803 114 198 53
5804 114 65 97
5805 114 55 69
5806 114 132 2
5807 114 169 78
5808 115 61 70
5809 115 82 26
5810 115 145 65
5811 115 33 95
5812 115 140 27
5813 115 72 9
5814 115 146 75
5815 115 127 29
5816 115 20 34
5817 115 170 56
5818 115 118 42
5819 115 43 90
5820 115 0 8
5821 115 185 23
5822 115 166 98
5823 115 156 63
5824 115 66 41
5825 115 119 66
5826 115 159 55
5827 115 117 7
5828 115 172 32
5829 115 154 81
5830 115 15 39
5831 115 142 96
5832 115 194 96
5833 115 7 45
5834 115 62 49
5835 115 112 26
5836 115 102 89
5837 115 67 31
5838 115 174 27
5839 115 128 100
5840 115 199 70
5841 115 9 74
5842 115 89 20
5843 115 39 32
5844 115 191 39
5845 115 162 80
5846 115 22 47
5847 115 16 18
5848 115 46 36
5849 115 42 99
5850 115 52 42
5851 115 161 58
5852 115 141 7
5853 115 160 44
5854 115 133 10
5855 115 114 41
5856 116 19 44
5857 116 74 93
5858 116 85 61
5859 116 48 68
5860 116 102 82
5861 116 70 18
5862 116 103 52
5863 116 93 25
5864 116 12 69
5865 116 46 70
5866 116 26 1
5867 116 78 82
5868 116 34 26
5869 116 68 22
5870 116 66 35
5871 116 189 87
5872 116 4 95
5873 116 42 19
5874 116 129 60
5875 116 166 12
5876 116 15 49
5877 116 40 15
5878 116 107 86
5879 116 11 68
5880 116 24 96
5881 116 13 86
5882 116 162 50
5883 116 73 99
5884 116 181 21
5885 116 191 92
5886 116 104 89
5887 116 51 66
5888 116 29 81
5889 116 109 49
5890 116 76 75
5891 116 87 60
5892 116 172 95
5893 116 25 33
5894 116 195 62
5895 116 173 54
5896 116 152 93
5897 116 112 24
5898 116 23 28
5899 116 185 81
5900 116 60 61
5901 116 169 4
5902 116 84 27
5903 116 39 88
5904 116 150 72
5905 116 90 45
5906 116 88 84
5907 116 182 36
5908 116 157 61
5909 116 111 72
5910 116 156 97
5911 116 183 57
5912 116 83 97
5913 116 35 89
5914 116 176 24
5915 116 96 53
5916 117 124 68
5917 117 43 13
5918 117 96 74
5919 117 91 25
5920 117 192 16
5921 117 47 79
5922 117 57 20
5923 117 86 23
5924 117 17 93
5925 117 131 74
5926 117 128 36
5927 117 132 12
5928 117 189 99
5929 117 171 92
5930 117 46 23
5931 117 79 90
5932 117 13 29
5933 117 37 18
5934 117 10 66
5935 117 92 97
5936 117 134 90
5937 117 22 1
5938 117 161 98
5939 117 61 51
5940 117 72 24
5941 117 6 45
5942 117 5 31
5943 117 121 88
5944 117 50 75
5945 117 173 33
5946 117 1 94
5947 117 25 13
5948 117 106 65
5949 117 123 47
5950 117 31 36
5951 117 179 44
5952 117 89 48
5953 117 88 36
5954 117 144 9
5955 117 77 70
5956 117 40 79
5957 117 111 22
5958 117 19 41
5959 117 53 69
5960 117 60 68
5961 117 49 31
5962 117 198 11
5963 117 23 34
5964 117 18 99
5965 117 38 1
5966 117 85 7
5967 117 110 30
5968 118 92 45
5969 118 152 52
5970 118 169 29
5971 118 136 4
5972 118 112 26
5973 118 85 21
5974 118 188 65
5975 118 126 20
5976 118 30 56
5977 118 3 61
5978 118 191 25
5979 118 82 42
5980 118 55 86
5981 118 97 39
5982 118 119 79
5983 118 94 2
5984 118 194 40
5985 118 179 58
5986 118 163 75
5987 118 124 97
5988 118 44 70
5989 118 52 49
5990 118 131 47
5991 118 134 57
5992 118 140 13
5993 118 168 55
5994 118 45 65
5995 118 190 75
5996 118 31 92
5997 118 116 56
5998 118 6 84
5999 118 170 18
6000 118 9 12
6001 118 175 25
6002 118 113 19
6003 118 120 100
6004 118 189 95
6005 118 178 47
6006 118 51 8
6007 118 5 68
6008 118 15 54
6009 118 8 23
6010 118 132 70
6011 118 79 53
6012 118 64 69
6013 118 19 41
6014 119 75 50
6015 119 199 38
6016 119 0 81
6017 119 112 27
6018 119 147 39
6019 119 121 57
6020 119 154 50
6021 119 58 7
6022 119 20 88
6023 119 183 88
6024 119 33 68
6025 119 185 69
6026 119 76 23
6027 119 149 27
6028 119 55 3
6029 119 48 74
6030 119 138 22
6031 119 136 47
6032 119 86 70
6033 119 38 57
6034 119 107 23
6035 119 7 67
6036 119 31 77
6037 119 26 84
6038 119 123 82
6039 119 10 38
6040 119 150 51
6041 119 85 60
6042 119 60 86
6043 119 186 28
6044 119 132 51
6045 119 115 27
6046 119 1 10
6047 119 99 51
6048 119 166 26
6049 119 176 32
6050 119 102 3
6051 119 52 71
6052 119 134 38
6053 119 71 50
6054 119 175 6
6055 119 9 14
6056 119 179 61
6057 120 10 21
6058 120 76 96
6059 120 69 51
6060 120 101 20
6061 120 149 66
6062 120 0 99
6063 120 161 2
6064 120 60 31
6065 120 124 27
6066 120 19 90
6067 120 104 52
6068 120 35 40
6069 120 5 78
6070 120 63 7
6071 120 168 66
6072 120 103 37
6073 120 33 86
6074 120 105 64
6075 120 173 37
6076 120 75 74
6077 120 73 11
6078 120 181 81
6079 120 193 12
6080 120 176 56
6081 120 165 31
6082 120 32 33
6083 120 145 84
6084 120 188 91
6085 120 1 29
6086 120 36 88
6087 120 153 5
6088 120 94 30
6089 120 179 13
6090 120 196 8
6091 120 114 92
6092 120 194 89
6093 120 144 13
6094 120 148 50
6095 120 142 53
6096 120 180 31
6097 120 174 99
6098 120 64 49
6099 120 100 56
6100 120 126 23
6101 120 147 97
6102 120 13 19
6103 120 93 68
6104 120 55 36
6105 120 68 47
6106 120 182 41
6107 120 24 40
6108 120 2 10
6109 120 14 38
6110 120 40 97
6111 120 185 1
6112 120 85 69
6113 120 15 82
6114 120 143 43
6115 121 176 59
6116 121 168 79
6117 121 11 49
6118 121 81 20
6119 121 67 21
6120 121 129 74
6121 121 50 46
6122 121 78 10
6123 121 115 98
6124 121 3 14
6125 121 46 82
6126 121 184 1
6127 121 106 66
6128 121 155 40
6129 121 128 68
6130 121 178 55
6131 121 0 11
6132 121 181 5
6133 121 194 49
6134 121 152 94
6135 121 30 100
6136 121 94 54
6137 121 33 96
6138 121 130 6
6139 121 120 95
6140 121 27 85
6141 121 2 8
6142 121 99 24
6143 121 55 50
6144 121 85 1
6145 121 100 38
6146 121 8 54
6147 121 170 76
6148 121 28 3
6149 121 41 82
6150 121 68 14
6151 121 161 57
6152 121 17 34
6153 121 73 79
6154 121 111 85
6155 121 56 43
6156 121 144 26
6157 121 135 66
6158 121 113 82
6159 121 4 80
6160 121 14 14
6161 122 85 93
6162 122 136 49
6163 122 51 18
6164 122 62 40
6165 122 0 36
6166 122 83 10
6167 122 99 4
6168 122 139 54
6169 122 58 50
6170 122 142 81
6171 122 53 63
6172 122 72 70
6173 122 69 70
6174 122 185 37
6175 122 121 41
6176 122 54 61
6177 122 102 29
6178 122 158 19
6179 122 98 10
6180 122 9 56
6181 122 144 45
6182 122 140 8
6183 122 160 23
6184 122 161 88
6185 122 193 36
6186 122 101 20
6187 122 6 28
6188 122 31 100
6189 122 177 68
6190 122 168 74
6191 122 97 25
6192 122 77 45
6193 122 67 35
6194 122 182 96
6195 122 79 33
6196 122 105 2
6197 122 149 59
6198 122 43 10
6199 122 106 9
6200 122 45 83
6201 122 123 2
6202 122 34 88
6203 122 165 60
6204 122 156 97
6205 122 173 22
6206 122 119 79
6207 122 155 67
6208 122 74 48
6209 122 147 4
6210 122 24 22
6211 122 151 32
6212 122 47 85
6213 122 166 85
6214 122 187 4
6215 123 126 45
6216 123 70 82
6217 123 182 96
6218 123 125 4
6219 123 136 55
6220 123 95 56
6221 123 32 57
6222 123 189 13
6223 123 165 33
6224 123 102 70
6225 123 169 44
6226 123 177 30
6227 123 10 29
6228 123 84 85
6229 123 14 26
6230 123 13 100
6231 123 168 16
6232 123 85 64
6233 123 141 98
6234 123 30 11
6235 123 29 33
6236 123 47 59
6237 123 174 74
6238 123 87 98
6239 123 4 41
6240 123 34 46
6241 123 199 33
6242 123 107 95
6243 123 144 9
6244 123 147 22
6245 123 8 73
6246 123 40 71
6247 123 58 89
6248 123 122 22
6249 123 172 38
6250 123 155 97
6251 123 98 98
6252 123 135 75
6253 123 140 23
6254 123 184 21
6255 123 139 1
6256 123 43 24
6257 123 74 65
6258 123 1 86
6259 123 166 71
6260 123 151 10
6261 123 57 46
6262 123 134 84
6263 123 21 24
6264 123 179 7
6265 123 71 66
6266 124 157 76
6267 124 11 88
6268 124 71 46
6269 124 3 18
6270 124 63 15
6271 124 43 57
6272 124 74 51
6273 124 130 71
6274 124 145 1
6275 124 86 16
6276 124 151 21
6277 124 1 54
6278 124 109 78
6279 124 10 56
6280 124 147 22
6281 124 34 43
6282 124 113 6
6283 124 115 42
6284 124 91 98
6285 124 175 8
6286 124 140 62
6287 124 21 95
6288 124 31 30
6289 124 46 92
6290 124 154 18
6291 124 0 36
6292 124 174 96
6293 124 143 77
6294 124 87 9
6295 124 171 30
6296 124 78 77
6297 124 26 38
6298 124 68 31
6299 124 191 7
6300 124 92 32
6301 124 79 89
6302 124 19 97
6303 124 197 22
6304 124 40 47
6305 124 196 6
6306 124 104 95
6307 124 146 97
6308 124 186 22
6309 124 93 63
6310 124 65 33
6311 124 153 77
6312 124 180 51
6313 125 185 20
6314 125 70 31
6315 125 123 72
6316 125 20 30
6317 125 94 65
6318 125 130 37
6319 125 54 38
6320 125 31 7
6321 125 74 98
6322 125 175 87
6323 125 129 30
6324 125 67 62
6325 125 165 83
6326 125 30 51
6327 125 65 46
6328 125 16 33
6329 125 76 27
6330 125 192 77
6331 125 154 75
6332 125 55 76
6333 125 22 35
6334 125 89 20
6335 125 158 94
6336 125 109 72
6337 125 140 97
6338 125 184 46
6339 125 164 95
6340 125 84 68
6341 125 63 3
6342 125 177 25
6343 125 119 29
6344 125 148 4
6345 125 156 67
6346 125 42 53
6347 125 50 82
6348 125 196 33
6349 125 170 13
6350 125 172 37
6351 125 159 72
6352 125 33 53
6353 125 103 84
6354 125 111 32
6355 125 37 17
6356 125 35 76
6357 125 11 84
6358 126 161 6
6359 126 42 66
6360 126 26 41
6361 126 102 3
6362 126 52 43
6363 126 176 8
6364 126 36 97
6365 126 51 35
6366 126 19 86
6367 126 46 66
6368 126 93 64
6369 126 162 85
6370 126 158 14
6371 126 50 43
6372 126 110 75
6373 126 67 4
6374 126 168 41
6375 126 69 16
6376 126 90 72
6377 126 166 17
6378 126 153 28
6379 126 185 60
6380 126 177 63
6381 126 29 22
6382 126 57 14
6383 126 53 8
6384 126 108 79
6385 126 89 7
6386 126 107 62
6387 126 197 33
6388 126 188 37
6389 126 2 33
6390 126 128 61
6391 126 71 74
6392 126 87 89
6393 126 16 30
6394 126 47 73
6395 126 138 14
6396 126 54 89
6397 126 92 10
6398 126 76 61
6399 126 121 16
6400 127 0 63
6401 127 84 33
6402 127 49 92
6403 127 91 2
6404 127 130 4
6405 127 65 26
6406 127 45 91
6407 127 78 33
6408 127 22 46
6409 127 52 51
6410 127 184 68
6411 127 129 87
6412 127 181 65
6413 127 125 89
6414 127 24 36
6415 127 76 68
6416 127 163 51
6417 127 53 43
6418 127 189 87
6419 127 143 63
6420 127 144 97
6421 127 109 27
6422 127 21 62
6423 127 105 38
6424 127 51 100
6425 127 20 36
6426 127 108 77
6427 127 72 49
6428 127 37 52
6429 127 67 49
6430 127 158 1
6431 127 13 57
6432 127 177 18
6433 127 122 29
6434 127 103 51
6435 127 164 49
6436 127 23 94
6437 127 192 8
6438 127 172 99
6439 127 26 38
6440 127 190 61
6441 127 93 34
6442 127 155 14
6443 127 146 19
6444 127 126 1
6445 128 68 72
6446 128 23 14
6447 128 14 70
6448 128 107 1
6449 128 132 25
6450 128 127 56
6451 128 83 67
6452 128 87 77
6453 128 183 27
6454 128 134 65
6455 128 45 82
6456 128 8 20
6457 128 16 46
6458 128 118 17
6459 128 139 69
6460 128 99 87
6461 128 86 75
6462 128 194 81
6463 128 193 37
6464 128 1 1
6465 128 192 40
6466 128 129 28
6467 128 133 75
6468 128 38 32
6469 128 148 100
6470 128 102 47
6471 128 191 15
6472 128 11 52
6473 128 74 3
6474 128 182 18
6475 128 125 51
6476 128 106 78
6477 128 57 100
6478 128 32 91
6479 128 186 43
6480 128 179 62
6481 128 25 57
6482 128 76 48
6483 128 115 17
6484 128 142 89
6485 128 145 56
6486 128 92 54
6487 128 140 72
6488 128 82 38
6489 128 155 72
6490 128 41 7
6491 128 26 28
6492 128 146 86
6493 128 60 95
6494 128 10 13
6495 128 96 55
6496 128 114 26
6497 128 116 52
6498 128 98 61
6499 128 121 67
6500 129 146 9
6501 129 117 59
6502 129 40 41
6503 129 16 20
6504 129 175 34
6505 129 151 83
6506 129 137 71
6507 129 38 9
6508 129 66 32
6509 129 110 44
6510 129 184 32
6511 129 93 63
6512 129 179 50
6513 129 109 35
6514 129 178 21
6515 129 67 79
6516 129 12 66
6517 129 18 30
6518 129 172 97
6519 129 8 79
6520 129 195 29
6521 129 87 2
6522 129 3 27
6523 129 126 80
6524 129 1 98
6525 129 162 46
6526 129 193 31
6527 129 123 77
6528 129 192 47
6529 129 61 18
6530 129 69 95
6531 129 115 90
6532 129 121 51
6533 129 62 6
6534 129 157 67
6535 130 169 84
6536 130 49 69
6537 130 61 45
6538 130 26 25
6539 130 116 24
6540 130 100 77
6541 130 161 72
6542 130 165 60
6543 130 23 31
6544 130 3 38
6545 130 155 91
6546 130 196 4
6547 130 157 12
6548 130 137 11
6549 130 15 33
6550 130 172 80
6551 130 75 78
6552 130 147 63
6553 130 87 93
6554 130 41 39
6555 130 126 59
6556 130 28 43
6557 130 123 35
6558 130 45 94
6559 130 199 63
6560 130 164 26
6561 130 113 87
6562 130 194 84
6563 130 131 58
6564 130 25 60
6565 130 9 5
6566 130 179 36
6567 130 119 98
6568 130 20 76
6569 130 156 79
6570 130 95 6
6571 130 81 74
6572 130 146 54
6573 130 99 59
6574 130 19 69
6575 130 110 9
6576 130 5 78
6577 131 150 40
6578 131 35 47
6579 131 100 50
6580 131 162 44
6581 131 172 74
6582 131 6 62
6583 131 178 58
6584 131 12 30
6585 131 198 79
6586 131 56 50
6587 131 163 13
6588 131 70 100
6589 131 115 5
6590 131 118 85
6591 131 95 26
6592 131 109 99
6593 131 164 88
6594 131 108 33
6595 131 110 3
6596 131 113 44
6597 131 71 61
6598 131 1 27
6599 131 94 52
6600 131 165 70
6601 131 87 94
6602 131 50 75
6603 131 190 13
6604 131 89 7
6605 131 80 67
6606 131 134 96
6607 131 185 3
6608 131 158 38
6609 131 53 15
6610 131 37 91
6611 131 66 87
6612 131 93 64
6613 131 77 41
6614 131 125 55
6615 131 91 80
6616 131 69 82
6617 131 103 36
6618 131 14 28
6619 131 141 5
6620 131 114 61
6621 132 46 92
6622 132 11 21
6623 132 198 14
6624 132 76 88
6625 132 189 65
6626 132 96 85
6627 132 133 65
6628 132 113 59
6629 132 111 85
6630 132 95 59
6631 132 191 9
6632 132 129 87
6633 132 123 93
6634 132 71 55
6635 132 70 74
6636 132 119 76
6637 132 36 13
6638 132 184 50
6639 132 74 41
6640 132 99 65
6641 132 80 60
6642 132 49 24
6643 132 188 30
6644 132 83 53
6645 132 165 32
6646 132 103 40
6647 132 101 98
6648 132 33 9
6649 132 127 16
6650 132 139 5
6651 132 126 34
6652 132 173 69
6653 132 19 43
6654 132 144 57
6655 132 161 72
6656 132 151 92
6657 132 77 54
6658 132 177 58
6659 132 108 15
6660 132 154 19
6661 132 7 50
6662 132 121 42
6663 132 42 62
6664 132 79 89
6665 132 155 21
6666 132 143 71
6667 132 55 9
6668 132 31 71
6669 132 81 19
6670 132 67 99
6671 132 196 76
6672 132 32 16
6673 132 91 22
6674 133 157 63
6675 133 166 98
6676 133 119 72
6677 133 47 80
6678 133 146 83
6679 133 121 69
6680 133 83 66
6681 133 25 47
6682 133 26 84
6683 133 153 22
6684 133 32 34
6685 133 100 74
6686 133 21 87
6687 133 196 75
6688 133 85 9
6689 133 67 80
6690 133 174 52
6691 133 64 4
6692 133 55 82
6693 133 12 68
6694 133 71 38
6695 133 101 13
6696 133 164 93
6697 133 134 90
6698 133 155 45
6699 133 109 87
6700 133 51 72
6701 133 29 100
6702 133 17 43
6703 133 181 48
6704 133 62 25
6705 133 159 60
6706 133 150 92
6707 133 194 30
6708 133 99 8
6709 133 68 91
6710 133 130 36
6711 133 6 28
6712 133 152 59
6713 133 173 54
6714 133 45 27
6715 133 15 16
6716 133 76 68
6717 133 180 42
6718 133 111 48
6719 133 2 73
6720 133 198 52
6721 133 135 64
6722 133 142 3
6723 133 158 64
6724 133 186 16
6725 134 31 56
6726 134 158 97
6727 134 194 80
6728 134 122 33
6729 134 24 33
6730 134 84 71
6731 134 66 91
6732 134 135 13
6733 134 182 35
6734 134 83 96
6735 134 99 40
6736 134 112 1
6737 134 163 1
6738 134 164 8
6739 134 114 96
6740 134 19 94
6741 134 49 35
6742 134 187 5
6743 134 93 57
6744 134 97 48
6745 134 96 53
6746 134 85 6
6747 134 198 20
6748 134 42 31
6749 134 55 100
6750 134 102 16
6751 134 8 7
6752 134 56 94
6753 134 141 55
6754 134 51 40
6755 134 79 100
6756 134 48 6
6757 134 119 57
6758 134 181 99
6759 134 142 78
6760 134 103 63
6761 134 129 21
6762 134 0 75
6763 134 10 53
6764 134 147 68
6765 135 174 95
6766 135 55 21
6767 135 127 23
6768 135 91 94
6769 135 105 72
6770 135 160 65
6771 135 136 85
6772 135 180 43
6773 135 60 96
6774 135 120 40
6775 135 187 20
6776 135 83 59
6777 135 132 27
6778 135 42 96
6779 135 173 35
6780 135 103 34
6781 135 110 76
6782 135 36 92
6783 135 41 63
6784 135 190 74
6785 135 164 95
6786 135 54 77
6787 135 104 20
6788 135 151 48
6789 135 112 15
6790 135 34 83
6791 135 138 77
6792 135 49 62
6793 135 142 89
6794 135 9 25
6795 135 95 53
6796 135 130 53
6797 135 153 81
6798 135 188 42
6799 135 175 36
6800 135 88 58
6801 135 26 94
6802 135 77 47
6803 135 140 66
6804 135 59 60
6805 135 146 72
6806 135 81 90
6807 135 73 86
6808 135 165 94
6809 135 85 32
6810 135 169 86
6811 135 52 62
6812 135 31 9
6813 135 134 8
6814 135 68 90
6815 135 27 42
6816 136 185 25
6817 136 60 76
6818 136 165 96
6819 136 66 90
6820 136 164 19
6821 136 98 46
6822 136 57 83
6823 136 7 92
6824 136 44 76
6825 136 152 8
6826 136 59 56
6827 136 25 89
6828 136 159 64
6829 136 197 59
6830 136 68 16
6831 136 46 72
6832 136 108 42
6833 136 112 25
6834 136 33 92
6835 136 173 52
6836 136 77 1
6837 136 86 99
6838 136 109 82
6839 136 111 14
6840 136 137 61
6841 136 105 38
6842 136 78 29
6843 136 85 90
6844 136 6 3
6845 136 155 33
6846 136 188 8
6847 136 195 21
6848 136 22 45
6849 136 169 49
6850 136 122 8
6851 136 196 6
6852 136 56 38
6853 136 150 16
6854 136 55 26
6855 136 73 13
6856 136 4 53
6857 136 90 88
6858 136 71 51
6859 136 36 64
6860 136 32 60
6861 136 28 46
6862 136 157 19
6863 137 21 62
6864 137 65 100
6865 137 95 1
6866 137 32 57
6867 137 57 15
6868 137 178 20
6869 137 112 58
6870 137 127 74
6871 137 136 91
6872 137 164 95
6873 137 29 89
6874 137 20 60
6875 137 195 14
6876 137 191 57
6877 137 50 56
6878 137 6 28
6879 137 165 95
6880 137 94 42
6881 137 40 2
6882 137 28 53
6883 137 70 98
6884 137 13 38
6885 137 157 23
6886 137 36 90
6887 137 144 59
6888 137 155 21
6889 137 27 73
6890 137 169 93
6891 137 8 78
6892 137 182 4
6893 137 118 89
6894 137 98 38
6895 137 154 27
6896 137 150 66
6897 137 18 71
6898 137 93 81
6899 137 52 13
6900 137 186 63
6901 137 120 93
6902 137 161 53
6903 137 163 60
6904 137 187 51
6905 137 194 18
6906 137 139 22
6907 137 1 57
6908 137 196 5
6909 137 45 19
6910 137 113 95
6911 137 128 45
6912 137 17 40
6913 137 2 32
6914 137 124 10
6915 138 172 51
6916 138 128 82
6917 138 85 30
6918 138 76 74
6919 138 142 9
6920 138 140 41
6921 138 75 66
6922 138 58 40
6923 138 21 54
6924 138 192 35
6925 138 130 62
6926 138 146 17
6927 138 141 43
6928 138 170 54
6929 138 48 7
6930 138 97 37
6931 138 103 50
6932 138 74 60
6933 138 22 66
6934 138 43 21
6935 138 6 84
6936 138 3 6
6937 138 185 88
6938 138 108 27
6939 138 67 56
6940 138 181 80
6941 138 156 3
6942 138 196 51
6943 138 91 89
6944 138 154 14
6945 138 17 41
6946 138 126 91
6947 138 129 90
6948 138 56 45
6949 138 101 5
6950 138 158 85
6951 138 193 24
6952 138 190 51
6953 138 45 9
6954 138 23 31
6955 138 167 33
6956 138 132 4
6957 138 131 90
6958 138 71 80
6959 138 134 61
6960 138 194 29
6961 138 51 12
6962 138 4 18
6963 138 112 20
6964 138 77 99
6965 138 1 87
6966 138 139 8
6967 138 179 92
6968 138 174 56
6969 139 149 50
6970 139 118 57
6971 139 106 56
6972 139 101 52
6973 139 45 42
6974 139 187 37
6975 139 82 84
6976 139 152 1
6977 139 119 42
6978 139 140 30
6979 139 95 95
6980 139 6 82
6981 139 111 23
6982 139 102 36
6983 139 37 21
6984 139 38 81
6985 139 141 84
6986 139 166 15
6987 139 74 89
6988 139 138 53
6989 139 25 73
6990 139 72 36
6991 139 10 29
6992 139 176 43
6993 139 23 29
6994 139 97 90
6995 139 109 22
6996 139 52 65
6997 139 100 96
6998 139 153 56
6999 139 134 10
7000 139 79 60
7001 139 110 71
7002 139 145 86
7003 139 60 2
7004 139 89 47
7005 139 197 71
7006 139 78 9
7007 139 41 31
7008 139 178 67
7009 139 47 5
7010 139 28 43
7011 139 29 58
7012 139 177 29
7013 139 11 24
7014 139 76 15
7015 139 59 29
7016 139 129 49
7017 140 51 100
7018 140 12 57
7019 140 15 72
7020 140 20 97
7021 140 114 84
7022 140 181 72
7023 140 120 50
7024 140 35 38
7025 140 93 46
7026 140 23 43
7027 140 102 48
7028 140 3 18
7029 140 83 53
7030 140 112 15
7031 140 34 41
7032 140 44 16
7033 140 63 4
7034 140 152 57
7035 140 149 2
7036 140 11 95
7037 140 96 45
7038 140 151 86
7039 140 53 47
7040 140 131 64
7041 140 88 2
7042 140 166 47
7043 140 57 21
7044 140 84 80
7045 140 174 48
7046 140 109 5
7047 140 170 72
7048 140 189 52
7049 140 133 69
7050 140 147 64
7051 140 183 35
7052 140 197 38
7053 140 135 12
7054 140 52 17
7055 140 75 99
7056 140 119 25
7057 140 137 44
7058 140 148 87
7059 140 64 76
7060 140 159 75
7061 140 198 90
7062 140 36 70
7063 140 86 76
7064 140 41 56
7065 140 55 84
7066 140 132 23
7067 140 39 41
7068 140 167 72
7069 140 81 51
7070 140 24 77
7071 141 54 20
7072 141 117 52
7073 141 56 32
7074 141 76 41
7075 141 166 56
7076 141 86 4
7077 141 176 5
7078 141 78 50
7079 141 154 83
7080 141 88 24
7081 141 83 43
7082 141 87 86
7083 141 143 45
7084 141 90 9
7085 141 59 47
7086 141 164 12
7087 141 105 62
7088 141 68 98
7089 141 60 76
7090 141 155 97
7091 141 18 58
7092 141 182 89
7093 141 82 47
7094 141 113 10
7095 141 111 75
7096 141 183 26
7097 141 165 61
7098 141 17 67
7099 141 152 33
7100 141 171 76
7101 141 7 43
7102 141 85 28
7103 141 144 9
7104 141 9 23
7105 141 49 59
7106 141 104 26
7107 141 110 35
7108 141 6 98
7109 141 160 33
7110 141 50 43
7111 141 174 68
7112 142 133 83
7113 142 146 3
7114 142 139 86
7115 142 94 9
7116 142 173 80
7117 142 110 64
7118 142 137 55
7119 142 48 89
7120 142 66 21
7121 142 17 15
7122 142 111 26
7123 142 121 35
7124 142 6 54
7125 142 22 98
7126 142 107 12
7127 142 106 51
7128 142 40 36
7129 142 199 88
7130 142 114 49
7131 142 154 10
7132 142 4 41
7133 142 92 20
7134 142 148 90
7135 142 167 56
7136 142 10 99
7137 142 104 43
7138 142 156 32
7139 142 149 20
7140 142 183 19
7141 142 52 17
7142 142 64 87
7143 142 189 34
7144 142 65 100
7145 142 89 58
7146 142 151 6
7147 142 108 95
7148 142 129 87
7149 142 55 66
7150 142 123 13
7151 142 97 1
7152 142 11 14
7153 142 131 35
7154 142 120 68
7155 142 175 89
7156 142 174 14
7157 142 188 22
7158 142 124 75
7159 142 26 93
7160 142 7 57
7161 142 118 10
7162 142 83 79
7163 142 61 72
7164 142 169 69
7165 142 98 35
7166 142 198 6
7167 143 169 100
7168 143 86 72
7169 143 161 77
7170 143 82 85
7171 143 118 33
7172 143 145 32
7173 143 156 58
7174 143 94 99
7175 143 108 39
7176 143 139 71
7177 143 27 86
7178 143 56 98
7179 143 98 83
7180 143 39 94
7181 143 131 94
7182 143 12 16
7183 143 117 18
7184 143 198 52
7185 143 148 66
7186 143 106 15
7187 143 11 63
7188 143 146 97
7189 143 196 77
7190 143 4 32
7191 143 189 2
7192 143 55 94
7193 143 126 2
7194 143 199 67
7195 143 45 3
7196 143 162 42
7197 143 13 66
7198 143 125 70
7199 143 43 76
7200 143 102 78
7201 143 168 2
7202 143 96 43
7203 143 66 84
7204 143 35 66
7205 143 32 6
7206 143 57 70
7207 143 52 16
7208 143 172 35
7209 143 14 3
7210 143 23 25
7211 143 181 28
7212 143 185 37
7213 143 173 92
7214 144 46 4
7215 144 47 44
7216 144 39 5
7217 144 196 71
7218 144 109 95
7219 144 41 15
7220 144 27 89
7221 144 55 93
7222 144 10 7
7223 144 28 44
7224 144 123 49
7225 144 44 91
7226 144 71 29
7227 144 43 44
7228 144 156 83
7229 144 18 67
7230 144 79 93
7231 144 16 85
7232 144 120 56
7233 144 178 76
7234 144 131 76
7235 144 173 5
7236 144 84 82
7237 144 116 24
7238 144 104 14
7239 144 115 100
7240 144 4 31
7241 144 150 9
7242 144 164 13
7243 144 70 53
7244 144 96 90
7245 144 158 54
7246 144 23 73
7247 144 194 39
7248 144 89 54
7249 144 163 3
7250 144 174 18
7251 144 87 82
7252 144 61 10
7253 145 144 21
7254 145 116 38
7255 145 34 56
7256 145 147 58
7257 145 171 55
7258 145 165 100
7259 145 13 34
7260 145 71 19
7261 145 197 65
7262 145 44 15
7263 145 192 20
7264 145 188 91
7265 145 146 88
7266 145 115 93
7267 145 124 94
7268 145 149 45
7269 145 119 73
7270 145 67 68
7271 145 176 25
7272 145 0 51
7273 145 198 100
7274 145 154 21
7275 145 153 7
7276 145 107 59
7277 145 118 35
7278 145 183 80
7279 145 11 66
7280 145 88 72
7281 145 151 34
7282 145 199 75
7283 145 25 89
7284 145 105 93
7285 145 92 42
7286 145 73 77
7287 145 95 10
7288 145 126 23
7289 145 82 50
7290 145 91 1
7291 145 189 75
7292 145 106 20
7293 145 87 1
7294 145 42 32
7295 145 53 29
7296 145 60 11
7297 145 157 93
7298 146 94 34
7299 146 109 96
7300 146 179 56
7301 146 174 48
7302 146 184 54
7303 146 114 88
7304 146 185 46
7305 146 136 64
7306 146 158 92
7307 146 117 16
7308 146 8 98
7309 146 135 54
7310 146 196 51
7311 146 79 46
7312 146 65 63
7313 146 106 66
7314 146 86 81
7315 146 15 13
7316 146 82 28
7317 146 64 3
7318 146 107 37
7319 146 14 74
7320 146 91 80
7321 146 140 45
7322 146 53 8
7323 146 78 39
7324 146 120 31
7325 146 103 65
7326 146 77 73
7327 146 17 87
7328 146 193 97
7329 146 115 51
7330 146 71 38
7331 146 188 84
7332 146 23 13
7333 146 181 51
7334 146 16 35
7335 146 121 46
7336 146 87 6
7337 146 165 68
7338 146 2 50
7339 146 12 19
7340 146 190 93
7341 146 180 91
7342 146 159 73
7343 146 187 42
7344 146 50 25
7345 146 0 17
7346 146 81 99
7347 146 156 17
7348 146 21 29
7349 146 142 3
7350 146 149 61
7351 146 131 19
7352 146 9 35
7353 146 173 94
7354 146 160 71
7355 146 195 63
7356 146 167 50
7357 146 66 33
7358 146 97 13
7359 146 110 24
7360 147 143 53
7361 147 36 13
7362 147 95 28
7363 147 110 86
7364 147 171 73
7365 147 176 47
7366 147 24 100
7367 147 4 47
7368 147 62 63
7369 147 2 33
7370 147 104 42
7371 147 186 70
7372 147 155 51
7373 147 164 16
7374 147 173 65
7375 147 126 96
7376 147 195 2
7377 147 69 89
7378 147 136 42
7379 147 75 65
7380 147 185 26
7381 147 25 74
7382 147 141 32
7383 147 73 40
7384 147 3 5
7385 147 61 67
7386 147 28 29
7387 147 97 48
7388 147 7 35
7389 147 46 82
7390 147 122 36
7391 147 72 19
7392 147 88 87
7393 147 58 82
7394 147 133 61
7395 147 121 66
7396 147 53 68
7397 147 169 46
7398 147 100 73
7399 147 165 70
7400 147 120 66
7401 147 9 16
7402 147 102 76
7403 147 51 23
7404 147 170 2
7405 147 132 56
7406 147 152 79
7407 147 119 50
7408 147 154 48
7409 147 142 49
7410 147 105 79
7411 147 130 26
7412 147 64 23
7413 147 151 48
7414 147 113 86
7415 147 30 77
7416 147 117 54
7417 147 174 19
7418 147 90 59
7419 147 127 56
7420 147 37 89
7421 147 23 21
7422 147 138 18
7423 148 178 31
7424 148 122 54
7425 148 73 69
7426 148 142 31
7427 148 189 11
7428 148 102 23
7429 148 135 61
7430 148 23 44
7431 148 172 30
7432 148 15 33
7433 148 129 16
7434 148 14 69
7435 148 92 27
7436 148 45 79
7437 148 193 95
7438 148 79 78
7439 148 54 91
7440 148 3 97
7441 148 162 45
7442 148 167 44
7443 148 165 82
7444 148 159 61
7445 148 33 72
7446 148 19 96
7447 148 24 100
7448 148 149 5
7449 148 9 21
7450 148 199 18
7451 148 107 66
7452 148 2 3
7453 148 118 12
7454 148 166 59
7455 148 85 64
7456 148 82 11
7457 148 170 87
7458 148 97 4
7459 148 169 54
7460 148 57 17
7461 148 53 73
7462 148 31 38
7463 148 184 47
7464 148 89 3
7465 148 48 18
7466 148 110 96
7467 148 116 50
7468 149 191 85
7469 149 69 98
7470 149 86 74
7471 149 12 37
7472 149 136 35
7473 149 171 59
7474 149 7 29
7475 149 94 100
7476 149 118 47
7477 149 138 86
7478 149 108 28
7479 149 45 36
7480 149 18 13
7481 149 152 83
7482 149 197 37
7483 149 16 90
7484 149 163 32
7485 149 127 80
7486 149 150 10
7487 149 8 4
7488 149 39 96
7489 149 161 28
7490 149 31 24
7491 149 61 31
7492 149 48 95
7493 149 59 90
7494 149 123 16
7495 149 29 68
7496 149 192 56
7497 149 90 85
7498 149 129 96
7499 149 9 55
7500 149 68 60
7501 149 88 74
7502 149 180 82
7503 149 105 7
7504 149 160 55
7505 149 38 55
7506 149 66 82
7507 149 53 63
7508 149 63 96
7509 149 51 33
7510 149 145 61
7511 149 47 62
7512 149 79 83
7513 149 91 82
7514 149 3 18
7515 149 194 97
7516 149 179 7
7517 150 97 92
7518 150 140 13
7519 150 182 11
7520 150 189 85
7521 150 158 8
7522 150 16 38
7523 150 147 1
7524 150 69 71
7525 150 119 30
7526 150 162 66
7527 150 180 33
7528 150 95 32
7529 150 142 95
7530 150 188 60
7531 150 30 72
7532 150 11 23
7533 150 178 51
7534 150 156 3
7535 150 33 11
7536 150 81 83
7537 150 144 70
7538 150 141 58
7539 150 40 61
7540 150 109 92
7541 150 89 61
7542 150 6 80
7543 150 137 97
7544 150 90 45
7545 150 14 83
7546 150 70 29
7547 150 183 25
7548 150 4 96
7549 150 68 37
7550 150 23 19
7551 150 145 18
7552 150 72 42
7553 150 154 28
7554 150 15 76
7555 150 110 29
7556 150 108 79
7557 150 55 17
7558 150 134 18
7559 150 10 34
7560 150 99 17
7561 150 116 47
7562 150 54 98
7563 151 68 64
7564 151 109 62
7565 151 80 58
7566 151 188 99
7567 151 197 24
7568 151 54 59
7569 151 82 59
7570 151 115 33
7571 151 119 47
7572 151 84 58
7573 151 165 87
7574 151 73 44
7575 151 81 7
7576 151 101 22
7577 151 128 14
7578 151 180 85
7579 151 159 67
7580 151 95 68
7581 151 40 45
7582 151 56 24
7583 151 130 12
7584 151 137 13
7585 151 175 37
7586 151 153 68
7587 151 50 40
7588 151 88 56
7589 151 30 5
7590 151 35 30
7591 151 83 92
7592 151 134 49
7593 151 65 25
7594 151 135 68
7595 151 184 30
7596 151 38 75
7597 151 163 51
7598 151 196 92
7599 151 152 99
7600 151 143 69
7601 151 42 63
7602 151 138 70
7603 151 6 65
7604 151 44 39
7605 151 150 23
7606 151 23 3
7607 151 25 98
7608 151 118 96
7609 151 113 86
7610 151 67 37
7611 151 55 60
7612 151 33 43
7613 151 198 89
7614 151 46 81
7615 151 97 89
7616 151 136 76
7617 151 16 99
7618 151 120 72
7619 151 173 32
7620 151 5 48
7621 151 174 85
7622 151 39 65
7623 151 53 77
7624 152 65 40
7625 152 8 58
7626 152 32 97
7627 152 59 61
7628 152 175 8
7629 152 100 50
7630 152 111 74
7631 152 117 90
7632 152 188 93
7633 152 57 32
7634 152 104 88
7635 152 85 76
7636 152 150 23
7637 152 64 68
7638 152 194 44
7639 152 115 31
7640 152 118 17
7641 152 11 83
7642 152 198 82
7643 152 97 7
7644 152 43 20
7645 152 167 41
7646 152 124 40
7647 152 179 53
7648 152 180 11
7649 152 94 54
7650 152 44 92
7651 152 67 86
7652 152 189 91
7653 152 80 83
7654 152 29 61
7655 152 95 76
7656 152 39 38
7657 152 114 53
7658 152 53 96
7659 152 46 57
7660 152 23 83
7661 152 191 58
7662 152 56 68
7663 152 82 86
7664 152 22 9
7665 152 155 67
7666 152 101 98
7667 152 154 73
7668 152 84 67
7669 152 52 56
7670 152 142 28
7671 152 133 92
7672 152 161 54
7673 152 156 96
7674 152 18 11
7675 152 164 29
7676 152 120 74
7677 152 20 42
7678 152 166 80
7679 153 175 92
7680 153 165 38
7681 153 38 100
7682 153 148 82
7683 153 186 42
7684 153 152 75
7685 153 111 18
7686 153 23 91
7687 153 194 9
7688 153 118 15
7689 153 100 92
7690 153 157 72
7691 153 11 43
7692 153 45 96
7693 153 106 57
7694 153 98 23
7695 153 21 30
7696 153 179 81
7697 153 180 43
7698 153 137 81
7699 153 195 7
7700 153 28 12
7701 153 15 80
7702 153 27 36
7703 153 35 59
7704 153 168 28
7705 153 116 64
7706 153 47 63
7707 153 88 74
7708 153 86 55
7709 153 101 18
7710 153 91 52
7711 153 66 87
7712 153 44 26
7713 153 96 65
7714 153 128 75
7715 153 42 49
7716 153 77 46
7717 153 63 38
7718 153 78 99
7719 153 20 73
7720 153 36 80
7721 153 76 64
7722 153 183 87
7723 153 155 60
7724 153 121 73
7725 153 34 11
7726 153 196 91
7727 153 187 62
7728 153 105 71
7729 153 75 81
7730 153 108 81
7731 153 97 20
7732 153 46 18
7733 153 5 3
7734 153 51 6
7735 154 47 71
7736 154 55 92
7737 154 181 83
7738 154 197 16
7739 154 77 3
7740 154 155 4
7741 154 150 13
7742 154 147 96
7743 154 3 33
7744 154 80 23
7745 154 142 65
7746 154 44 53
7747 154 188 86
7748 154 12 54
7749 154 171 77
7750 154 56 8
7751 154 4 51
7752 154 198 24
7753 154 187 41
7754 154 182 11
7755 154 92 42
7756 154 178 63
7757 154 14 42
7758 154 172 76
7759 154 19 44
7760 154 10 14
7761 154 18 33
7762 154 111 75
7763 154 15 99
7764 154 114 97
7765 154 126 98
7766 154 53 6
7767 154 110 73
7768 154 32 90
7769 154 199 51
7770 154 164 57
7771 154 62 13
7772 154 45 81
7773 154 125 90
7774 154 83 86
7775 154 119 2
7776 154 59 85
7777 154 165 66
7778 154 58 2
7779 154 103 1
7780 154 159 92
7781 154 91 34
7782 154 193 81
7783 154 185 46
7784 154 84 66
7785 154 109 89
7786 154 26 62
7787 154 21 24
7788 154 82 35
7789 154 146 21
7790 154 121 85
7791 154 67 23
7792 154 20 62
7793 154 113 87
7794 155 117 83
7795 155 185 38
7796 155 127 93
7797 155 74 89
7798 155 62 76
7799 155 39 51
7800 155 113 55
7801 155 5 45
7802 155 129 91
7803 155 2 85
7804 155 169 17
7805 155 160 80
7806 155 137 39
7807 155 179 67
7808 155 146 26
7809 155 63 6
7810 155 0 45
7811 155 18 15
7812 155 178 59
7813 155 67 16
7814 155 159 76
7815 155 198 60
7816 155 192 20
7817 155 73 96
7818 155 134 43
7819 155 156 9
7820 155 94 24
7821 155 174 84
7822 155 123 28
7823 155 96 33
7824 155 32 27
7825 155 61 98
7826 155 180 31
7827 155 69 42
7828 155 114 30
7829 155 186 56
7830 155 124 60
7831 155 119 48
7832 155 103 87
7833 155 163 58
7834 155 145 88
7835 155 56 62
7836 155 70 64
7837 155 30 57
7838 155 153 28
7839 155 91 33
7840 156 83 93
7841 156 103 17
7842 156 178 50
7843 156 100 99
7844 156 31 43
7845 156 57 69
7846 156 55 62
7847 156 196 42
7848 156 152 7
7849 156 71 27
7850 156 15 86
7851 156 98 9
7852 156 90 2
7853 156 125 39
7854 156 126 91
7855 156 96 83
7856 156 138 76
7857 156 4 57
7858 156 93 77
7859 156 29 12
7860 156 85 33
7861 156 101 1
7862 156 53 61
7863 156 110 62
7864 156 16 10
7865 156 186 81
7866 156 148 88
7867 156 163 81
7868 156 166 24
7869 156 67 66
7870 156 1 4
7871 156 88 53
7872 156 132 11
7873 156 84 85
7874 156 8 74
7875 156 37 77
7876 156 36 5
7877 156 34 62
7878 156 145 34
7879 156 161 51
7880 156 159 51
7881 156 27 91
7882 156 91 53
7883 157 75 78
7884 157 90 98
7885 157 47 64
7886 157 74 86
7887 157 12 35
7888 157 174 61
7889 157 114 20
7890 157 43 96
7891 157 21 12
7892 157 10 59
7893 157 79 16
7894 157 118 97
7895 157 192 22
7896 157 120 38
7897 157 84 99
7898 157 144 30
7899 157 20 48
7900 157 185 50
7901 157 23 55
7902 157 126 65
7903 157 64 85
7904 157 150 32
7905 157 18 95
7906 157 42 7
7907 157 193 28
7908 157 70 20
7909 157 179 45
7910 157 101 97
7911 157 134 26
7912 157 141 50
7913 157 4 74
7914 157 189 48
7915 157 140 92
7916 157 153 19
7917 157 3 47
7918 157 111 42
7919 157 173 69
7920 157 32 58
7921 157 106 94
7922 157 131 95
7923 157 149 49
7924 157 195 63
7925 157 69 27
7926 157 67 41
7927 157 104 94
7928 157 92 2
7929 157 171 61
7930 157 119 72
7931 157 2 98
7932 157 9 12
7933 157 71 96
7934 158 85 8
7935 158 99 85
7936 158 25 64
7937 158 86 23
7938 158 103 67
7939 158 64 89
7940 158 105 29
7941 158 146 84
7942 158 192 77
7943 158 168 39
7944 158 15 60
7945 158 145 50
7946 158 24 35
7947 158 137 93
7948 158 8 54
7949 158 14 96
7950 158 45 87
7951 158 32 10
7952 158 181 24
7953 158 102 88
7954 158 80 49
7955 158 100 12
7956 158 151 34
7957 158 113 79
7958 158 114 90
7959 158 189 82
7960 158 106 78
7961 158 104 27
7962 158 57 85
7963 158 182 52
7964 158 128 86
7965 158 186 31
7966 158 136 14
7967 158 187 99
7968 158 126 74
7969 158 78 51
7970 158 162 23
7971 158 40 57
7972 158 177 43
7973 158 143 51
7974 158 44 90
7975 158 94 39
7976 158 22 33
7977 158 134 29
7978 158 29 75
7979 158 196 98
7980 158 171 5
7981 158 54 75
7982 158 163 41
7983 158 91 9
7984 158 120 81
7985 158 50 78
7986 158 121 44
7987 158 33 51
7988 158 159 52
7989 158 109 28
7990 159 103 3
7991 159 121 8
7992 159 153 84
7993 159 179 51
7994 159 185 26
7995 159 178 50
7996 159 28 19
7997 159 22 92
7998 159 113 16
7999 159 191 7
8000 159 11 46
8001 159 135 87
8002 159 190 10
8003 159 139 50
8004 159 128 34
8005 159 68 8
8006 159 175 58
8007 159 120 66
8008 159 163 60
8009 159 51 95
8010 159 174 92
8011 159 15 83
8012 159 14 8
8013 159 59 39
8014 159 60 65
8015 159 125 14
8016 159 196 12
8017 159 118 27
8018 159 39 95
8019 159 44 84
8020 159 154 47
8021 159 46 98
8022 159 130 97
8023 159 18 26
8024 159 88 89
8025 159 67 94
8026 159 166 61
8027 159 74 96
8028 159 110 81
8029 159 63 86
8030 159 43 81
8031 160 157 32
8032 160 58 78
8033 160 188 54
8034 160 168 47
8035 160 173 21
8036 160 48 62
8037 160 121 81
8038 160 85 21
8039 160 90 98
8040 160 45 77
8041 160 109 41
8042 160 30 75
8043 160 150 96
8044 160 80 70
8045 160 0 51
8046 160 171 57
8047 160 185 59
8048 160 194 61
8049 160 163 90
8050 160 113 8
8051 160 99 43
8052 160 189 47
8053 160 124 39
8054 160 62 67
8055 160 179 76
8056 160 119 75
8057 160 128 92
8058 160 20 99
8059 160 66 5
8060 160 17 61
8061 160 152 12
8062 160 116 24
8063 160 135 89
8064 160 40 76
8065 160 133 78
8066 160 174 50
8067 160 111 78
8068 160 7 98
8069 160 148 77
8070 160 103 13
8071 160 131 42
8072 160 105 38
8073 160 156 91
8074 160 65 71
8075 160 141 24
8076 160 137 62
8077 160 3 2
8078 160 38 7
8079 160 120 85
8080 160 95 17
8081 160 51 74
8082 160 183 32
8083 160 96 28
8084 160 123 100
8085 160 175 90
8086 160 144 14
8087 161 133 28
8088 161 102 17
8089 161 179 51
8090 161 57 66
8091 161 11 74
8092 161 185 25
8093 161 87 61
8094 161 192 34
8095 161 110 54
8096 161 42 3
8097 161 83 21
8098 161 193 9
8099 161 76 32
8100 161 138 56
8101 161 70 98
8102 161 166 70
8103 161 143 69
8104 161 89 37
8105 161 73 10
8106 161 134 47
8107 161 56 64
8108 161 40 62
8109 161 39 11
8110 161 38 89
8111 161 2 18
8112 161 132 95
8113 161 85 78
8114 161 173 9
8115 161 49 68
8116 161 150 35
8117 161 160 23
8118 161 109 90
8119 161 101 81
8120 161 6 83
8121 161 99 48
8122 161 175 9
8123 161 115 93
8124 161 131 76
8125 161 71 46
8126 161 165 53
8127 161 121 97
8128 161 94 11
8129 162 144 61
8130 162 158 56
8131 162 85 86
8132 162 184 47
8133 162 137 44
8134 162 2 72
8135 162 74 77
8136 162 52 21
8137 162 76 20
8138 162 119 29
8139 162 128 89
8140 162 105 48
8141 162 139 47
8142 162 109 17
8143 162 89 89
8144 162 77 70
8145 162 196 42
8146 162 93 72
8147 162 5 63
8148 162 167 86
8149 162 113 4
8150 162 73 56
8151 162 88 25
8152 162 1 1
8153 162 198 86
8154 162 33 20
8155 162 51 99
8156 162 179 19
8157 162 124 71
8158 162 183 100
8159 162 106 92
8160 162 161 23
8161 162 171 78
8162 162 78 29
8163 162 16 31
8164 162 145 46
8165 162 178 19
8166 162 157 70
8167 162 29 57
8168 162 149 68
8169 162 112 79
8170 162 37 64
8171 162 18 14
8172 162 180 48
8173 162 142 93
8174 162 49 25
8175 162 27 45
8176 162 67 77
8177 162 120 84
8178 163 195 53
8179 163 61 39
8180 163 85 63
8181 163 116 21
8182 163 131 53
8183 163 12 68
8184 163 155 86
8185 163 7 40
8186 163 53 95
8187 163 11 64
8188 163 26 35
8189 163 81 53
8190 163 153 36
8191 163 16 87
8192 163 57 47
8193 163 77 42
8194 163 46 5
8195 163 160 59
8196 163 127 88
8197 163 185 20
8198 163 105 67
8199 163 137 32
8200 163 21 14
8201 163 193 98
8202 163 150 2
8203 163 118 16
8204 163 88 71
8205 163 42 46
8206 163 102 93
8207 163 14 88
8208 163 101 7
8209 163 114 68
8210 163 141 70
8211 163 122 7
8212 163 181 70
8213 163 49 62
8214 163 54 41
8215 163 171 52
8216 163 143 95
8217 163 82 40
8218 163 191 45
8219 163 65 97
8220 164 178 4
8221 164 7 96
8222 164 41 87
8223 164 94 44
8224 164 162 70
8225 164 21 15
8226 164 8 84
8227 164 108 2
8228 164 19 41
8229 164 129 68
8230 164 192 2
8231 164 158 14
8232 164 43 1
8233 164 25 72
8234 164 174 83
8235 164 44 72
8236 164 117 88
8237 164 71 54
8238 164 38 63
8239 164 181 77
8240 164 62 63
8241 164 101 34
8242 164 154 33
8243 164 195 64
8244 164 51 56
8245 164 5 11
8246 164 128 76
8247 164 91 28
8248 164 131 58
8249 164 64 69
8250 164 138 99
8251 164 75 94
8252 164 63 71
8253 164 105 55
8254 164 85 49
8255 164 143 25
8256 164 168 50
8257 164 118 82
8258 164 102 38
8259 164 35 50
8260 164 160 98
8261 164 79 43
8262 164 159 32
8263 164 175 29
8264 164 93 30
8265 164 127 39
8266 165 141 57
8267 165 154 57
8268 165 173 36
8269 165 171 96
8270 165 168 74
8271 165 94 53
8272 165 72 30
8273 165 10 26
8274 165 135 62
8275 165 119 74
8276 165 125 19
8277 165 111 20
8278 165 150 89
8279 165 196 56
8280 165 138 22
8281 165 82 65
8282 165 73 15
8283 165 149 79
8284 165 176 10
8285 165 178 45
8286 165 107 1
8287 165 5 24
8288 165 187 28
8289 165 180 63
8290 165 56 38
8291 165 29 27
8292 165 77 71
8293 165 43 82
8294 165 102 64
8295 165 32 32
8296 165 3 37
8297 165 11 41
8298 165 4 7
8299 165 195 42
8300 165 79 22
8301 165 175 15
8302 165 83 77
8303 165 113 38
8304 165 35 2
8305 165 109 41
8306 165 75 82
8307 165 117 1
8308 165 114 33
8309 165 151 61
8310 165 9 17
8311 165 1 97
8312 165 143 54
8313 165 37 4
8314 166 132 80
8315 166 127 62
8316 166 139 83
8317 166 91 73
8318 166 41 55
8319 166 11 21
8320 166 85 77
8321 166 96 10
8322 166 65 35
8323 166 125 46
8324 166 12 76
8325 166 84 63
8326 166 64 58
8327 166 197 31
8328 166 194 53
8329 166 169 49
8330 166 38 3
8331 166 47 74
8332 166 36 69
8333 166 19 97
8334 166 179 95
8335 166 21 41
8336 166 156 75
8337 166 181 15
8338 166 104 78
8339 166 150 72
8340 166 43 12
8341 166 79 57
8342 166 163 97
8343 166 168 39
8344 166 107 63
8345 166 14 93
8346 166 26 30
8347 166 60 50
8348 166 70 56
8349 166 158 47
8350 166 183 27
8351 166 9 79
8352 166 80 57
8353 166 186 83
8354 166 20 68
8355 166 170 68
8356 167 22 45
8357 167 175 68
8358 167 86 58
8359 167 54 39
8360 167 9 65
8361 167 142 96
8362 167 12 77
8363 167 94 88
8364 167 137 88
8365 167 68 45
8366 167 30 84
8367 167 91 47
8368 167 99 58
8369 167 96 15
8370 167 106 32
8371 167 3 15
8372 167 168 81
8373 167 47 79
8374 167 50 69
8375 167 67 33
8376 167 13 34
8377 167 151 34
8378 167 129 93
8379 167 55 77
8380 167 101 50
8381 167 113 9
8382 167 171 56
8383 167 183 32
8384 167 64 73
8385 167 104 41
8386 167 123 24
8387 167 182 44
8388 167 33 62
8389 167 192 33
8390 167 112 62
8391 167 118 62
8392 167 156 62
8393 167 76 36
8394 167 181 31
8395 167 169 57
8396 167 115 82
8397 167 160 21
8398 167 23 11
8399 167 95 19
8400 167 199 29
8401 168 24 65
8402 168 153 36
8403 168 197 66
8404 168 11 59
8405 168 174 57
8406 168 18 48
8407 168 53 50
8408 168 46 10
8409 168 199 80
8410 168 47 11
8411 168 34 71
8412 168 191 97
8413 168 189 73
8414 168 149 67
8415 168 9 61
8416 168 37 43
8417 168 76 48
8418 168 148 64
8419 168 39 76
8420 168 49 86
8421 168 50 69
8422 168 19 29
8423 168 41 17
8424 168 36 94
8425 168 141 24
8426 168 95 77
8427 168 123 6
8428 168 166 82
8429 168 90 100
8430 168 74 4
8431 168 140 8
8432 168 126 42
8433 168 67 76
8434 168 42 2
8435 168 93 41
8436 168 94 37
8437 168 158 45
8438 168 125 95
8439 168 98 15
8440 168 118 57
8441 168 176 30
8442 168 167 49
8443 168 79 42
8444 168 108 71
8445 168 146 47
8446 168 159 37
8447 168 5 5
8448 169 164 42
8449 169 43 94
8450 169 115 73
8451 169 124 9
8452 169 129 74
8453 169 54 29
8454 169 133 36
8455 169 161 39
8456 169 40 24
8457 169 162 38
8458 169 4 53
8459 169 168 17
8460 169 45 85
8461 169 53 95
8462 169 26 61
8463 169 112 14
8464 169 189 18
8465 169 110 25
8466 169 47 79
8467 169 158 30
8468 169 143 32
8469 169 18 8
8470 169 50 100
8471 169 188 98
8472 169 78 53
8473 169 108 44
8474 169 74 31
8475 169 118 26
8476 169 38 48
8477 169 29 25
8478 169 136 92
8479 169 128 48
8480 169 144 79
8481 169 62 61
8482 169 160 41
8483 169 33 75
8484 169 141 86
8485 169 34 70
8486 169 16 3
8487 169 127 74
8488 169 147 51
8489 169 65 21
8490 169 93 65
8491 169 102 24
8492 169 194 94
8493 169 99 91
8494 169 185 16
8495 169 137 77
8496 170 153 52
8497 170 34 1
8498 170 35 68
8499 170 161 63
8500 170 3 72
8501 170 195 63
8502 170 179 98
8503 170 10 81
8504 170 87 42
8505 170 186 82
8506 170 28 61
8507 170 101 65
8508 170 185 84
8509 170 12 71
8510 170 44 19
8511 170 178 100
8512 170 29 90
8513 170 133 61
8514 170 117 25
8515 170 154 60
8516 170 24 55
8517 170 163 32
8518 170 59 7
8519 170 20 76
8520 170 107 61
8521 170 7 59
8522 170 37 29
8523 170 191 75
8524 170 160 83
8525 170 77 66
8526 170 174 93
8527 170 97 32
8528 170 199 56
8529 170 96 50
8530 170 92 53
8531 170 192 4
8532 170 80 73
8533 170 2 64
8534 170 13 85
8535 170 123 73
8536 170 169 64
8537 170 53 65
8538 170 137 42
8539 170 100 43
8540 170 120 2
8541 170 136 97
8542 170 171 8
8543 170 132 88
8544 171 99 83
8545 171 191 38
8546 171 45 36
8547 171 189 47
8548 171 80 85
8549 171 109 6
8550 171 18 57
8551 171 184 91
8552 171 157 18
8553 171 81 77
8554 171 181 52
8555 171 75 21
8556 171 177 79
8557 171 163 94
8558 171 93 99
8559 171 141 95
8560 171 37 4
8561 171 103 88
8562 171 121 11
8563 171 147 3
8564 171 24 57
8565 171 1 79
8566 171 149 30
8567 171 115 91
8568 171 186 24
8569 171 35 89
8570 171 62 19
8571 171 66 52
8572 171 32 46
8573 171 26 19
8574 171 98 58
8575 171 166 67
8576 171 182 21
8577 171 151 45
8578 171 34 38
8579 171 33 50
8580 171 137 31
8581 171 74 3
8582 171 155 43
8583 171 146 80
8584 171 0 39
8585 171 25 86
8586 171 13 11
8587 171 89 95
8588 171 67 45
8589 171 198 55
8590 171 55 64
8591 171 190 16
8592 171 132 9
8593 171 174 59
8594 172 93 57
8595 172 68 41
8596 172 87 27
8597 172 168 75
8598 172 0 71
8599 172 52 99
8600 172 82 93
8601 172 101 57
8602 172 54 22
8603 172 46 36
8604 172 107 82
8605 172 109 41
8606 172 145 71
8607 172 197 12
8608 172 67 92
8609 172 39 76
8610 172 128 71
8611 172 69 59
8612 172 153 86
8613 172 13 5
8614 172 74 65
8615 172 97 86
8616 172 119 65
8617 172 41 39
8618 172 62 1
8619 172 45 64
8620 172 132 43
8621 172 38 92
8622 172 105 41
8623 172 127 98
8624 172 194 26
8625 172 191 89
8626 172 91 71
8627 172 190 1
8628 172 76 47
8629 172 189 26
8630 172 55 95
8631 172 17 51
8632 172 79 44
8633 172 177 80
8634 172 30 81
8635 172 136 62
8636 172 99 19
8637 172 115 56
8638 172 100 67
8639 172 44 28
8640 172 26 80
8641 172 86 48
8642 173 159 5
8643 173 85 99
8644 173 131 59
8645 173 127 95
8646 173 168 90
8647 173 82 4
8648 173 103 45
8649 173 34 11
8650 173 32 25
8651 173 150 6
8652 173 59 53
8653 173 99 78
8654 173 197 54
8655 173 124 58
8656 173 83 24
8657 173 138 9
8658 173 4 100
8659 173 71 17
8660 173 64 69
8661 173 13 14
8662 173 148 41
8663 173 61 50
8664 173 182 71
8665 173 33 32
8666 173 89 71
8667 173 180 58
8668 173 25 4
8669 173 164 24
8670 173 117 62
8671 173 107 67
8672 173 19 43
8673 173 176 29
8674 173 63 58
8675 173 51 73
8676 173 97 72
8677 173 153 99
8678 173 119 20
8679 173 90 15
8680 173 9 37
8681 173 105 93
8682 173 27 74
8683 173 174 22
8684 173 96 40
8685 173 108 11
8686 173 69 29
8687 173 172 61
8688 173 54 14
8689 173 136 62
8690 173 113 31
8691 173 157 1
8692 173 142 55
8693 173 158 89
8694 173 1 25
8695 173 123 73
8696 174 3 5
8697 174 99 68
8698 174 45 48
8699 174 14 68
8700 174 175 28
8701 174 166 5
8702 174 114 53
8703 174 127 72
8704 174 88 34
8705 174 52 88
8706 174 167 65
8707 174 8 27
8708 174 43 55
8709 174 185 100
8710 174 53 98
8711 174 1 67
8712 174 34 16
8713 174 178 55
8714 174 140 57
8715 174 79 21
8716 174 36 26
8717 174 182 69
8718 174 115 51
8719 174 153 55
8720 174 171 44
8721 174 25 86
8722 174 6 53
8723 174 40 6
8724 174 146 52
8725 174 48 61
8726 174 26 62
8727 174 196 48
8728 174 93 45
8729 174 65 73
8730 174 121 46
8731 174 133 58
8732 174 81 32
8733 174 190 95
8734 174 145 97
8735 174 113 42
8736 174 152 38
8737 174 165 13
8738 174 118 1
8739 174 83 41
8740 174 67 96
8741 175 150 97
8742 175 145 82
8743 175 78 86
8744 175 187 57
8745 175 161 62
8746 175 146 85
8747 175 66 17
8748 175 16 46
8749 175 122 2
8750 175 181 38
8751 175 56 6
8752 175 183 23
8753 175 134 43
8754 175 170 89
8755 175 172 96
8756 175 119 69
8757 175 115 84
8758 175 113 79
8759 175 129 95
8760 175 133 65
8761 175 123 71
8762 175 1 9
8763 175 59 4
8764 175 167 81
8765 175 157 70
8766 175 176 41
8767 175 29 42
8768 175 76 68
8769 175 37 58
8770 175 180 20
8771 175 162 28
8772 175 24 44
8773 175 21 63
8774 175 198 65
8775 175 55 38
8776 175 139 97
8777 175 111 47
8778 175 69 61
8779 175 102 81
8780 175 195 20
8781 175 159 6
8782 175 95 68
8783 175 32 3
8784 175 174 20
8785 175 45 37
8786 175 173 15
8787 175 91 3
8788 175 30 37
8789 175 165 11
8790 175 140 48
8791 176 11 8
8792 176 148 60
8793 176 120 95
8794 176 24 98
8795 176 144 39
8796 176 39 75
8797 176 44 32
8798 176 126 15
8799 176 87 52
8800 176 141 49
8801 176 16 2
8802 176 190 67
8803 176 51 86
8804 176 9 16
8805 176 97 55
8806 176 70 99
8807 176 127 88
8808 176 131 15
8809 176 30 12
8810 176 58 44
8811 176 119 82
8812 176 78 47
8813 176 180 81
8814 176 45 49
8815 176 76 56
8816 176 158 12
8817 176 179 30
8818 176 188 83
8819 176 25 37
8820 176 23 3
8821 176 86 91
8822 176 178 36
8823 176 116 57
8824 176 193 85
8825 176 20 84
8826 176 181 46
8827 176 195 6
8828 176 155 6
8829 176 136 6
8830 176 88 40
8831 176 13 43
8832 176 84 71
8833 176 41 39
8834 176 140 5
8835 176 36 83
8836 176 50 71
8837 176 59 76
8838 176 46 18
8839 176 142 17
8840 176 105 81
8841 176 198 62
8842 177 152 3
8843 177 174 52
8844 177 31 74
8845 177 22 80
8846 177 197 88
8847 177 56 5
8848 177 94 84
8849 177 9 50
8850 177 90 40
8851 177 138 78
8852 177 28 40
8853 177 76 80
8854 177 78 31
8855 177 0 43
8856 177 165 56
8857 177 167 84
8858 177 91 45
8859 177 66 95
8860 177 35 90
8861 177 85 84
8862 177 189 65
8863 177 113 6
8864 177 11 87
8865 177 53 29
8866 177 158 84
8867 177 4 51
8868 177 173 28
8869 177 190 72
8870 177 111 28
8871 177 161 52
8872 177 118 38
8873 177 143 63
8874 177 169 18
8875 177 46 22
8876 177 13 39
8877 177 71 47
8878 177 59 42
8879 177 30 99
8880 177 191 66
8881 177 155 96
8882 177 12 13
8883 177 137 63
8884 177 62 5
8885 177 127 68
8886 177 108 94
8887 177 142 29
8888 177 14 31
8889 177 196 45
8890 177 115 9
8891 177 64 98
8892 177 131 99
8893 177 50 38
8894 177 136 83
8895 177 54 86
8896 177 134 24
8897 177 36 34
8898 177 60 35
8899 177 156 83
8900 177 116 82
8901 177 129 79
8902 177 98 81
8903 177 8 91
8904 177 140 53
8905 177 183 52
8906 178 75 90
8907 178 21 32
8908 178 38 86
8909 178 26 78
8910 178 82 5
8911 178 147 99
8912 178 177 6
8913 178 97 94
8914 178 83 5
8915 178 88 34
8916 178 110 46
8917 178 102 28
8918 178 135 76
8919 178 51 91
8920 178 131 71
8921 178 37 3
8922 178 195 35
8923 178 119 90
8924 178 14 93
8925 178 152 71
8926 178 41 98
8927 178 150 70
8928 178 137 95
8929 178 94 54
8930 178 176 64
8931 178 19 81
8932 178 196 22
8933 178 1 41
8934 178 180 14
8935 178 52 39
8936 178 185 2
8937 178 71 88
8938 178 65 74
8939 178 8 49
8940 178 12 15
8941 178 43 95
8942 178 153 57
8943 178 157 7
8944 178 87 73
8945 178 17 75
8946 178 28 65
8947 178 90 58
8948 178 148 27
8949 178 181 10
8950 178 138 64
8951 178 121 2
8952 178 73 76
8953 178 182 65
8954 178 128 15
8955 178 49 51
8956 178 70 53
8957 178 198 69
8958 178 133 72
8959 179 195 14
8960 179 79 29
8961 179 45 3
8962 179 12 30
8963 179 43 81
8964 179 157 70
8965 179 143 38
8966 179 28 49
8967 179 100 78
8968 179 152 14
8969 179 84 87
8970 179 191 24
8971 179 138 71
8972 179 111 13
8973 179 30 47
8974 179 104 7
8975 179 0 13
8976 179 75 49
8977 179 170 33
8978 179 126 42
8979 179 178 34
8980 179 26 53
8981 179 176 50
8982 179 122 20
8983 179 27 48
8984 179 23 57
8985 179 59 30
8986 179 193 15
8987 179 6 20
8988 179 10 45
8989 179 165 29
8990 179 87 54
8991 179 20 14
8992 179 38 17
8993 179 132 57
8994 179 61 52
8995 179 169 76
8996 179 175 65
8997 179 44 58
8998 179 97 51
8999 179 25 23
9000 179 19 99
9001 179 76 21
9002 179 188 97
9003 179 17 75
9004 180 57 46
9005 180 23 64
9006 180 113 96
9007 180 66 82
9008 180 92 75
9009 180 1 40
9010 180 174 63
9011 180 60 36
9012 180 69 47
9013 180 30 5
9014 180 45 72
9015 180 27 8
9016 180 136 81
9017 180 77 73
9018 180 41 83
9019 180 169 65
9020 180 151 79
9021 180 190 58
9022 180 29 16
9023 180 3 60
9024 180 56 30
9025 180 163 84
9026 180 46 29
9027 180 48 12
9028 180 16 98
9029 180 47 44
9030 180 155 100
9031 180 37 64
9032 180 162 13
9033 180 134 55
9034 180 196 5
9035 180 152 36
9036 180 25 23
9037 180 38 49
9038 180 59 11
9039 180 194 34
9040 180 85 99
9041 180 107 33
9042 180 33 58
9043 180 149 12
9044 180 79 54
9045 180 195 43
9046 180 8 5
9047 180 99 34
9048 180 135 34
9049 180 179 99
9050 181 23 14
9051 181 147 48
9052 181 12 24
9053 181 39 56
9054 181 65 34
9055 181 105 37
9056 181 36 45
9057 181 195 88
9058 181 146 85
9059 181 176 65
9060 181 122 95
9061 181 126 82
9062 181 153 19
9063 181 40 77
9064 181 71 54
9065 181 9 95
9066 181 193 77
9067 181 151 37
9068 181 119 94
9069 181 164 48
9070 181 15 33
9071 181 156 12
9072 181 38 85
9073 181 129 87
9074 181 125 74
9075 181 110 15
9076 181 117 29
9077 181 135 94
9078 181 199 60
9079 181 130 72
9080 181 7 6
9081 181 118 33
9082 181 29 77
9083 181 22 65
9084 181 138 63
9085 181 143 55
9086 181 101 18
9087 181 75 3
9088 181 161 78
9089 181 47 25
9090 181 93 71
9091 181 167 25
9092 181 142 57
9093 181 168 32
9094 181 128 77
9095 181 41 51
9096 181 165 42
9097 181 11 95
9098 181 95 22
9099 181 194 40
9100 181 30 23
9101 181 48 61
9102 181 55 86
9103 181 144 54
9104 181 52 1
9105 181 78 91
9106 181 197 63
9107 182 151 37
9108 182 83 85
9109 182 21 87
9110 182 130 16
9111 182 148 40
9112 182 118 56
9113 182 2 34
9114 182 186 98
9115 182 140 35
9116 182 62 1
9117 182 23 22
9118 182 102 56
9119 182 155 89
9120 182 138 16
9121 182 66 25
9122 182 126 46
9123 182 93 25
9124 182 195 37
9125 182 84 20
9126 182 97 42
9127 182 190 46
9128 182 34 44
9129 182 192 50
9130 182 81 12
9131 182 55 72
9132 182 120 26
9133 182 71 19
9134 182 78 56
9135 182 145 93
9136 182 196 20
9137 182 45 12
9138 182 17 27
9139 182 178 69
9140 182 54 33
9141 182 159 16
9142 182 89 89
9143 182 37 47
9144 182 179 45
9145 182 183 10
9146 182 96 2
9147 182 87 74
9148 182 16 86
9149 183 158 46
9150 183 49 35
9151 183 150 17
9152 183 14 81
9153 183 170 47
9154 183 110 99
9155 183 33 19
9156 183 41 62
9157 183 199 44
9158 183 2 1
9159 183 13 48
9160 183 95 52
9161 183 26 70
9162 183 25 65
9163 183 178 82
9164 183 145 8
9165 183 79 66
9166 183 30 36
9167 183 136 83
9168 183 103 68
9169 183 159 23
9170 183 63 90
9171 183 176 2
9172 183 53 57
9173 183 56 21
9174 183 154 61
9175 183 114 10
9176 183 62 20
9177 183 11 51
9178 183 42 25
9179 183 148 27
9180 183 137 40
9181 183 175 5
9182 183 76 89
9183 183 104 85
9184 183 12 24
9185 183 83 85
9186 183 28 80
9187 183 185 28
9188 183 57 63
9189 183 133 68
9190 183 182 14
9191 183 101 94
9192 183 22 32
9193 183 126 20
9194 183 35 53
9195 183 17 61
9196 183 23 21
9197 183 0 58
9198 183 194 32
9199 183 120 32
9200 183 93 20
9201 183 105 53
9202 183 163 17
9203 183 166 58
9204 184 71 58
9205 184 131 93
9206 184 72 55
9207 184 68 57
9208 184 197 38
9209 184 6 56
9210 184 95 79
9211 184 96 43
9212 184 2 65
9213 184 105 66
9214 184 4 16
9215 184 146 75
9216 184 153 82
9217 184 196 38
9218 184 34 98
9219 184 129 50
9220 184 18 69
9221 184 60 58
9222 184 40 82
9223 184 53 91
9224 184 81 59
9225 184 16 97
9226 184 28 38
9227 184 159 75
9228 184 173 88
9229 184 127 20
9230 184 97 74
9231 184 8 38
9232 184 185 35
9233 184 157 78
9234 184 52 79
9235 184 58 25
9236 184 21 10
9237 184 67 26
9238 184 118 54
9239 184 181 63
9240 184 101 45
9241 184 12 82
9242 184 51 64
9243 184 98 21
9244 184 116 94
9245 184 115 97
9246 184 169 52
9247 184 148 53
9248 184 62 65
9249 184 0 34
9250 184 171 91
9251 184 91 78
9252 184 186 1
9253 184 138 88
9254 184 30 43
9255 184 199 30
9256 185 198 52
9257 185 79 84
9258 185 161 55
9259 185 148 57
9260 185 122 83
9261 185 55 65
9262 185 189 27
9263 185 33 98
9264 185 117 24
9265 185 109 5
9266 185 62 25
9267 185 11 10
9268 185 107 51
9269 185 16 16
9270 185 47 92
9271 185 183 92
9272 185 71 100
9273 185 168 27
9274 185 162 14
9275 185 65 62
9276 185 36 58
9277 185 112 77
9278 185 192 2
9279 185 102 44
9280 185 174 32
9281 185 37 39
9282 185 197 6
9283 185 129 27
9284 185 0 71
9285 185 115 88
9286 185 151 69
9287 185 125 29
9288 185 184 25
9289 185 180 26
9290 185 182 14
9291 185 18 84
9292 185 124 41
9293 185 101 86
9294 185 153 94
9295 185 45 13
9296 185 23 66
9297 185 196 3
9298 185 157 14
9299 185 95 51
9300 185 27 52
9301 185 170 36
9302 185 57 70
9303 185 134 2
9304 185 80 21
9305 185 63 32
9306 186 2 55
9307 186 150 18
9308 186 99 69
9309 186 152 8
9310 186 32 16
9311 186 169 77
9312 186 192 29
9313 186 198 65
9314 186 188 68
9315 186 160 89
9316 186 52 95
9317 186 156 79
9318 186 57 83
9319 186 62 47
9320 186 122 25
9321 186 149 10
9322 186 15 15
9323 186 115 46
9324 186 55 36
9325 186 113 100
9326 186 0 86
9327 186 26 31
9328 186 35 73
9329 186 58 62
9330 186 133 70
9331 186 129 13
9332 186 78 47
9333 186 134 63
9334 186 97 32
9335 186 65 34
9336 186 56 12
9337 186 100 41
9338 186 126 75
9339 186 120 11
9340 186 176 3
9341 186 104 87
9342 186 59 49
9343 186 101 100
9344 186 138 55
9345 186 173 2
9346 186 167 65
9347 186 18 54
9348 186 82 24
9349 186 39 31
9350 186 178 92
9351 186 19 49
9352 186 16 46
9353 186 197 8
9354 186 4 38
9355 186 7 51
9356 186 86 5
9357 186 136 19
9358 186 158 53
9359 187 197 84
9360 187 93 23
9361 187 7 19
9362 187 33 40
9363 187 90 64
9364 187 70 71
9365 187 57 82
9366 187 38 78
9367 187 148 17
9368 187 137 19
9369 187 59 44
9370 187 86 14
9371 187 98 82
9372 187 180 71
9373 187 164 90
9374 187 47 19
9375 187 190 55
9376 187 22 83
9377 187 115 13
9378 187 12 100
9379 187 153 32
9380 187 87 44
9381 187 160 6
9382 187 123 54
9383 187 19 17
9384 187 149 9
9385 187 189 8
9386 187 14 68
9387 187 24 38
9388 187 80 5
9389 187 184 10
9390 187 146 42
9391 187 66 62
9392 187 193 79
9393 187 198 75
9394 187 131 64
9395 187 97 84
9396 187 135 3
9397 187 5 51
9398 187 60 18
9399 188 126 91
9400 188 91 79
9401 188 0 68
9402 188 140 9
9403 188 179 5
9404 188 172 73
9405 188 76 79
9406 188 122 62
9407 188 185 83
9408 188 109 46
9409 188 94 24
9410 188 82 55
9411 188 154 68
9412 188 95 51
9413 188 194 54
9414 188 24 48
9415 188 1 7
9416 188 20 69
9417 188 136 28
9418 188 68 54
9419 188 164 71
9420 188 32 12
9421 188 182 98
9422 188 69 51
9423 188 131 72
9424 188 102 87
9425 188 26 21
9426 188 104 15
9427 188 129 38
9428 188 83 6
9429 188 167 57
9430 188 193 29
9431 188 138 61
9432 188 180 26
9433 188 110 7
9434 188 11 68
9435 188 84 88
9436 188 90 59
9437 188 151 11
9438 188 166 36
9439 188 99 97
9440 188 149 26
9441 188 134 75
9442 188 61 3
9443 188 7 25
9444 188 150 80
9445 189 138 2
9446 189 87 78
9447 189 159 20
9448 189 177 4
9449 189 81 7
9450 189 63 44
9451 189 114 95
9452 189 160 86
9453 189 192 51
9454 189 130 23
9455 189 19 51
9456 189 20 6
9457 189 187 62
9458 189 60 1
9459 189 158 81
9460 189 56 23
9461 189 178 84
9462 189 24 37
9463 189 94 64
9464 189 30 37
9465 189 58 66
9466 189 125 42
9467 189 47 84
9468 189 65 58
9469 189 8 80
9470 189 95 67
9471 189 31 92
9472 189 154 69
9473 189 4 68
9474 189 77 79
9475 189 157 22
9476 189 29 9
9477 189 152 30
9478 189 66 22
9479 189 146 60
9480 189 169 30
9481 189 61 69
9482 189 23 16
9483 189 115 43
9484 189 85 23
9485 189 182 20
9486 189 99 77
9487 189 21 27
9488 189 2 23
9489 189 184 18
9490 190 109 74
9491 190 151 59
9492 190 18 86
9493 190 30 87
9494 190 27 23
9495 190 187 99
9496 190 31 42
9497 190 130 33
9498 190 104 5
9499 190 186 15
9500 190 37 38
9501 190 182 76
9502 190 44 86
9503 190 160 87
9504 190 135 32
9505 190 0 71
9506 190 57 88
9507 190 198 38
9508 190 76 63
9509 190 177 99
9510 190 56 48
9511 190 112 38
9512 190 9 31
9513 190 53 83
9514 190 161 11
9515 190 13 65
9516 190 84 69
9517 190 36 52
9518 190 179 40
9519 190 126 47
9520 190 79 77
9521 190 192 35
9522 190 74 59
9523 190 184 70
9524 190 167 7
9525 190 40 8
9526 190 1 61
9527 190 70 81
9528 190 121 74
9529 190 99 23
9530 190 122 95
9531 190 114 35
9532 190 39 97
9533 190 132 55
9534 190 120 28
9535 191 118 52
9536 191 134 53
9537 191 28 77
9538 191 14 67
9539 191 75 31
9540 191 91 62
9541 191 59 45
9542 191 25 47
9543 191 26 82
9544 191 36 84
9545 191 189 47
9546 191 107 83
9547 191 17 3
9548 191 136 36
9549 191 98 44
9550 191 147 70
9551 191 53 32
9552 191 7 70
9553 191 96 64
9554 191 78 47
9555 191 73 5
9556 191 130 2
9557 191 37 95
9558 191 156 64
9559 191 67 96
9560 191 104 60
9561 191 108 5
9562 191 117 79
9563 191 172 75
9564 191 174 7
9565 191 197 94
9566 191 166 25
9567 191 103 15
9568 191 52 57
9569 191 101 19
9570 191 9 13
9571 191 93 81
9572 191 184 10
9573 191 15 30
9574 191 157 99
9575 191 143 47
9576 191 159 76
9577 191 173 91
9578 191 18 65
9579 191 63 1
9580 191 71 37
9581 191 190 25
9582 191 171 27
9583 191 58 31
9584 191 198 15
9585 191 99 97
9586 191 82 48
9587 191 0 87
9588 191 38 54
9589 191 175 75
9590 192 103 54
9591 192 15 34
9592 192 16 3
9593 192 140 15
9594 192 197 7
9595 192 67 11
9596 192 86 40
9597 192 34 52
9598 192 111 4
9599 192 5 12
9600 192 110 80
9601 192 70 87
9602 192 199 26
9603 192 91 27
9604 192 105 42
9605 192 69 24
9606 192 52 1
9607 192 7 56
9608 192 141 22
9609 192 176 23
9610 192 100 50
9611 192 137 7
9612 192 98 88
9613 192 108 73
9614 192 172 27
9615 192 36 10
9616 192 61 50
9617 192 179 96
9618 192 147 36
9619 192 49 17
9620 192 59 98
9621 192 124 50
9622 192 66 52
9623 192 182 30
9624 192 117 30
9625 192 18 15
9626 192 101 49
9627 192 125 13
9628 192 180 38
9629 192 81 7
9630 192 166 71
9631 192 187 20
9632 192 198 25
9633 192 138 14
9634 192 142 1
9635 192 99 9
9636 192 181 61
9637 192 165 11
9638 192 39 89
9639 193 144 58
9640 193 122 16
9641 193 111 78
9642 193 184 75
9643 193 148 38
9644 193 168 41
9645 193 98 60
9646 193 21 95
9647 193 179 33
9648 193 66 6
9649 193 166 43
9650 193 27 98
9651 193 76 15
9652 193 59 78
9653 193 44 86
9654 193 94 82
9655 193 185 74
9656 193 71 47
9657 193 167 4
9658 193 88 71
9659 193 69 10
9660 193 90 77
9661 193 137 91
9662 193 29 2
9663 193 46 1
9664 193 110 97
9665 193 11 43
9666 193 96 53
9667 193 63 99
9668 193 142 57
9669 193 80 30
9670 193 106 82
9671 193 42 46
9672 193 191 21
9673 193 38 54
9674 193 126 29
9675 193 47 47
9676 193 181 77
9677 193 50 48
9678 193 134 12
9679 193 196 61
9680 193 182 56
9681 193 105 31
9682 194 49 47
9683 194 72 24
9684 194 192 34
9685 194 40 15
9686 194 33 31
9687 194 11 84
9688 194 136 4
9689 194 10 20
9690 194 122 91
9691 194 133 24
9692 194 90 68
9693 194 19 97
9694 194 64 49
9695 194 2 62
9696 194 13 13
9697 194 63 7
9698 194 147 51
9699 194 164 54
9700 194 44 42
9701 194 110 96
9702 194 91 55
9703 194 152 3
9704 194 139 22
9705 194 193 38
9706 194 167 75
9707 194 25 22
9708 194 32 25
9709 194 24 47
9710 194 71 58
9711 194 107 57
9712 194 66 57
9713 194 154 37
9714 194 50 11
9715 194 84 86
9716 194 73 39
9717 194 31 75
9718 194 141 6
9719 194 55 48
9720 194 75 61
9721 194 121 11
9722 194 158 64
9723 194 184 44
9724 194 30 25
9725 194 81 20
9726 194 52 17
9727 194 113 92
9728 194 142 64
9729 194 153 88
9730 194 54 80
9731 194 108 80
9732 194 65 64
9733 194 195 89
9734 194 42 87
9735 194 96 99
9736 194 171 45
9737 194 162 21
9738 194 160 51
9739 194 119 16
9740 194 137 41
9741 194 1 68
9742 194 178 60
9743 195 61 67
9744 195 179 80
9745 195 101 91
9746 195 67 68
9747 195 7 77
9748 195 85 92
9749 195 28 15
9750 195 46 52
9751 195 149 94
9752 195 43 71
9753 195 113 32
9754 195 112 13
9755 195 69 62
9756 195 135 14
9757 195 166 41
9758 195 97 15
9759 195 144 12
9760 195 171 9
9761 195 19 34
9762 195 41 21
9763 195 84 93
9764 195 23 34
9765 195 109 15
9766 195 182 21
9767 195 25 38
9768 195 76 90
9769 195 99 65
9770 195 130 40
9771 195 57 47
9772 195 29 40
9773 195 185 54
9774 195 106 57
9775 195 191 28
9776 195 88 10
9777 195 3 87
9778 195 165 27
9779 195 10 57
9780 195 82 10
9781 195 22 95
9782 195 133 61
9783 195 151 92
9784 195 125 34
9785 195 63 12
9786 195 56 74
9787 195 49 1
9788 195 74 88
9789 195 53 53
9790 195 86 52
9791 195 33 77
9792 195 139 42
9793 195 104 40
9794 195 89 41
9795 195 75 84
9796 196 29 7
9797 196 83 70
9798 196 55 46
9799 196 19 61
9800 196 103 95
9801 196 144 1
9802 196 84 25
9803 196 51 33
9804 196 73 1
9805 196 39 16
9806 196 127 84
9807 196 130 12
9808 196 110 64
9809 196 117 52
9810 196 81 12
9811 196 164 60
9812 196 8 4
9813 196 80 50
9814 196 91 14
9815 196 65 27
9816 196 156 84
9817 196 41 5
9818 196 180 15
9819 196 146 14
9820 196 66 87
9821 196 115 17
9822 196 58 58
9823 196 1 28
9824 196 22 69
9825 196 14 29
9826 196 63 12
9827 196 113 86
9828 196 77 67
9829 196 187 81
9830 196 9 84
9831 196 142 12
9832 196 140 59
9833 196 6 21
9834 196 126 4
9835 196 3 32
9836 196 104 41
9837 197 158 61
9838 197 143 76
9839 197 95 49
9840 197 184 46
9841 197 97 55
9842 197 133 34
9843 197 66 2
9844 197 4 4
9845 197 56 9
9846 197 69 73
9847 197 36 9
9848 197 138 86
9849 197 187 100
9850 197 19 84
9851 197 71 95
9852 197 192 41
9853 197 35 38
9854 197 148 17
9855 197 74 100
9856 197 146 52
9857 197 131 93
9858 197 96 8
9859 197 7 91
9860 197 1 57
9861 197 51 71
9862 197 155 20
9863 197 29 38
9864 197 194 10
9865 197 102 16
9866 197 106 54
9867 197 112 36
9868 197 156 27
9869 197 175 35
9870 197 6 98
9871 197 169 89
9872 197 67 23
9873 197 186 39
9874 197 171 85
9875 197 191 91
9876 197 163 9
9877 197 58 16
9878 197 49 33
9879 197 27 61
9880 197 87 41
9881 197 111 38
9882 197 42 85
9883 197 100 51
9884 197 153 56
9885 197 182 19
9886 197 38 36
9887 197 157 97
9888 197 115 68
9889 197 166 19
9890 197 18 17
9891 198 128 30
9892 198 81 8
9893 198 122 83
9894 198 188 55
9895 198 27 38
9896 198 125 17
9897 198 20 96
9898 198 71 10
9899 198 50 11
9900 198 4 55
9901 198 30 66
9902 198 2 34
9903 198 62 52
9904 198 82 8
9905 198 132 29
9906 198 11 67
9907 198 139 77
9908 198 57 45
9909 198 111 13
9910 198 59 81
9911 198 136 90
9912 198 89 44
9913 198 80 79
9914 198 127 20
9915 198 179 31
9916 198 51 36
9917 198 163 89
9918 198 126 55
9919 198 165 51
9920 198 85 41
9921 198 87 19
9922 198 13 9
9923 198 42 97
9924 198 53 64
9925 198 5 37
9926 198 119 55
9927 198 54 33
9928 198 162 42
9929 198 174 25
9930 198 96 98
9931 198 60 30
9932 198 118 13
9933 198 194 56
9934 198 38 97
9935 198 26 35
9936 198 141 75
9937 198 88 41
9938 198 115 2
9939 198 39 56
9940 198 167 5
9941 198 93 100
9942 199 129 42
9943 199 178 83
9944 199 38 37
9945 199 195 14
9946 199 103 13
9947 199 29 89
9948 199 152 28
9949 199 163 61
9950 199 60 84
9951 199 145 14
9952 199 119 29
9953 199 94 83
9954 199 75 87
9955 199 10 38
9956 199 43 83
9957 199 151 55
9958 199 56 96
9959 199 111 31
9960 199 69 81
9961 199 193 14
9962 199 37 97
9963 199 160 88
9964 199 26 2
9965 199 113 64
9966 199 91 70
9967 199 88 77
9968 199 70 88
9969 199 55 6
9970 199 117 82
9971 199 132 62
9972 199 189 69
9973 199 12 55
9974 199 24 74
9975 199 180 88
9976 199 164 96
9977 199 81 42
9978 199 21 58
9979 199 71 96
9980 199 87 49
9981 199 0 7
9982 199 149 15
9983 199 35 72
9984 199 25 99
9985 199 177 68
9986 199 171 30
9987 199 7 2
9988 199 13 36
9989 199 185 14
9990 199 184 90
9991 199 156 87
9992 199 86 42
9993 199 125 82
9994 199 192 36
9995 199 144 82
9996 199 20 37
9997 199 169 63
9998 199 58 40
9999 199 2 64
