0 0 2219 88
1 0 1956 56
2 0 1 82
3 0 3518 24
4 0 2864 90
5 0 2099 34
6 1 3648 48
7 1 2629 20
8 1 2387 34
9 1 1778 5
10 1 1711 47
11 1 838 47
12 2 3056 65
13 2 141 73
14 2 463 60
15 3 2618 23
16 3 1045 30
17 3 2312 98
18 3 2367 47
19 3 3750 77
20 3 631 9
21 3 3256 73
22 4 950 86
23 4 1730 80
24 4 2727 66
25 4 700 67
26 4 1767 41
27 4 3555 100
28 5 2903 46
29 5 1861 21
30 5 3139 22
31 5 263 77
32 5 3653 20
33 6 3148 79
34 6 960 57
35 6 2434 62
36 6 661 5
37 6 2568 24
38 6 2817 47
39 7 1847 81
40 7 3823 75
41 7 3767 71
42 8 1676 37
43 8 2691 46
44 8 2931 72
45 8 473 41
46 8 1467 41
47 8 2617 37
48 9 3377 18
49 9 2033 21
50 9 3424 5
51 9 633 42
52 9 3062 38
53 10 1820 94
54 10 912 65
55 10 1071 93
56 10 2982 58
57 10 3620 23
58 11 1774 74
59 11 3199 15
60 11 1379 24
61 11 2083 77
62 11 292 65
63 12 808 85
64 12 1020 89
65 12 3482 88
66 12 2613 73
67 12 391 52
68 12 3388 58
69 13 2902 31
70 13 2017 32
71 13 2307 84
72 13 3179 47
73 13 1887 87
74 13 320 88
75 13 3500 31
76 13 2442 59
77 13 2418 4
78 13 1836 81
79 14 1885 55
80 14 1053 96
81 14 605 28
82 15 1386 19
83 15 1857 27
84 15 2693 7
85 15 3554 1
86 15 2529 81
87 15 537 10
88 15 444 57
89 16 3147 11
90 16 2652 78
91 16 1710 95
92 16 164 46
93 16 868 46
94 16 2649 62
95 16 2941 56
96 17 747 25
97 17 1090 17
98 17 2239 77
99 17 2375 48
100 17 1585 84
101 17 2721 16
102 18 1790 51
103 18 3412 53
104 18 3022 17
105 18 3504 10
106 18 3402 45
107 18 3320 89
108 18 3987 55
109 18 1963 82
110 19 554 61
111 19 3888 35
112 19 3654 72
113 19 2120 95
114 19 3631 49
115 19 2496 27
116 20 306 64
117 20 3099 37
118 20 3908 63
119 20 275 7
120 21 1165 31
121 21 3986 83
122 21 2811 3
123 21 3795 28
124 22 3998 53
125 22 1823 51
126 22 3682 32
127 22 2059 67
128 22 336 55
129 22 1842 86
130 22 3237 91
131 22 3738 7
132 22 3556 17
133 22 2966 50
134 23 1133 81
135 23 3525 66
136 23 2534 59
137 23 1994 15
138 23 73 88
139 23 1705 59
140 23 193 43
141 23 530 65
142 23 1416 34
143 24 1174 3
144 24 2707 43
145 24 2084 29
146 25 3956 98
147 25 3155 9
148 25 3765 69
149 25 138 81
150 26 192 71
151 26 3193 53
152 26 2046 43
153 27 757 70
154 27 137 42
155 27 3602 24
156 27 925 24
157 28 1251 65
158 28 2340 66
159 28 1110 82
160 28 330 61
161 29 1777 50
162 29 2562 94
163 29 21 16
164 29 1096 58
165 29 2814 21
166 29 1969 60
167 30 817 35
168 30 194 54
169 30 343 8
170 30 3800 2
171 31 3693 32
172 31 858 38
173 31 2600 12
174 31 3892 1
175 31 465 98
176 31 2261 48
177 32 1884 72
178 32 2150 72
179 32 2490 23
180 32 2012 68
181 32 2267 58
182 32 3368 4
183 33 3429 31
184 33 2127 48
185 33 2999 12
186 33 682 62
187 34 3170 12
188 34 888 76
189 34 2964 76
190 34 3416 35
191 34 133 86
192 34 3618 96
193 34 3189 89
194 34 1240 73
195 35 3448 57
196 35 2596 34
197 35 1547 44
198 35 147 2
199 35 1106 3
200 37 3412 78
201 37 2667 62
202 37 1162 7
203 38 461 55
204 38 2152 35
205 39 2310 85
206 39 3343 34
207 39 3967 7
208 39 2099 89
209 39 2314 61
210 39 2294 85
211 39 2615 10
212 40 779 82
213 41 558 23
214 41 1245 88
215 41 2487 42
216 41 3109 30
217 41 3355 37
218 41 1709 54
219 41 502 14
220 41 1660 13
221 41 3939 42
222 42 3843 43
223 42 2587 81
224 42 3375 43
225 42 1830 24
226 43 1196 34
227 43 1205 81
228 44 2043 4
229 44 1790 18
230 44 811 57
231 44 3931 72
232 45 1008 87
233 45 556 94
234 45 1051 24
235 46 5 7
236 46 1904 15
237 46 3923 47
238 47 1044 71
239 47 3469 9
240 48 2495 15
241 48 1136 30
242 48 1012 4
243 48 3080 66
244 49 2036 84
245 50 3574 30
246 50 1721 77
247 50 892 45
248 51 1475 25
249 51 1851 15
250 51 714 10
251 51 1107 99
252 51 3278 56
253 51 1529 82
254 51 458 80
255 53 2793 42
256 53 2192 82
257 53 649 88
258 53 849 16
259 53 1812 46
260 54 5 17
261 54 1430 19
262 55 3129 97
263 55 28 27
264 55 439 34
265 55 1403 42
266 56 1549 99
267 56 875 8
268 56 1149 71
269 56 1262 73
270 56 2793 55
271 56 101 4
272 56 469 88
273 56 1203 62
274 57 2065 10
275 57 23 95
276 57 133 28
277 57 2046 63
278 57 2774 99
279 57 3687 50
280 57 3276 50
281 57 137 60
282 57 3036 2
283 58 970 85
284 58 3639 72
285 58 1587 8
286 58 2724 50
287 59 2549 98
288 59 438 2
289 59 401 55
290 59 3048 7
291 59 3125 44
292 60 518 92
293 60 642 8
294 60 2880 92
295 60 398 54
296 60 3016 38
297 60 3851 4
298 60 298 46
299 61 111 13
300 61 3779 12
301 61 145 70
302 61 673 30
303 61 1490 23
304 62 3920 71
305 62 2146 94
306 62 3590 36
307 62 3501 3
308 63 1314 90
309 63 2174 96
310 63 0 13
311 63 3607 85
312 63 1294 38
313 63 1364 93
314 63 3157 36
315 63 2533 6
316 63 3540 59
317 63 3257 80
318 63 596 3
319 63 3202 35
320 64 3453 26
321 64 62 67
322 64 1150 73
323 64 160 97
324 64 1029 25
325 65 888 42
326 65 2131 29
327 65 2032 13
328 65 2053 59
329 66 1561 25
330 66 3970 95
331 66 2670 19
332 66 1163 38
333 67 2817 56
334 67 2933 14
335 67 3808 45
336 67 3624 86
337 67 2189 46
338 68 1574 21
339 68 1909 20
340 68 2717 38
341 68 2768 84
342 68 1640 91
343 68 278 11
344 69 1263 9
345 69 3612 32
346 69 1853 34
347 69 3769 11
348 69 2223 38
349 70 1779 71
350 70 3104 14
351 70 1484 18
352 70 3122 54
353 70 185 94
354 71 3539 71
355 71 3226 73
356 71 20 18
357 71 1969 50
358 71 1876 48
359 72 2194 70
360 72 85 90
361 72 2428 29
362 72 3295 42
363 72 1422 82
364 72 1998 23
365 73 412 61
366 73 307 31
367 73 428 69
368 73 1886 27
369 74 2637 93
370 74 2855 84
371 74 250 79
372 74 3722 53
373 74 2426 65
374 74 791 70
375 74 2993 42
376 74 3318 53
377 74 3313 4
378 74 2779 92
379 74 1634 53
380 75 338 79
381 75 2508 35
382 75 2101 42
383 75 1747 97
384 75 1533 52
385 75 2859 66
386 75 2042 81
387 75 882 36
388 75 1045 57
389 75 3237 7
390 75 3150 78
391 75 3577 28
392 76 2171 11
393 76 3987 80
394 76 1394 48
395 76 3130 63
396 76 1575 73
397 77 1155 86
398 77 1953 76
399 77 56 55
400 77 3633 43
401 77 2061 73
402 77 3199 14
403 78 2338 24
404 78 3014 81
405 78 2111 32
406 78 1059 77
407 78 2328 96
408 78 2444 33
409 78 223 33
410 78 1275 83
411 78 856 100
412 79 2144 78
413 79 3054 33
414 79 44 79
415 79 883 28
416 79 250 1
417 79 2725 60
418 79 2797 84
419 80 1586 89
420 80 104 71
421 80 291 40
422 80 3553 43
423 80 3305 59
424 80 2208 65
425 80 224 34
426 81 2615 33
427 81 383 77
428 81 2271 84
429 81 2155 93
430 81 1982 8
431 81 977 95
432 81 666 22
433 82 2861 97
434 82 207 30
435 83 3728 8
436 83 3284 62
437 83 3219 61
438 83 3592 15
439 83 2818 40
440 83 420 84
441 83 635 50
442 84 3040 43
443 84 3351 88
444 84 3172 5
445 84 410 84
446 84 1053 87
447 84 2540 20
448 85 1149 72
449 85 3295 55
450 85 3485 2
451 85 3077 10
452 85 1122 10
453 85 820 65
454 85 838 32
455 85 2904 57
456 86 2554 53
457 86 1884 79
458 86 931 9
459 87 1526 5
460 87 1639 66
461 87 3851 10
462 87 3091 70
463 87 1371 92
464 87 3819 77
465 87 1868 70
466 87 1697 13
467 87 512 89
468 88 1798 83
469 88 3500 97
470 88 1394 29
471 88 3947 61
472 89 131 68
473 89 2768 8
474 89 414 15
475 89 2994 15
476 89 3644 6
477 90 2460 37
478 90 3626 59
479 90 1963 1
480 90 1971 66
481 90 3472 84
482 90 3742 83
483 91 1667 35
484 91 608 36
485 91 2960 90
486 92 1199 33
487 92 1262 33
488 92 2142 41
489 92 3352 30
490 92 2735 100
491 92 3037 87
492 93 2771 18
493 93 2009 45
494 94 1176 52
495 94 2711 61
496 94 1451 18
497 94 1125 12
498 94 1462 89
499 94 354 9
500 94 3676 73
501 94 483 88
502 95 1729 43
503 95 3538 10
504 95 107 12
505 95 3138 1
506 95 3969 73
507 95 1565 35
508 95 98 47
509 95 3131 93
510 95 130 88
511 95 163 87
512 96 654 17
513 96 630 52
514 96 1761 46
515 96 769 97
516 96 1241 68
517 97 3349 82
518 98 1373 17
519 98 3145 10
520 99 3335 53
521 99 1567 44
522 99 3187 46
523 99 3510 12
524 99 3288 39
525 100 3176 56
526 100 2968 23
527 100 1568 88
528 100 2510 2
529 100 137 1
530 100 3405 1
531 100 3577 69
532 100 690 66
533 101 1080 70
534 101 448 96
535 102 2546 67
536 102 2227 84
537 102 3690 61
538 102 3069 83
539 102 1558 54
540 103 1823 39
541 103 202 96
542 103 2780 14
543 103 2550 40
544 103 2576 31
545 104 2414 59
546 104 2312 57
547 104 2896 22
548 104 2213 21
549 104 2083 23
550 104 1977 65
551 104 341 48
552 105 1001 42
553 105 3323 55
554 105 849 75
555 105 3678 93
556 105 2959 88
557 105 775 25
558 105 2017 11
559 106 3225 97
560 106 3215 36
561 106 789 73
562 107 2867 30
563 107 3873 46
564 107 2199 37
565 107 1815 69
566 107 1231 72
567 107 754 10
568 107 172 93
569 107 2363 6
570 108 2315 93
571 108 2982 64
572 108 1948 26
573 108 1751 19
574 109 2105 60
575 109 3974 54
576 109 2765 92
577 109 3599 10
578 110 2500 76
579 110 3478 87
580 110 2416 78
581 110 2371 93
582 110 2684 6
583 110 678 31
584 111 3098 58
585 111 458 61
586 111 3278 58
587 111 2228 32
588 111 3780 12
589 111 1996 13
590 112 3316 2
591 112 3159 22
592 112 3513 41
593 112 1149 89
594 112 3928 25
595 112 2937 59
596 113 3284 85
597 113 3257 41
598 113 3950 75
599 113 2618 29
600 114 1034 27
601 114 3468 43
602 114 636 70
603 114 2353 41
604 114 2926 15
605 114 2125 89
606 115 1818 45
607 115 3755 86
608 115 1618 9
609 115 2349 81
610 115 3078 38
611 115 581 74
612 115 1593 36
613 116 17 6
614 116 3779 86
615 116 726 3
616 116 2622 64
617 116 655 34
618 116 612 56
619 117 256 61
620 117 1704 18
621 117 3787 30
622 118 1461 76
623 118 2009 59
624 118 2081 99
625 119 371 80
626 119 2001 67
627 119 3279 69
628 119 1429 11
629 119 184 14
630 119 2458 68
631 119 2079 65
632 119 146 19
633 120 1947 13
634 120 2079 97
635 120 264 96
636 120 327 97
637 120 2759 7
638 121 382 57
639 121 1729 49
640 121 3869 99
641 121 3512 98
642 121 16 88
643 121 2230 5
644 121 1275 42
645 121 2467 86
646 122 323 99
647 122 1402 74
648 122 3483 47
649 123 3430 41
650 123 2535 69
651 123 2949 85
652 123 1550 82
653 124 3613 88
654 124 2710 88
655 124 2211 60
656 124 2731 99
657 124 1193 6
658 124 1638 33
659 125 1036 19
660 126 3220 48
661 126 1245 29
662 126 1160 89
663 126 25 57
664 126 2456 60
665 126 3813 53
666 126 3785 76
667 127 1800 92
668 127 3529 53
669 127 2151 62
670 127 1638 92
671 127 2300 32
672 128 3472 17
673 128 2710 48
674 128 2858 35
675 128 2954 76
676 128 203 51
677 129 394 49
678 129 3864 4
679 129 1066 63
680 130 2721 1
681 130 2235 23
682 130 3546 71
683 130 2129 82
684 131 723 61
685 131 3953 28
686 131 880 97
687 131 51 64
688 131 1286 17
689 131 3853 27
690 131 3202 71
691 132 2325 4
692 132 1869 47
693 132 681 59
694 132 8 15
695 132 2372 20
696 133 2453 15
697 133 3919 52
698 133 1630 95
699 133 347 56
700 134 633 24
701 134 1279 78
702 134 1907 50
703 134 551 87
704 135 410 50
705 135 336 67
706 135 2674 81
707 135 1480 99
708 135 2081 89
709 136 3819 24
710 136 531 62
711 136 3874 30
712 136 3255 34
713 136 1943 22
714 136 2216 68
715 136 3005 73
716 136 275 8
717 137 3893 84
718 137 9 34
719 137 225 22
720 137 583 51
721 137 1583 70
722 137 3915 42
723 137 708 95
724 137 3006 88
725 138 2574 38
726 139 3819 38
727 139 1218 51
728 139 42 1
729 139 3063 81
730 139 950 84
731 139 2904 81
732 140 2545 92
733 140 534 85
734 141 2812 52
735 141 1145 65
736 141 3891 68
737 141 1141 74
738 141 3434 43
739 141 371 65
740 142 1799 78
741 142 2031 78
742 142 2892 31
743 142 1680 19
744 142 2329 10
745 142 2409 80
746 143 2465 10
747 143 3589 86
748 143 285 95
749 143 2324 30
750 143 1434 25
751 143 2339 94
752 144 1347 5
753 144 2548 36
754 144 1903 39
755 144 3635 17
756 144 2419 13
757 144 837 62
758 144 145 78
759 145 3598 42
760 145 1017 27
761 145 2804 39
762 145 633 89
763 146 2621 69
764 146 2334 100
765 146 3080 45
766 146 1609 54
767 146 1439 33
768 146 961 45
769 146 499 96
770 146 3305 2
771 146 1080 37
772 146 964 40
773 147 3412 54
774 147 3386 22
775 147 2376 34
776 148 1437 4
777 148 1181 100
778 148 2622 40
779 148 3914 88
780 148 1092 99
781 148 1314 97
782 150 447 84
783 150 2540 38
784 151 2933 13
785 151 1377 52
786 151 438 28
787 152 2301 12
788 152 3966 55
789 152 2754 93
790 152 2587 85
791 152 3524 92
792 153 1155 93
793 153 160 97
794 154 119 50
795 154 3076 99
796 154 693 97
797 154 2453 37
798 155 338 13
799 155 982 63
800 155 2898 8
801 155 3218 7
802 156 1572 8
803 156 3055 29
804 156 1664 29
805 156 2262 57
806 157 3798 76
807 157 1880 3
808 158 3674 33
809 158 748 57
810 158 1907 35
811 159 1441 17
812 159 2644 15
813 159 2547 17
814 159 1718 96
815 159 2379 6
816 159 3529 55
817 160 2479 87
818 160 2076 51
819 160 1915 3
820 160 1528 48
821 160 80 87
822 161 2853 97
823 161 3190 65
824 162 1610 4
825 162 2997 89
826 162 1997 69
827 162 675 99
828 162 2643 42
829 162 996 54
830 163 290 76
831 163 3685 1
832 163 2573 97
833 163 3129 17
834 163 1068 93
835 164 3643 72
836 164 2749 86
837 164 1814 75
838 164 218 13
839 164 1771 81
840 165 3147 64
841 166 2985 7
842 166 1086 65
843 167 3447 65
844 167 1319 65
845 168 617 2
846 168 274 57
847 168 2718 19
848 168 2572 36
849 169 610 20
850 169 2277 8
851 169 2282 62
852 169 3871 43
853 170 1949 31
854 170 1625 3
855 170 711 97
856 170 2304 72
857 170 1972 89
858 170 2887 57
859 170 887 60
860 170 3542 19
861 171 912 20
862 171 2877 49
863 172 2323 77
864 172 848 55
865 172 1690 100
866 172 2425 51
867 172 3443 57
868 173 179 29
869 173 2813 36
870 173 2891 80
871 174 3482 41
872 174 721 67
873 174 3590 90
874 174 1277 56
875 175 780 8
876 175 3447 12
877 175 1069 95
878 175 2738 42
879 175 2372 92
880 175 3426 5
881 176 1201 6
882 176 2493 68
883 176 1084 48
884 176 1128 72
885 176 934 42
886 176 1086 98
887 176 2072 35
888 176 3301 74
889 177 702 9
890 177 1897 92
891 177 1734 38
892 177 2391 89
893 177 636 50
894 177 3005 45
895 178 1775 9
896 178 1078 56
897 178 562 64
898 178 2724 75
899 179 54 22
900 179 2893 15
901 179 2592 19
902 179 3773 57
903 179 878 9
904 180 1757 93
905 180 2360 78
906 180 608 41
907 180 3934 19
908 180 3238 52
909 180 1262 12
910 180 501 62
911 180 2729 16
912 181 729 66
913 181 341 54
914 181 2463 61
915 181 473 8
916 181 1417 86
917 181 2370 75
918 181 2021 56
919 181 831 65
920 181 2746 31
921 181 1662 90
922 182 3867 92
923 182 473 96
924 182 468 61
925 182 1579 18
926 183 3531 4
927 183 3123 9
928 183 262 99
929 183 2418 56
930 184 1414 33
931 184 785 70
932 184 1951 84
933 184 2286 41
934 185 1797 34
935 185 510 60
936 185 1469 11
937 185 3818 32
938 185 1737 29
939 186 1032 18
940 186 3128 86
941 186 389 42
942 186 690 71
943 186 539 12
944 186 3359 90
945 186 3303 75
946 186 435 91
947 187 3361 53
948 188 86 27
949 188 269 33
950 188 3917 71
951 188 1319 12
952 188 3466 30
953 188 483 3
954 189 2965 5
955 189 527 39
956 189 1910 88
957 189 1434 31
958 189 683 50
959 189 183 19
960 190 3886 48
961 190 2975 83
962 190 503 51
963 190 2501 73
964 190 2304 15
965 190 214 86
966 190 1213 43
967 190 908 32
968 191 243 96
969 191 2208 83
970 191 3694 94
971 191 2491 78
972 191 1275 87
973 191 2248 31
974 191 495 1
975 192 1276 44
976 192 334 72
977 192 2177 11
978 192 2083 69
979 192 951 64
980 192 759 89
981 193 3011 49
982 193 2466 22
983 193 3813 37
984 193 1584 1
985 194 1227 36
986 194 1264 55
987 195 2695 49
988 195 2104 12
989 195 3982 4
990 195 2675 9
991 195 2656 5
992 195 2126 56
993 196 3648 88
994 196 1066 90
995 196 3361 9
996 196 3083 74
997 196 1390 45
998 197 1244 96
999 197 215 65
1000 198 479 9
1001 198 1537 49
1002 198 2851 12
1003 198 3707 68
1004 198 3128 79
1005 198 1533 26
1006 198 1414 92
1007 199 2250 20
1008 199 3808 74
1009 199 3581 90
1010 200 55 70
1011 200 591 56
1012 200 585 42
1013 201 3506 25
1014 201 247 55
1015 201 3862 50
1016 201 3551 100
1017 201 562 15
1018 201 2167 39
1019 201 141 46
1020 201 2256 3
1021 202 3987 86
1022 202 2148 10
1023 202 3044 71
1024 202 3784 10
1025 202 1415 72
1026 202 2039 62
1027 203 3470 72
1028 203 3300 47
1029 203 3597 8
1030 203 3111 30
1031 203 725 60
1032 204 3674 39
1033 204 3951 97
1034 204 2102 92
1035 204 2217 26
1036 204 2325 50
1037 205 2239 83
1038 205 245 10
1039 205 2160 23
1040 206 2584 44
1041 206 1768 9
1042 206 3394 37
1043 206 709 22
1044 206 146 98
1045 206 1253 85
1046 207 437 85
1047 207 583 92
1048 207 2545 50
1049 207 1187 13
1050 208 2620 68
1051 208 2602 78
1052 208 203 87
1053 208 2343 11
1054 209 1503 17
1055 209 3741 40
1056 209 741 9
1057 210 220 42
1058 210 1127 92
1059 210 2815 21
1060 210 1263 9
1061 210 130 20
1062 210 3522 11
1063 210 3577 84
1064 210 2900 81
1065 211 1737 80
1066 211 182 31
1067 211 1139 28
1068 212 3348 70
1069 212 311 59
1070 212 3105 27
1071 212 976 3
1072 212 484 6
1073 213 1587 88
1074 213 1173 50
1075 213 940 5
1076 213 2149 31
1077 214 2989 84
1078 214 2933 21
1079 214 1502 65
1080 214 3518 76
1081 214 1623 57
1082 214 962 78
1083 214 1223 89
1084 214 953 46
1085 215 339 60
1086 215 1117 30
1087 215 2406 60
1088 215 1537 96
1089 215 2329 60
1090 216 3555 48
1091 216 1099 56
1092 216 509 95
1093 216 1369 96
1094 217 2496 89
1095 217 3033 81
1096 217 864 38
1097 217 1018 83
1098 217 3739 14
1099 217 384 3
1100 217 629 71
1101 218 3582 76
1102 218 2246 40
1103 218 1075 48
1104 218 3963 18
1105 219 2710 5
1106 219 1708 62
1107 219 845 17
1108 219 3930 99
1109 219 618 44
1110 219 1973 78
1111 219 1261 35
1112 220 2061 96
1113 220 1288 1
1114 220 2234 25
1115 220 1232 64
1116 220 3479 50
1117 220 719 34
1118 221 1250 75
1119 221 1183 39
1120 222 543 89
1121 222 3175 11
1122 222 1245 25
1123 222 1734 31
1124 223 393 3
1125 223 902 76
1126 223 103 66
1127 223 3529 33
1128 223 1474 94
1129 224 3281 41
1130 224 1869 47
1131 224 527 20
1132 224 2901 92
1133 224 615 18
1134 224 554 48
1135 224 3583 42
1136 224 3183 38
1137 224 3730 80
1138 225 3542 91
1139 225 258 33
1140 225 3695 17
1141 225 2708 22
1142 225 3902 66
1143 225 2700 44
1144 226 552 10
1145 226 3409 34
1146 226 3467 12
1147 226 2469 31
1148 226 3827 97
1149 227 1964 51
1150 227 2291 95
1151 228 3951 26
1152 228 1285 19
1153 228 541 45
1154 228 2636 41
1155 228 2022 68
1156 228 1337 100
1157 229 1311 56
1158 229 2326 14
1159 229 525 31
1160 229 2267 28
1161 229 1337 95
1162 229 3352 25
1163 230 3792 84
1164 230 893 28
1165 230 585 2
1166 230 3252 45
1167 230 339 55
1168 230 2503 13
1169 231 3934 81
1170 231 2044 30
1171 231 3546 14
1172 231 3637 10
1173 231 1841 16
1174 231 1537 86
1175 232 2641 84
1176 232 2974 90
1177 232 2922 32
1178 232 236 64
1179 232 2093 18
1180 232 1704 27
1181 233 943 90
1182 233 1584 54
1183 233 1500 61
1184 233 1260 92
1185 234 2834 89
1186 234 1005 80
1187 234 483 7
1188 234 1136 66
1189 235 2844 24
1190 235 1562 96
1191 235 2383 16
1192 235 923 28
1193 235 2356 95
1194 235 211 48
1195 235 2646 93
1196 236 1358 81
1197 236 2897 23
1198 237 3301 95
1199 237 664 20
1200 237 3050 10
1201 237 3182 16
1202 237 892 10
1203 237 3647 14
1204 237 1379 67
1205 237 2511 75
1206 237 2489 4
1207 238 3401 74
1208 238 860 71
1209 238 2128 28
1210 238 3708 85
1211 238 1217 94
1212 239 3881 7
1213 239 1872 65
1214 239 3259 62
1215 240 1312 75
1216 240 1382 73
1217 240 2848 28
1218 240 774 29
1219 240 3245 27
1220 240 691 6
1221 241 1877 77
1222 241 872 84
1223 241 2719 9
1224 241 3414 25
1225 241 331 67
1226 241 2027 84
1227 241 2694 78
1228 242 3854 11
1229 242 2569 81
1230 242 3212 83
1231 242 479 78
1232 242 1072 72
1233 242 3058 55
1234 243 1066 3
1235 243 2917 21
1236 243 1366 3
1237 243 3640 98
1238 244 2671 66
1239 244 2716 20
1240 244 2700 72
1241 244 883 73
1242 245 2280 53
1243 245 748 85
1244 245 3153 85
1245 245 1880 94
1246 245 3506 65
1247 245 1056 82
1248 246 3123 16
1249 246 1538 70
1250 246 3865 16
1251 246 1598 35
1252 247 928 31
1253 247 1504 27
1254 247 7 98
1255 247 2713 41
1256 247 2800 83
1257 247 3461 67
1258 247 103 54
1259 247 270 23
1260 248 3144 70
1261 248 3880 32
1262 248 1278 48
1263 248 971 65
1264 249 3200 92
1265 249 2464 72
1266 249 3009 2
1267 249 2280 47
1268 250 2749 70
1269 250 2393 68
1270 250 2836 100
1271 250 1058 58
1272 251 1761 63
1273 251 3517 85
1274 251 2624 76
1275 251 3380 56
1276 251 367 65
1277 252 1799 5
1278 252 1871 59
1279 252 3907 53
1280 252 2839 72
1281 252 3304 64
1282 252 1745 73
1283 252 2491 7
1284 252 114 23
1285 253 2525 36
1286 253 1971 37
1287 254 636 54
1288 254 573 34
1289 254 3654 35
1290 254 2111 21
1291 254 124 26
1292 254 1795 84
1293 255 3827 45
1294 255 1116 74
1295 255 3397 68
1296 255 3576 93
1297 256 1493 82
1298 256 3599 93
1299 256 3733 49
1300 256 2044 35
1301 256 1822 66
1302 256 380 35
1303 256 1197 4
1304 257 1683 89
1305 257 2806 93
1306 257 3486 100
1307 257 3679 75
1308 257 853 24
1309 258 1195 88
1310 258 2007 99
1311 258 2772 61
1312 258 1630 4
1313 258 3953 19
1314 258 3567 74
1315 259 3584 6
1316 259 2153 63
1317 259 2180 48
1318 259 3972 33
1319 259 192 19
1320 260 345 20
1321 260 522 82
1322 260 867 34
1323 260 3308 71
1324 260 460 75
1325 260 3488 71
1326 260 3041 5
1327 261 3700 12
1328 261 2625 39
1329 261 1588 60
1330 262 1144 50
1331 262 1541 70
1332 262 1441 74
1333 262 335 71
1334 262 1998 100
1335 263 923 27
1336 263 2670 52
1337 263 157 25
1338 263 898 83
1339 263 491 87
1340 263 349 78
1341 263 3713 97
1342 264 2401 14
1343 264 1755 43
1344 264 3661 80
1345 264 2916 51
1346 265 1345 46
1347 265 3683 98
1348 265 549 66
1349 265 162 49
1350 265 2806 54
1351 266 1372 87
1352 266 1403 68
1353 266 2522 93
1354 266 1181 14
1355 266 53 35
1356 266 1843 7
1357 266 2312 100
1358 267 899 32
1359 267 3000 35
1360 267 869 69
1361 267 2388 33
1362 268 2529 44
1363 268 2720 36
1364 268 276 42
1365 268 2853 31
1366 268 270 54
1367 268 1402 59
1368 268 770 73
1369 269 3541 25
1370 269 3320 84
1371 269 2245 97
1372 269 2356 23
1373 269 419 54
1374 269 1532 25
1375 269 2562 28
1376 270 1134 34
1377 270 3634 45
1378 270 589 88
1379 270 2040 57
1380 270 2957 8
1381 270 2719 65
1382 271 2282 86
1383 271 2715 10
1384 271 2251 10
1385 271 3874 61
1386 272 47 46
1387 272 407 76
1388 272 1774 49
1389 272 1865 53
1390 272 2319 12
1391 272 657 91
1392 273 2703 38
1393 273 3943 40
1394 273 193 85
1395 273 1018 55
1396 273 3399 50
1397 274 2163 48
1398 275 3550 67
1399 275 892 86
1400 275 781 35
1401 275 2145 75
1402 275 721 8
1403 276 2173 68
1404 276 2493 89
1405 276 432 78
1406 276 1105 92
1407 276 3740 45
1408 277 707 61
1409 277 1414 16
1410 278 3601 7
1411 278 3870 62
1412 278 1121 6
1413 278 2674 50
1414 278 959 15
1415 278 924 13
1416 279 146 33
1417 279 3269 2
1418 279 1906 23
1419 280 375 22
1420 280 2081 85
1421 280 1728 28
1422 280 786 82
1423 280 946 44
1424 280 2446 76
1425 281 1785 54
1426 281 1297 2
1427 282 2006 49
1428 282 2490 45
1429 282 3544 67
1430 282 1170 43
1431 282 1294 46
1432 283 3707 23
1433 283 3003 23
1434 283 3327 98
1435 283 1448 76
1436 283 3186 47
1437 283 3699 3
1438 283 1294 77
1439 284 2324 86
1440 284 1882 39
1441 284 3306 37
1442 284 3233 28
1443 284 2481 56
1444 284 422 3
1445 284 2215 95
1446 284 1603 35
1447 284 3808 69
1448 284 3210 66
1449 285 364 37
1450 285 1659 69
1451 286 1653 85
1452 286 2283 90
1453 286 2754 92
1454 286 724 87
1455 286 2382 51
1456 287 2744 93
1457 287 2600 98
1458 287 912 9
1459 287 3714 69
1460 287 249 14
1461 287 27 64
1462 287 1773 37
1463 287 2488 42
1464 288 734 57
1465 288 1945 96
1466 288 634 41
1467 288 1214 57
1468 288 1952 52
1469 288 18 67
1470 288 3567 17
1471 288 3886 56
1472 289 3178 84
1473 289 2260 28
1474 289 639 56
1475 289 2680 77
1476 290 3478 90
1477 290 3709 87
1478 290 3589 2
1479 291 2588 82
1480 291 3850 5
1481 291 2297 65
1482 291 1414 75
1483 291 3115 85
1484 291 1459 61
1485 292 522 30
1486 292 7 83
1487 292 2998 7
1488 292 2228 29
1489 292 3089 55
1490 293 917 46
1491 293 120 79
1492 293 1256 90
1493 293 2771 98
1494 293 2958 5
1495 294 1360 60
1496 294 3006 60
1497 294 3489 36
1498 294 3672 55
1499 295 3452 57
1500 295 1889 33
1501 295 423 28
1502 296 1047 25
1503 297 2548 39
1504 297 1587 1
1505 298 1309 73
1506 298 1002 91
1507 298 14 88
1508 298 206 59
1509 298 1011 7
1510 299 3927 42
1511 300 574 44
1512 300 6 44
1513 300 2387 4
1514 300 1590 15
1515 300 401 89
1516 300 2362 87
1517 300 1276 26
1518 301 980 27
1519 301 2651 25
1520 301 2841 100
1521 301 1234 38
1522 301 1410 30
1523 302 2909 96
1524 302 2019 12
1525 303 1906 99
1526 303 2537 61
1527 303 2529 93
1528 303 3538 18
1529 303 1041 88
1530 304 2726 63
1531 304 151 90
1532 304 182 37
1533 304 703 80
1534 304 765 55
1535 304 3412 90
1536 304 106 29
1537 304 1671 13
1538 304 3859 65
1539 305 3790 65
1540 305 1642 46
1541 305 711 31
1542 305 1722 96
1543 305 3546 33
1544 306 1778 3
1545 306 3111 98
1546 306 2058 19
1547 306 1921 51
1548 306 47 16
1549 307 2775 87
1550 307 771 7
1551 307 1817 16
1552 307 1699 43
1553 307 164 96
1554 307 3762 67
1555 308 3016 41
1556 308 2875 20
1557 308 2182 49
1558 308 2097 27
1559 308 2592 22
1560 309 3132 27
1561 309 3127 11
1562 310 2801 6
1563 310 1470 57
1564 310 1866 90
1565 310 719 67
1566 310 3581 91
1567 310 2944 81
1568 310 2987 44
1569 311 2057 61
1570 311 565 61
1571 311 1457 66
1572 311 2847 89
1573 311 2237 71
1574 311 1929 37
1575 312 2869 54
1576 312 366 19
1577 312 539 5
1578 312 1324 48
1579 312 3094 38
1580 312 2232 18
1581 313 2726 3
1582 313 973 96
1583 313 154 90
1584 313 2092 12
1585 313 218 12
1586 313 2481 67
1587 313 1365 54
1588 314 1784 51
1589 314 3059 66
1590 314 3937 23
1591 314 1373 61
1592 314 1890 22
1593 314 159 52
1594 314 3438 30
1595 315 263 96
1596 315 1456 39
1597 315 3661 6
1598 315 2096 11
1599 316 608 100
1600 316 2536 66
1601 316 1660 70
1602 316 2775 12
1603 316 2543 37
1604 317 3036 73
1605 317 2196 57
1606 317 3536 92
1607 318 2189 57
1608 318 2479 93
1609 318 2195 33
1610 318 164 14
1611 318 1864 71
1612 318 2873 10
1613 318 2907 65
1614 319 3061 89
1615 319 713 17
1616 319 204 60
1617 319 3687 11
1618 319 2376 83
1619 319 14 46
1620 320 520 96
1621 320 74 14
1622 320 753 100
1623 320 861 25
1624 320 3133 97
1625 320 1370 15
1626 321 1241 76
1627 321 1798 35
1628 321 3120 68
1629 321 1299 22
1630 321 2654 95
1631 321 173 69
1632 321 649 72
1633 321 406 98
1634 321 3598 18
1635 322 2338 60
1636 322 3235 54
1637 322 1721 90
1638 322 2855 29
1639 322 2305 35
1640 322 992 27
1641 322 3019 77
1642 322 1136 34
1643 322 842 56
1644 323 1949 30
1645 323 1629 48
1646 323 1730 58
1647 324 365 94
1648 324 1804 14
1649 324 3008 69
1650 324 3715 89
1651 324 3292 68
1652 324 531 52
1653 324 2883 82
1654 324 3758 69
1655 325 3376 98
1656 325 2413 26
1657 325 3753 41
1658 326 1720 36
1659 326 2462 61
1660 326 2995 30
1661 326 2721 60
1662 326 383 37
1663 326 3620 43
1664 326 943 59
1665 326 926 15
1666 327 586 40
1667 327 1275 89
1668 327 1923 58
1669 328 3011 24
1670 328 954 58
1671 328 2761 34
1672 329 2817 87
1673 329 2334 96
1674 329 3734 59
1675 329 1996 77
1676 329 872 26
1677 329 608 16
1678 329 3423 89
1679 330 376 84
1680 330 1756 77
1681 330 3722 70
1682 330 426 4
1683 330 1223 57
1684 330 2049 10
1685 330 2459 17
1686 331 609 32
1687 331 1645 25
1688 331 2129 55
1689 331 2902 57
1690 331 1075 66
1691 331 165 14
1692 331 925 88
1693 332 4 19
1694 332 185 93
1695 333 759 14
1696 333 1601 43
1697 333 1574 46
1698 334 1684 35
1699 334 2714 98
1700 334 1765 21
1701 334 3241 29
1702 334 1634 57
1703 334 2649 32
1704 335 1418 76
1705 335 173 88
1706 335 687 76
1707 335 3091 58
1708 336 1948 58
1709 336 582 85
1710 336 2065 90
1711 337 1827 3
1712 337 3142 35
1713 337 3860 87
1714 337 3989 14
1715 337 0 33
1716 337 3478 90
1717 338 2615 44
1718 338 2404 70
1719 338 2842 69
1720 338 1892 53
1721 339 2324 11
1722 339 3239 28
1723 339 753 51
1724 339 2549 35
1725 340 3957 25
1726 340 153 20
1727 340 59 32
1728 341 213 48
1729 341 262 73
1730 341 2451 97
1731 341 3647 5
1732 341 3038 52
1733 341 2455 32
1734 341 2729 17
1735 342 1320 65
1736 342 3131 59
1737 342 1155 58
1738 342 3730 42
1739 342 3286 97
1740 342 2383 44
1741 343 2616 34
1742 343 356 93
1743 343 776 65
1744 344 3115 37
1745 345 2304 5
1746 345 3214 2
1747 345 1821 37
1748 345 176 20
1749 345 3197 9
1750 345 3810 1
1751 346 1134 88
1752 346 3422 77
1753 346 1459 74
1754 346 3322 63
1755 346 2757 76
1756 347 3240 90
1757 347 2709 67
1758 347 3358 67
1759 347 2649 43
1760 347 1888 59
1761 347 367 53
1762 348 980 91
1763 348 1398 1
1764 348 2396 9
1765 348 2873 87
1766 348 994 74
1767 348 2151 52
1768 348 2217 92
1769 349 778 54
1770 349 1367 85
1771 349 1749 50
1772 349 405 88
1773 349 1168 57
1774 349 3660 74
1775 349 388 27
1776 350 1474 75
1777 350 1395 73
1778 350 3202 95
1779 351 3261 24
1780 351 3310 64
1781 351 869 69
1782 351 3490 87
1783 351 2660 25
1784 352 2439 50
1785 352 3680 82
1786 353 1113 92
1787 353 2017 5
1788 353 3491 100
1789 353 3928 91
1790 353 1097 64
1791 353 1524 75
1792 353 727 67
1793 353 2614 77
1794 354 560 6
1795 354 2006 92
1796 354 215 73
1797 354 2761 63
1798 354 1527 95
1799 354 1085 88
1800 354 1244 69
1801 354 3096 77
1802 355 2388 81
1803 355 677 24
1804 355 3698 3
1805 355 2696 64
1806 355 93 85
1807 355 1011 94
1808 356 2080 74
1809 356 1084 66
1810 356 2892 31
1811 357 104 90
1812 357 3711 32
1813 357 181 67
1814 358 3953 10
1815 358 3676 2
1816 358 977 14
1817 358 911 97
1818 358 1616 25
1819 358 3927 52
1820 358 1086 17
1821 359 268 36
1822 359 1267 1
1823 359 3177 65
1824 359 2437 96
1825 360 3506 25
1826 360 1709 11
1827 360 2707 79
1828 360 1142 43
1829 360 237 88
1830 360 814 20
1831 360 2801 92
1832 361 3679 91
1833 361 892 49
1834 361 3049 34
1835 362 1034 100
1836 362 1589 51
1837 362 2557 62
1838 362 1775 37
1839 363 2647 33
1840 363 80 42
1841 363 825 53
1842 363 51 89
1843 363 3303 25
1844 364 3121 94
1845 364 3507 93
1846 364 2271 23
1847 364 1751 19
1848 364 2872 83
1849 364 1581 95
1850 365 471 43
1851 365 512 3
1852 365 454 47
1853 365 1248 40
1854 365 3404 84
1855 366 2266 49
1856 366 3217 60
1857 366 1463 95
1858 367 2674 67
1859 367 1944 67
1860 367 2033 85
1861 367 3589 37
1862 367 1058 65
1863 367 557 72
1864 367 355 2
1865 368 3825 97
1866 368 1940 48
1867 368 3843 74
1868 368 1910 43
1869 368 1716 34
1870 368 571 62
1871 369 2853 37
1872 369 2827 24
1873 369 2962 1
1874 369 1815 4
1875 370 2444 17
1876 370 930 69
1877 370 1049 73
1878 370 3355 95
1879 371 2869 20
1880 371 890 29
1881 371 115 39
1882 371 287 29
1883 372 3410 85
1884 372 2897 58
1885 372 1483 13
1886 373 3240 38
1887 373 1632 23
1888 373 3713 91
1889 373 2187 37
1890 373 2647 25
1891 373 329 87
1892 374 3695 65
1893 374 2922 85
1894 374 1480 66
1895 374 406 8
1896 375 3328 16
1897 375 1290 32
1898 375 1648 93
1899 376 3125 60
1900 376 392 23
1901 376 1131 85
1902 377 2948 35
1903 377 2380 78
1904 377 3203 21
1905 377 1216 69
1906 377 2499 71
1907 377 2807 38
1908 377 1171 5
1909 377 3307 95
1910 377 1689 74
1911 378 2939 52
1912 378 2921 78
1913 378 1578 99
1914 378 3403 54
1915 378 714 41
1916 378 1937 63
1917 378 1582 29
1918 378 1542 68
1919 379 3365 88
1920 379 3719 44
1921 379 3494 30
1922 379 2039 81
1923 380 155 60
1924 380 3557 41
1925 380 1036 14
1926 380 3238 23
1927 380 900 20
1928 381 3544 2
1929 381 2669 63
1930 381 3403 18
1931 381 145 11
1932 381 260 41
1933 381 1245 74
1934 382 2097 87
1935 382 2161 70
1936 382 1422 82
1937 382 3795 7
1938 382 2042 43
1939 382 1982 50
1940 382 1438 1
1941 383 2114 23
1942 383 1244 24
1943 383 3816 20
1944 384 2723 35
1945 384 1089 64
1946 384 13 84
1947 384 395 5
1948 384 488 30
1949 384 2230 22
1950 384 2804 83
1951 384 3137 89
1952 384 1749 11
1953 384 3202 31
1954 385 2882 94
1955 385 3510 25
1956 385 2576 60
1957 386 3279 69
1958 386 882 3
1959 386 2113 8
1960 386 3921 50
1961 387 1474 69
1962 387 3385 40
1963 387 88 2
1964 388 3519 79
1965 388 1537 88
1966 388 3950 53
1967 388 137 36
1968 388 817 19
1969 389 1868 74
1970 389 3023 30
1971 389 3803 72
1972 389 2563 47
1973 389 3955 42
1974 389 54 47
1975 390 3397 6
1976 390 1944 57
1977 391 2515 81
1978 391 3142 76
1979 391 743 25
1980 391 545 23
1981 392 336 100
1982 392 2556 98
1983 392 1125 1
1984 392 2925 5
1985 392 2269 89
1986 392 1558 91
1987 392 3546 94
1988 392 3847 68
1989 393 421 18
1990 393 3025 85
1991 393 535 17
1992 393 613 39
1993 393 2690 35
1994 393 1664 88
1995 394 1121 92
1996 394 1629 76
1997 394 1692 16
1998 394 84 29
1999 394 3354 6
2000 394 567 81
2001 395 781 50
2002 395 3426 13
2003 395 349 1
2004 395 1653 66
2005 396 1278 48
2006 396 2945 41
2007 396 177 85
2008 396 232 63
2009 397 1271 8
2010 397 1455 36
2011 397 2 16
2012 397 1644 75
2013 397 529 25
2014 398 2798 53
2015 398 1593 33
2016 398 3472 1
2017 398 2843 97
2018 398 1389 49
2019 398 1725 36
2020 399 2042 13
2021 399 1279 48
2022 400 2705 14
2023 400 3431 16
2024 400 2056 66
2025 400 3188 18
2026 400 1077 24
2027 400 2244 22
2028 400 271 37
2029 400 1242 15
2030 401 916 29
2031 401 762 86
2032 401 1173 92
2033 402 2477 22
2034 402 3866 96
2035 402 2567 94
2036 402 3193 74
2037 402 605 48
2038 403 962 8
2039 403 143 10
2040 404 2328 4
2041 404 1479 17
2042 404 422 32
2043 404 3148 23
2044 404 2311 25
2045 405 1590 95
2046 405 1287 21
2047 405 3367 93
2048 405 1561 97
2049 405 1198 16
2050 406 2753 28
2051 406 3744 73
2052 406 1464 74
2053 406 3551 82
2054 406 192 88
2055 407 1729 18
2056 407 1156 92
2057 407 1201 70
2058 407 3307 41
2059 407 1044 65
2060 407 2065 16
2061 407 1638 37
2062 407 2611 24
2063 407 3540 64
2064 408 1692 30
2065 408 3502 41
2066 408 1192 5
2067 408 1085 23
2068 408 1903 18
2069 408 820 13
2070 408 3272 92
2071 408 2279 35
2072 409 2347 80
2073 409 886 11
2074 409 546 51
2075 409 2562 12
2076 409 2978 7
2077 409 2857 89
2078 409 1049 98
2079 409 1248 11
2080 409 1276 77
2081 409 3014 75
2082 410 1315 44
2083 410 1450 29
2084 410 3843 88
2085 410 1064 19
2086 410 2671 12
2087 410 2850 1
2088 410 3130 43
2089 411 2498 79
2090 411 847 62
2091 411 1758 65
2092 411 852 83
2093 412 304 39
2094 412 431 85
2095 413 2727 23
2096 413 1191 85
2097 413 1524 70
2098 413 1336 12
2099 414 2769 38
2100 414 2732 84
2101 414 2408 32
2102 414 3837 82
2103 414 99 42
2104 414 2850 16
2105 414 1226 92
2106 414 2888 84
2107 414 3630 80
2108 414 292 83
2109 414 2828 39
2110 414 94 89
2111 415 2166 91
2112 415 924 16
2113 415 820 80
2114 416 1995 74
2115 416 2920 60
2116 416 2024 78
2117 416 3406 69
2118 417 2702 12
2119 417 1605 63
2120 417 3278 53
2121 417 3942 31
2122 418 698 3
2123 418 3528 86
2124 418 1710 14
2125 418 3419 77
2126 418 677 84
2127 418 2489 96
2128 418 2192 97
2129 419 3731 14
2130 419 2024 14
2131 419 3701 45
2132 419 1775 36
2133 419 2064 27
2134 420 2305 94
2135 420 3729 15
2136 420 1863 56
2137 420 1485 89
2138 420 2094 58
2139 420 3667 7
2140 421 39 11
2141 421 3191 86
2142 421 2329 38
2143 421 3293 15
2144 422 2724 1
2145 422 419 39
2146 423 107 87
2147 423 1928 72
2148 423 1912 67
2149 423 966 18
2150 424 2709 4
2151 424 34 53
2152 424 3545 34
2153 424 2891 86
2154 425 2434 45
2155 425 1390 49
2156 425 3179 19
2157 425 261 83
2158 425 1858 81
2159 425 2801 4
2160 425 1195 81
2161 425 2533 4
2162 425 3225 79
2163 426 932 71
2164 426 1657 25
2165 426 1722 81
2166 426 3471 23
2167 426 1202 91
2168 426 2009 64
2169 427 3944 25
2170 427 2551 56
2171 427 1013 99
2172 427 619 48
2173 427 1511 19
2174 427 1193 83
2175 428 1293 89
2176 428 3021 86
2177 428 2684 73
2178 428 2165 27
2179 428 1301 79
2180 428 2040 59
2181 428 2274 17
2182 428 1808 48
2183 428 915 82
2184 428 864 94
2185 428 1236 90
2186 429 1018 17
2187 429 503 7
2188 429 1511 96
2189 429 3270 82
2190 429 982 41
2191 429 3144 49
2192 429 1994 45
2193 429 2352 53
2194 430 3633 89
2195 430 2650 94
2196 430 1361 60
2197 430 3038 80
2198 431 1121 92
2199 431 70 13
2200 431 2734 98
2201 431 3386 55
2202 431 145 57
2203 431 3970 10
2204 432 1302 19
2205 432 3124 60
2206 432 3992 79
2207 432 1587 40
2208 432 597 35
2209 432 2225 91
2210 433 3025 3
2211 433 3072 13
2212 433 2961 30
2213 433 3905 3
2214 433 3223 45
2215 433 1405 74
2216 434 1720 58
2217 434 187 17
2218 434 2522 42
2219 434 3652 26
2220 435 2099 32
2221 435 783 84
2222 435 920 96
2223 435 1588 22
2224 435 229 40
2225 435 2430 99
2226 435 3380 81
2227 436 2293 75
2228 436 3181 59
2229 436 910 6
2230 437 1191 59
2231 437 3769 86
2232 437 2338 26
2233 438 2221 3
2234 438 712 51
2235 438 1366 72
2236 438 3689 55
2237 438 2851 71
2238 439 681 66
2239 439 3714 61
2240 439 1686 71
2241 440 3548 56
2242 440 2355 15
2243 440 3465 74
2244 440 19 24
2245 440 641 8
2246 441 490 92
2247 441 2442 87
2248 441 1834 18
2249 441 2156 89
2250 441 354 19
2251 441 2068 70
2252 441 2484 90
2253 441 2833 45
2254 442 1184 37
2255 442 2923 6
2256 442 1246 35
2257 442 1857 2
2258 442 3569 19
2259 442 2607 52
2260 442 573 97
2261 442 2577 12
2262 442 3621 55
2263 442 3460 50
2264 443 2546 67
2265 443 2332 85
2266 443 3158 33
2267 444 2614 41
2268 444 1753 88
2269 444 1370 8
2270 444 2062 13
2271 444 605 41
2272 444 1182 56
2273 445 3752 96
2274 445 3032 84
2275 445 2163 17
2276 445 1628 22
2277 446 1686 44
2278 446 3206 70
2279 446 1455 34
2280 446 3555 67
2281 446 3143 15
2282 447 3784 80
2283 447 3952 97
2284 447 133 3
2285 447 1554 53
2286 447 2249 2
2287 447 2241 38
2288 447 2184 43
2289 447 2645 83
2290 448 3039 96
2291 448 3117 79
2292 448 1954 70
2293 448 2676 24
2294 448 2661 91
2295 449 1369 57
2296 449 1866 71
2297 449 867 9
2298 450 263 37
2299 451 1570 61
2300 451 1531 5
2301 451 2697 44
2302 452 358 85
2303 452 1860 96
2304 452 2604 56
2305 452 2011 39
2306 453 394 79
2307 453 1411 100
2308 453 899 60
2309 453 1733 87
2310 454 2909 13
2311 454 2515 62
2312 454 522 19
2313 454 1453 75
2314 454 2053 16
2315 454 3001 22
2316 455 1000 52
2317 455 2350 73
2318 455 2844 66
2319 455 2642 13
2320 455 3020 41
2321 455 1775 32
2322 456 2305 29
2323 456 1440 35
2324 456 3094 46
2325 456 1437 29
2326 456 884 25
2327 456 3289 70
2328 456 3261 39
2329 456 2046 27
2330 456 3992 3
2331 457 1595 79
2332 457 1540 82
2333 457 911 18
2334 457 2590 54
2335 457 1481 77
2336 457 3739 59
2337 458 2680 65
2338 458 2598 66
2339 458 21 84
2340 458 1152 26
2341 458 2128 27
2342 458 176 16
2343 459 2324 7
2344 459 2929 92
2345 459 858 23
2346 460 2015 99
2347 460 3026 7
2348 460 3457 65
2349 460 1241 44
2350 460 1552 89
2351 461 3287 20
2352 461 865 6
2353 462 3442 83
2354 462 1500 47
2355 462 2298 52
2356 462 3768 34
2357 462 3923 44
2358 462 2746 79
2359 462 2848 68
2360 463 3385 2
2361 463 3730 25
2362 463 382 34
2363 463 1467 33
2364 463 261 7
2365 464 1834 44
2366 464 2765 69
2367 464 3766 46
2368 464 1417 56
2369 464 3875 46
2370 464 356 94
2371 464 965 79
2372 464 2665 47
2373 465 1825 11
2374 465 2884 75
2375 466 2946 61
2376 466 3631 96
2377 466 1208 33
2378 466 289 90
2379 466 1404 32
2380 467 736 100
2381 467 2905 78
2382 467 1894 99
2383 468 674 45
2384 468 458 5
2385 468 2562 33
2386 468 2556 38
2387 468 2974 97
2388 468 2539 91
2389 469 3656 86
2390 469 297 82
2391 469 1553 86
2392 469 126 39
2393 469 3829 91
2394 469 2814 90
2395 469 3755 73
2396 469 3415 94
2397 470 1360 18
2398 470 428 97
2399 470 2110 88
2400 470 1324 3
2401 470 2921 76
2402 471 2431 48
2403 471 2768 36
2404 471 925 41
2405 472 315 47
2406 472 2701 35
2407 472 578 78
2408 472 3509 12
2409 473 2123 24
2410 473 3327 97
2411 473 156 68
2412 473 463 27
2413 473 954 10
2414 473 484 13
2415 474 924 58
2416 474 1094 90
2417 474 3852 74
2418 474 3345 37
2419 474 3563 75
2420 474 1960 38
2421 475 1084 35
2422 475 2633 17
2423 476 1207 24
2424 476 3643 66
2425 476 3160 31
2426 476 2827 19
2427 477 2605 80
2428 477 1522 82
2429 477 151 74
2430 478 107 43
2431 478 3425 86
2432 478 930 65
2433 478 2518 59
2434 478 2857 38
2435 479 772 20
2436 479 2488 57
2437 479 3811 77
2438 479 3382 53
2439 480 1060 95
2440 480 494 29
2441 480 3009 1
2442 480 226 36
2443 480 1801 79
2444 480 3215 42
2445 480 2617 83
2446 481 3122 44
2447 481 3785 3
2448 481 1729 73
2449 481 1010 39
2450 481 3048 57
2451 481 2793 69
2452 482 483 84
2453 482 2198 87
2454 482 161 49
2455 482 1515 91
2456 482 628 37
2457 482 3494 9
2458 483 3333 56
2459 483 3711 26
2460 483 1004 70
2461 483 379 71
2462 484 766 22
2463 484 3050 65
2464 484 2996 86
2465 485 2761 9
2466 485 1928 2
2467 486 1292 93
2468 486 1584 44
2469 486 386 93
2470 486 2387 73
2471 486 1078 98
2472 486 3953 21
2473 486 2470 45
2474 486 2362 14
2475 486 1206 22
2476 486 3803 14
2477 486 3511 16
2478 487 2624 65
2479 487 1416 76
2480 488 990 94
2481 488 2455 37
2482 488 2221 49
2483 489 1884 21
2484 489 2205 32
2485 489 1370 14
2486 489 1262 11
2487 489 1094 56
2488 489 1554 49
2489 490 529 48
2490 490 33 48
2491 490 1054 50
2492 490 1186 29
2493 490 628 81
2494 490 3692 55
2495 491 3764 29
2496 491 2952 1
2497 491 2035 7
2498 491 2700 88
2499 492 3534 38
2500 492 1737 87
2501 492 882 25
2502 492 2875 26
2503 493 3593 41
2504 493 1963 75
2505 493 1088 6
2506 493 1410 11
2507 493 2628 45
2508 493 2871 51
2509 493 3641 38
2510 494 276 2
2511 494 1104 59
2512 494 3637 86
2513 494 3570 81
2514 494 2469 47
2515 495 1149 97
2516 495 3718 43
2517 495 964 92
2518 495 1938 52
2519 495 3046 73
2520 495 2835 37
2521 495 3274 12
2522 496 527 34
2523 496 1365 50
2524 496 2655 94
2525 496 1739 57
2526 496 2320 27
2527 497 3545 44
2528 497 3478 80
2529 497 1159 19
2530 497 1829 89
2531 497 959 65
2532 497 3467 25
2533 497 3256 93
2534 498 2554 87
2535 499 858 79
2536 499 2954 50
2537 499 1482 20
2538 499 3069 48
2539 500 853 97
2540 500 3527 61
2541 500 2208 59
2542 500 2225 34
2543 500 481 90
2544 500 87 13
2545 500 2943 85
2546 500 2588 51
2547 500 3748 16
2548 501 325 55
2549 501 3735 47
2550 501 2252 54
2551 501 3529 88
2552 502 614 51
2553 502 1734 97
2554 502 3436 41
2555 502 1719 60
2556 502 3930 52
2557 502 2169 40
2558 503 3800 2
2559 503 1699 51
2560 503 904 28
2561 503 728 32
2562 503 3832 50
2563 504 1603 46
2564 504 833 44
2565 504 3925 66
2566 504 3215 51
2567 504 1671 15
2568 504 118 58
2569 504 2686 15
2570 505 392 11
2571 505 169 8
2572 505 1589 55
2573 505 2406 74
2574 505 1713 53
2575 505 2899 59
2576 506 3755 74
2577 507 922 50
2578 507 3815 77
2579 507 2830 29
2580 507 3505 79
2581 508 457 24
2582 508 29 36
2583 509 3191 75
2584 509 267 83
2585 509 2208 53
2586 509 353 20
2587 509 338 30
2588 509 2871 40
2589 509 330 37
2590 510 1763 26
2591 510 110 55
2592 511 3456 77
2593 511 223 23
2594 512 407 65
2595 512 516 41
2596 513 1895 11
2597 513 1558 45
2598 513 2574 54
2599 513 397 24
2600 513 2965 92
2601 513 2467 68
2602 514 120 27
2603 514 3462 64
2604 514 2780 77
2605 514 194 99
2606 514 1275 37
2607 514 2013 57
2608 514 2487 58
2609 515 1663 81
2610 515 2854 38
2611 515 1845 9
2612 515 1548 64
2613 515 3306 95
2614 515 2970 28
2615 516 1402 29
2616 516 240 90
2617 516 1185 32
2618 517 910 54
2619 517 3635 95
2620 517 2542 8
2621 518 3831 15
2622 518 1038 7
2623 518 1375 61
2624 519 3468 69
2625 519 1713 55
2626 519 379 62
2627 519 1175 50
2628 519 1860 99
2629 519 1750 88
2630 519 1972 6
2631 519 1849 48
2632 520 1222 28
2633 520 1113 37
2634 520 90 96
2635 520 1058 43
2636 520 701 5
2637 520 392 27
2638 520 2211 43
2639 520 1482 71
2640 520 3430 89
2641 521 3471 100
2642 521 771 13
2643 522 3768 55
2644 522 2561 87
2645 523 2240 95
2646 523 3196 85
2647 523 2177 85
2648 523 476 47
2649 523 2680 40
2650 523 225 79
2651 523 2105 93
2652 524 2046 70
2653 524 3999 81
2654 524 875 82
2655 524 3980 8
2656 524 3392 81
2657 525 2259 87
2658 525 982 51
2659 525 1098 14
2660 526 1171 66
2661 526 3916 40
2662 526 3001 49
2663 526 913 39
2664 527 429 71
2665 527 3724 64
2666 527 2751 49
2667 528 249 1
2668 528 1242 67
2669 528 614 86
2670 529 1317 48
2671 530 184 58
2672 530 1072 51
2673 530 1833 40
2674 530 1091 55
2675 530 1799 4
2676 531 1152 27
2677 531 3537 49
2678 531 1805 26
2679 531 2415 85
2680 531 2244 22
2681 532 1750 37
2682 532 300 17
2683 532 1886 69
2684 533 1576 100
2685 533 3545 56
2686 533 58 52
2687 533 2429 23
2688 534 1392 19
2689 534 1100 64
2690 534 1222 13
2691 534 3264 80
2692 534 2076 81
2693 535 2660 19
2694 535 3094 12
2695 535 3605 59
2696 535 1789 29
2697 535 2406 53
2698 535 889 50
2699 535 1151 96
2700 536 1136 44
2701 536 1299 56
2702 536 581 54
2703 537 2810 59
2704 537 243 30
2705 537 3961 78
2706 537 2081 8
2707 537 3071 49
2708 537 3452 88
2709 537 660 100
2710 537 13 6
2711 537 38 63
2712 538 2408 21
2713 538 3170 64
2714 538 3370 88
2715 538 2756 64
2716 538 3629 97
2717 538 273 21
2718 538 2512 86
2719 539 3775 25
2720 540 446 53
2721 540 2741 48
2722 540 1905 92
2723 540 3933 58
2724 540 3786 53
2725 540 3382 10
2726 541 141 34
2727 541 1517 59
2728 541 866 90
2729 542 2233 56
2730 542 1352 53
2731 543 1111 46
2732 543 3358 89
2733 543 1999 96
2734 543 985 61
2735 543 260 81
2736 543 2636 16
2737 543 239 54
2738 543 431 33
2739 544 3385 4
2740 544 295 21
2741 544 3301 21
2742 544 2333 51
2743 544 1431 15
2744 544 282 92
2745 544 3954 85
2746 545 3651 95
2747 545 466 17
2748 545 787 26
2749 545 491 33
2750 546 2982 75
2751 546 3926 91
2752 546 3404 33
2753 546 3862 44
2754 546 732 94
2755 547 3125 58
2756 547 3341 23
2757 547 1201 35
2758 547 3262 89
2759 547 960 34
2760 547 552 77
2761 547 3199 12
2762 547 3088 59
2763 547 525 56
2764 548 2470 35
2765 548 3519 69
2766 548 593 92
2767 548 2030 24
2768 548 3430 55
2769 548 2824 13
2770 548 1410 39
2771 548 2424 68
2772 548 3882 82
2773 548 2422 10
2774 548 3870 4
2775 549 642 75
2776 549 919 77
2777 549 215 44
2778 549 211 83
2779 550 2357 62
2780 550 3193 66
2781 550 3583 10
2782 551 2437 72
2783 551 1878 32
2784 551 186 27
2785 551 2696 67
2786 551 2054 82
2787 551 3376 98
2788 552 131 3
2789 552 3194 63
2790 553 3323 2
2791 553 1205 29
2792 553 3203 81
2793 553 3340 31
2794 554 1584 96
2795 554 2943 15
2796 554 3631 45
2797 554 2502 51
2798 554 3260 98
2799 555 2710 54
2800 555 2862 62
2801 555 1544 2
2802 555 1382 44
2803 555 2615 25
2804 555 1554 32
2805 555 1826 83
2806 556 2716 86
2807 556 1578 6
2808 556 3572 69
2809 558 2396 100
2810 558 2722 43
2811 558 1703 12
2812 558 1019 77
2813 558 782 69
2814 558 2936 26
2815 559 2800 70
2816 559 3326 87
2817 559 3379 50
2818 559 2180 8
2819 559 1016 51
2820 560 193 73
2821 560 153 52
2822 561 1418 89
2823 561 398 24
2824 562 2556 40
2825 562 3577 80
2826 562 739 71
2827 562 2942 78
2828 562 1216 47
2829 563 1390 54
2830 563 2921 95
2831 563 1836 74
2832 563 3292 12
2833 564 393 9
2834 564 808 6
2835 565 2818 25
2836 565 3284 2
2837 565 3026 70
2838 565 1866 76
2839 565 1033 57
2840 565 2843 46
2841 565 1188 68
2842 566 3813 50
2843 566 861 28
2844 566 1715 72
2845 566 3072 89
2846 566 155 84
2847 566 1272 98
2848 566 2281 4
2849 566 2348 34
2850 567 427 8
2851 567 737 38
2852 567 3440 99
2853 567 1111 35
2854 567 1913 13
2855 567 3765 50
2856 568 478 10
2857 568 3308 51
2858 569 2430 52
2859 569 1262 82
2860 569 1881 83
2861 569 2632 87
2862 569 3702 13
2863 569 3923 26
2864 569 3295 1
2865 569 599 51
2866 569 2563 26
2867 570 2440 42
2868 570 3670 37
2869 570 3537 68
2870 570 1602 45
2871 570 411 25
2872 571 3370 74
2873 571 1398 54
2874 571 23 12
2875 571 3570 81
2876 571 2063 97
2877 572 1794 2
2878 572 1071 38
2879 572 2264 66
2880 572 300 3
2881 573 3940 66
2882 573 732 72
2883 573 493 1
2884 573 2878 41
2885 574 3758 84
2886 574 1671 62
2887 574 3097 34
2888 574 1588 88
2889 574 2125 75
2890 574 159 67
2891 574 3229 91
2892 575 1539 92
2893 575 2023 63
2894 575 874 47
2895 575 3553 68
2896 575 2433 91
2897 575 542 33
2898 575 666 93
2899 575 996 7
2900 575 786 22
2901 576 74 39
2902 576 3159 98
2903 576 2823 76
2904 576 3498 32
2905 576 1440 65
2906 576 672 59
2907 576 931 9
2908 577 289 28
2909 577 1367 69
2910 577 3939 77
2911 577 1688 77
2912 577 3816 98
2913 577 813 19
2914 578 512 59
2915 578 3080 73
2916 578 16 89
2917 578 683 30
2918 578 2585 44
2919 578 271 86
2920 578 3916 37
2921 579 854 97
2922 579 2857 34
2923 579 3730 88
2924 579 3977 35
2925 579 2381 44
2926 580 2792 70
2927 580 2037 96
2928 580 1942 100
2929 580 2928 80
2930 580 2405 3
2931 580 1762 44
2932 580 661 95
2933 581 3521 57
2934 581 3784 26
2935 581 2794 84
2936 581 3652 8
2937 581 1021 16
2938 581 1184 76
2939 581 2892 96
2940 581 1569 77
2941 582 3638 42
2942 582 102 17
2943 582 3698 51
2944 582 3125 10
2945 582 3484 99
2946 582 748 36
2947 582 2639 90
2948 582 70 46
2949 583 2187 87
2950 584 2959 57
2951 584 2253 82
2952 584 3470 67
2953 584 2495 22
2954 584 2325 38
2955 585 1043 48
2956 585 1695 94
2957 585 1731 82
2958 585 1337 52
2959 585 2828 55
2960 586 1984 30
2961 586 546 56
2962 586 1832 28
2963 586 336 7
2964 586 1613 46
2965 586 1445 15
2966 587 3370 18
2967 587 3342 67
2968 587 2845 11
2969 587 1067 53
2970 587 773 26
2971 587 3725 57
2972 587 3744 80
2973 588 1003 75
2974 588 3549 56
2975 588 803 30
2976 588 3905 12
2977 589 1911 59
2978 589 3078 32
2979 589 5 26
2980 590 2133 97
2981 590 3370 26
2982 591 885 72
2983 591 2416 46
2984 591 1426 51
2985 592 3619 71
2986 592 2005 81
2987 592 699 32
2988 592 1747 51
2989 592 3900 74
2990 593 3066 98
2991 593 3758 82
2992 593 669 43
2993 593 2992 58
2994 593 3244 6
2995 593 3572 94
2996 594 1328 94
2997 594 2572 81
2998 594 404 8
2999 594 659 15
3000 595 2429 43
3001 595 3309 87
3002 595 283 5
3003 595 2163 91
3004 595 1065 32
3005 596 1070 35
3006 596 1193 27
3007 596 28 16
3008 596 2411 55
3009 597 444 20
3010 597 3515 79
3011 597 2681 23
3012 597 689 26
3013 598 1323 94
3014 598 178 42
3015 598 3839 52
3016 598 3755 24
3017 598 3229 16
3018 598 6 31
3019 599 3292 34
3020 599 2838 25
3021 600 1242 31
3022 600 3262 48
3023 600 3090 58
3024 600 161 12
3025 601 1464 100
3026 601 2523 23
3027 601 2982 3
3028 601 963 42
3029 602 1141 63
3030 602 3776 40
3031 602 988 79
3032 602 171 17
3033 602 1090 9
3034 603 1475 29
3035 603 824 82
3036 603 1500 69
3037 603 3309 55
3038 603 1331 1
3039 603 611 49
3040 604 1877 65
3041 604 3637 24
3042 604 2094 68
3043 604 942 79
3044 605 861 58
3045 605 741 99
3046 605 2034 18
3047 605 2979 86
3048 605 3667 85
3049 606 1436 66
3050 606 580 58
3051 606 3416 5
3052 606 971 19
3053 606 3888 33
3054 607 3355 48
3055 607 1134 52
3056 607 1202 40
3057 608 3188 89
3058 608 3654 42
3059 608 973 98
3060 608 1470 30
3061 608 1020 16
3062 609 1465 87
3063 609 3953 7
3064 609 2721 61
3065 609 2295 51
3066 610 2469 82
3067 610 1275 75
3068 610 538 90
3069 611 3643 8
3070 611 1346 62
3071 611 1457 4
3072 611 971 2
3073 611 1528 99
3074 612 2478 87
3075 612 2791 74
3076 612 658 50
3077 612 108 6
3078 612 2887 71
3079 612 474 74
3080 612 1086 56
3081 613 1297 60
3082 613 3580 40
3083 613 1077 34
3084 613 3073 30
3085 613 3046 83
3086 613 706 42
3087 613 3054 76
3088 613 3619 99
3089 614 3278 29
3090 614 911 36
3091 614 1909 47
3092 614 3360 84
3093 614 659 64
3094 614 620 10
3095 614 1550 53
3096 615 1521 90
3097 615 3244 87
3098 616 1408 15
3099 616 1431 47
3100 617 2701 84
3101 617 1522 83
3102 617 2220 55
3103 618 453 27
3104 618 3816 32
3105 619 2447 50
3106 619 222 3
3107 619 3271 53
3108 619 467 87
3109 620 569 11
3110 620 668 3
3111 620 2698 97
3112 620 2917 90
3113 620 1389 87
3114 620 964 11
3115 621 2345 32
3116 621 2414 88
3117 621 1486 21
3118 621 3458 28
3119 621 592 9
3120 621 480 24
3121 622 988 25
3122 622 2524 3
3123 622 2677 30
3124 622 3654 52
3125 622 1477 64
3126 623 387 21
3127 623 3421 55
3128 623 2810 65
3129 623 3817 37
3130 623 3469 57
3131 623 465 30
3132 623 3299 6
3133 623 2594 70
3134 624 1256 12
3135 624 602 53
3136 624 432 77
3137 624 482 6
3138 624 2789 26
3139 625 243 44
3140 625 1572 4
3141 626 13 27
3142 626 2308 93
3143 626 952 96
3144 626 1842 35
3145 627 2056 17
3146 627 49 6
3147 627 921 52
3148 627 2275 19
3149 627 1385 65
3150 628 211 93
3151 628 3289 79
3152 628 2461 44
3153 628 634 94
3154 629 2159 68
3155 629 2904 96
3156 629 867 2
3157 630 1936 36
3158 630 841 18
3159 630 2242 38
3160 630 96 71
3161 631 888 43
3162 631 3790 13
3163 631 1559 81
3164 631 0 10
3165 631 3901 85
3166 631 2819 56
3167 631 545 68
3168 631 3718 93
3169 631 1558 72
3170 631 1485 95
3171 631 313 29
3172 632 2092 75
3173 632 1546 21
3174 632 1901 10
3175 632 1958 9
3176 633 209 40
3177 633 1146 32
3178 633 1464 82
3179 634 1030 49
3180 634 3080 64
3181 634 1730 71
3182 634 3711 45
3183 635 1466 68
3184 635 1458 58
3185 635 3954 30
3186 635 1341 25
3187 635 296 96
3188 635 791 88
3189 635 1215 34
3190 635 3358 50
3191 635 3878 49
3192 636 2716 62
3193 636 2295 55
3194 636 1760 95
3195 636 333 52
3196 637 2266 68
3197 637 1344 17
3198 637 1766 79
3199 637 1335 27
3200 637 1262 7
3201 637 2500 4
3202 638 2520 95
3203 638 2511 63
3204 639 3424 27
3205 639 2142 61
3206 639 1431 2
3207 639 798 31
3208 639 699 65
3209 639 3003 58
3210 639 2218 64
3211 639 3371 38
3212 640 2869 56
3213 640 314 35
3214 640 3294 30
3215 640 2843 65
3216 640 3935 85
3217 640 2924 44
3218 640 2859 3
3219 640 2410 68
3220 640 3000 67
3221 640 2457 22
3222 640 2626 48
3223 640 193 87
3224 641 148 58
3225 641 3690 4
3226 641 2049 37
3227 642 797 35
3228 642 266 95
3229 642 948 97
3230 642 3542 44
3231 642 3278 100
3232 643 3199 45
3233 643 3709 33
3234 643 3469 21
3235 643 3888 72
3236 644 1798 32
3237 644 1585 48
3238 645 3012 82
3239 645 1026 66
3240 645 2908 70
3241 645 3975 62
3242 645 3539 81
3243 645 2769 33
3244 645 2534 23
3245 646 1738 13
3246 646 2268 7
3247 646 1728 75
3248 646 3113 35
3249 648 1465 30
3250 648 1429 70
3251 648 3948 6
3252 648 1200 45
3253 648 2650 100
3254 648 940 37
3255 648 308 88
3256 649 2565 59
3257 649 1046 76
3258 649 2530 84
3259 650 3730 94
3260 650 3290 34
3261 650 717 96
3262 650 3506 66
3263 650 1574 76
3264 650 2263 66
3265 650 910 30
3266 651 786 1
3267 651 2955 16
3268 652 3888 67
3269 652 3270 98
3270 652 3712 55
3271 652 946 7
3272 652 3430 69
3273 652 1047 4
3274 652 3326 99
3275 653 3950 92
3276 653 376 60
3277 653 261 48
3278 653 3192 92
3279 653 2511 29
3280 653 1145 74
3281 653 742 30
3282 654 3759 85
3283 654 1073 91
3284 655 2091 94
3285 655 2788 76
3286 655 682 71
3287 655 2890 47
3288 655 1984 99
3289 655 1958 49
3290 655 3604 58
3291 656 858 98
3292 656 3219 98
3293 656 404 55
3294 656 2247 2
3295 656 1817 4
3296 656 2963 97
3297 657 1926 91
3298 657 3875 33
3299 657 1381 24
3300 657 2077 62
3301 657 3609 6
3302 658 3990 76
3303 658 3016 66
3304 658 977 31
3305 658 3350 78
3306 659 3302 53
3307 659 3990 97
3308 659 3211 43
3309 659 3329 38
3310 659 393 95
3311 659 208 68
3312 659 292 81
3313 659 3460 75
3314 659 677 39
3315 660 240 81
3316 660 2603 26
3317 660 1428 88
3318 660 3679 97
3319 660 3207 28
3320 660 447 98
3321 661 1816 66
3322 661 1100 83
3323 661 2110 2
3324 662 654 94
3325 662 1384 47
3326 662 3430 28
3327 663 92 53
3328 663 542 30
3329 663 2669 33
3330 663 399 57
3331 664 889 81
3332 664 735 11
3333 665 1337 89
3334 665 3461 50
3335 665 2109 64
3336 665 1972 65
3337 665 3806 6
3338 665 44 33
3339 666 1150 100
3340 666 2638 100
3341 666 412 57
3342 666 1439 84
3343 666 2410 86
3344 667 2868 71
3345 667 2938 8
3346 667 3423 45
3347 667 1674 81
3348 668 3974 88
3349 668 2073 90
3350 669 1513 40
3351 669 300 33
3352 669 2737 45
3353 669 2306 17
3354 669 1712 75
3355 670 1558 22
3356 670 1410 48
3357 670 3941 66
3358 670 827 24
3359 670 1726 34
3360 670 465 75
3361 670 1351 14
3362 671 1726 37
3363 671 66 70
3364 671 1987 1
3365 671 1288 72
3366 671 3278 58
3367 671 800 34
3368 672 2003 42
3369 672 545 74
3370 672 178 23
3371 672 1299 13
3372 672 1676 84
3373 672 879 65
3374 672 3365 74
3375 673 2214 26
3376 673 2630 13
3377 673 2537 100
3378 673 146 92
3379 673 2726 6
3380 674 2053 45
3381 674 41 67
3382 674 2267 62
3383 674 647 50
3384 674 2906 99
3385 674 3856 67
3386 674 742 52
3387 674 1548 77
3388 674 2475 94
3389 675 2224 33
3390 675 3193 49
3391 675 2651 9
3392 675 3472 71
3393 675 2674 36
3394 675 2156 11
3395 676 804 50
3396 676 941 42
3397 676 1064 94
3398 677 2444 64
3399 677 1731 9
3400 677 1303 34
3401 677 3021 14
3402 677 2528 85
3403 677 252 64
3404 677 965 71
3405 677 516 87
3406 677 2946 58
3407 678 1637 98
3408 678 762 40
3409 678 1258 99
3410 678 1739 86
3411 678 1172 92
3412 678 2659 16
3413 678 1711 4
3414 679 3938 42
3415 679 1972 52
3416 679 587 53
3417 679 2178 25
3418 679 660 17
3419 679 2247 53
3420 680 2450 23
3421 680 778 36
3422 680 1328 55
3423 680 3578 28
3424 681 1325 5
3425 681 846 24
3426 681 1803 99
3427 682 3407 44
3428 682 3496 97
3429 682 2837 95
3430 683 99 88
3431 683 2531 82
3432 683 174 64
3433 683 2746 70
3434 684 3985 95
3435 684 728 54
3436 684 1902 44
3437 684 3675 30
3438 684 3119 43
3439 685 710 62
3440 685 2550 71
3441 685 1676 50
3442 685 3272 54
3443 685 2078 51
3444 686 522 59
3445 686 1290 28
3446 686 941 55
3447 687 2869 100
3448 687 693 4
3449 687 1453 29
3450 687 3061 19
3451 687 1118 13
3452 688 2240 15
3453 688 3043 82
3454 688 364 87
3455 688 2090 92
3456 689 2939 22
3457 689 973 36
3458 689 1941 42
3459 689 161 72
3460 689 330 55
3461 689 2823 11
3462 690 1599 46
3463 690 3486 36
3464 690 453 62
3465 691 1415 79
3466 691 752 74
3467 691 1897 65
3468 691 874 39
3469 692 1254 34
3470 692 8 89
3471 692 2874 91
3472 693 3590 13
3473 693 1185 70
3474 693 2008 87
3475 693 2876 45
3476 693 1478 9
3477 694 1355 77
3478 694 2861 77
3479 694 1272 53
3480 694 244 66
3481 694 1920 27
3482 694 706 89
3483 695 1206 21
3484 695 2914 62
3485 695 2528 95
3486 696 420 54
3487 696 1584 19
3488 696 1418 69
3489 696 1098 76
3490 696 2658 81
3491 696 495 8
3492 696 1482 66
3493 697 1531 19
3494 697 965 29
3495 697 2096 63
3496 698 864 15
3497 698 2734 4
3498 698 2990 48
3499 698 3446 76
3500 698 135 54
3501 698 1360 2
3502 698 2804 22
3503 698 2905 26
3504 698 1144 29
3505 698 3902 89
3506 699 2511 78
3507 699 232 66
3508 699 3064 3
3509 699 1227 36
3510 699 3612 58
3511 699 95 91
3512 700 3750 32
3513 700 3017 20
3514 700 2316 63
3515 700 2449 24
3516 701 964 17
3517 701 845 35
3518 703 1694 25
3519 703 2229 90
3520 703 3347 97
3521 703 592 63
3522 703 1971 41
3523 703 3292 70
3524 703 3159 96
3525 705 2390 92
3526 705 707 92
3527 705 880 13
3528 705 2191 14
3529 705 299 55
3530 705 1581 18
3531 706 1300 45
3532 706 787 74
3533 706 2332 50
3534 707 1363 96
3535 707 852 79
3536 707 1991 96
3537 707 1321 58
3538 708 3777 9
3539 708 2530 65
3540 708 3950 48
3541 708 963 10
3542 708 1758 16
3543 708 422 35
3544 708 369 86
3545 708 851 57
3546 708 277 57
3547 708 951 60
3548 708 1095 16
3549 708 3141 50
3550 708 500 26
3551 709 1567 15
3552 709 1417 89
3553 709 960 41
3554 709 3567 79
3555 709 766 26
3556 709 2034 68
3557 710 3300 7
3558 711 1405 77
3559 711 2513 52
3560 711 1962 19
3561 712 2070 84
3562 712 3269 95
3563 712 2852 60
3564 713 3543 66
3565 713 1997 97
3566 713 905 51
3567 714 2344 100
3568 714 2499 15
3569 714 3744 12
3570 714 175 67
3571 714 2770 96
3572 714 2235 74
3573 714 218 9
3574 714 2936 73
3575 715 450 22
3576 715 2325 72
3577 715 2704 30
3578 715 1188 88
3579 715 2247 92
3580 715 1377 36
3581 716 361 99
3582 716 3339 99
3583 716 1090 92
3584 716 2436 88
3585 716 2798 35
3586 716 227 5
3587 716 1466 17
3588 717 3621 56
3589 717 1590 83
3590 717 3284 92
3591 717 1322 6
3592 717 390 86
3593 717 3316 66
3594 717 1527 29
3595 717 3967 43
3596 718 1428 85
3597 718 3499 72
3598 718 1421 94
3599 718 2024 70
3600 718 3233 96
3601 719 1406 73
3602 719 333 60
3603 719 3347 37
3604 719 928 82
3605 719 1777 82
3606 719 87 28
3607 720 25 48
3608 720 820 83
3609 721 3876 40
3610 721 3664 8
3611 721 3467 99
3612 722 2749 66
3613 722 152 41
3614 722 509 100
3615 722 488 71
3616 722 2056 38
3617 723 3052 21
3618 723 1166 1
3619 723 480 39
3620 723 3539 79
3621 723 3289 98
3622 723 2420 47
3623 723 2058 81
3624 723 2371 33
3625 723 1669 79
3626 723 1499 23
3627 723 2482 65
3628 724 2790 64
3629 724 1682 50
3630 724 1231 60
3631 724 433 86
3632 724 3276 44
3633 724 1277 56
3634 724 2523 58
3635 724 1038 41
3636 724 541 30
3637 724 1837 97
3638 725 2617 67
3639 725 483 53
3640 725 1268 53
3641 725 215 72
3642 726 1096 67
3643 726 2630 10
3644 726 2089 40
3645 726 3626 44
3646 727 2880 83
3647 727 3468 28
3648 728 1336 97
3649 728 2676 76
3650 728 3437 17
3651 728 94 87
3652 728 1553 40
3653 729 3484 12
3654 729 3166 26
3655 729 272 96
3656 729 2354 26
3657 729 2835 63
3658 729 2037 27
3659 729 3443 25
3660 729 2828 23
3661 730 1695 51
3662 730 224 85
3663 730 3564 39
3664 730 780 7
3665 730 425 67
3666 730 528 13
3667 731 2345 77
3668 731 371 82
3669 731 3262 39
3670 731 1731 40
3671 731 330 37
3672 731 127 72
3673 731 2638 74
3674 731 3031 8
3675 731 2825 99
3676 732 1868 19
3677 732 1860 4
3678 732 395 67
3679 732 3368 38
3680 732 2459 18
3681 732 655 60
3682 733 1618 30
3683 733 3321 46
3684 733 3253 79
3685 733 351 75
3686 733 2036 14
3687 733 866 74
3688 734 2426 17
3689 734 242 12
3690 734 2396 41
3691 734 3970 61
3692 734 930 86
3693 734 82 65
3694 734 3683 55
3695 734 1045 33
3696 735 1268 91
3697 735 134 36
3698 735 759 92
3699 735 2288 68
3700 735 1134 97
3701 735 827 21
3702 735 2782 73
3703 735 2167 56
3704 736 2500 11
3705 736 2910 22
3706 736 2821 2
3707 736 651 41
3708 736 2008 19
3709 737 1729 87
3710 737 1164 66
3711 737 1404 58
3712 737 3148 4
3713 737 2171 5
3714 738 3701 16
3715 739 1711 74
3716 739 2615 7
3717 739 2696 49
3718 739 1370 21
3719 739 2754 37
3720 739 3042 55
3721 739 77 97
3722 739 1074 48
3723 739 2541 20
3724 739 3885 9
3725 740 237 81
3726 740 3885 86
3727 740 342 17
3728 740 401 20
3729 740 577 46
3730 740 3968 52
3731 741 3601 20
3732 741 3901 33
3733 741 1656 38
3734 741 1038 29
3735 742 934 60
3736 742 1664 54
3737 742 2809 20
3738 742 515 79
3739 742 2299 20
3740 743 1470 93
3741 743 2660 5
3742 743 554 55
3743 743 3058 54
3744 743 342 45
3745 744 374 34
3746 744 172 47
3747 744 1647 54
3748 744 3922 83
3749 744 57 82
3750 745 1832 54
3751 745 2396 64
3752 746 2001 7
3753 746 3208 25
3754 746 3599 57
3755 746 104 7
3756 746 1875 57
3757 747 1611 7
3758 747 3489 9
3759 747 111 7
3760 747 1480 73
3761 747 3095 48
3762 747 700 92
3763 747 3230 47
3764 747 1774 62
3765 747 3440 100
3766 749 1814 46
3767 749 1944 30
3768 750 2815 65
3769 750 1955 68
3770 750 685 93
3771 750 2661 17
3772 751 2353 44
3773 751 2066 100
3774 751 2732 90
3775 751 489 58
3776 751 761 72
3777 752 53 33
3778 752 3224 89
3779 752 1439 27
3780 752 1386 59
3781 752 3618 12
3782 752 913 14
3783 753 524 61
3784 753 3443 83
3785 753 1587 99
3786 754 1821 10
3787 754 452 87
3788 755 3137 89
3789 755 1561 72
3790 755 1010 45
3791 755 672 90
3792 755 2811 83
3793 756 2114 52
3794 756 2118 80
3795 756 19 14
3796 756 3927 89
3797 756 1271 9
3798 757 1912 92
3799 757 520 93
3800 757 883 61
3801 757 1198 70
3802 757 595 11
3803 758 2082 65
3804 758 2242 72
3805 758 1414 63
3806 758 1192 43
3807 758 3796 65
3808 758 2189 98
3809 758 2448 12
3810 758 2856 47
3811 758 3479 71
3812 758 3322 76
3813 758 304 16
3814 759 137 68
3815 759 1817 81
3816 759 1606 55
3817 759 1985 18
3818 759 1495 31
3819 759 87 78
3820 759 2417 27
3821 759 1249 60
3822 760 3845 67
3823 760 2171 35
3824 760 1404 8
3825 760 3512 65
3826 760 419 83
3827 760 1982 60
3828 760 1124 9
3829 761 480 74
3830 761 2886 47
3831 761 3142 62
3832 762 3055 11
3833 762 777 45
3834 762 801 52
3835 762 3026 23
3836 762 3299 98
3837 763 764 14
3838 763 669 2
3839 763 3324 7
3840 763 1378 3
3841 763 1804 34
3842 764 2306 63
3843 764 906 91
3844 764 3704 9
3845 764 2461 74
3846 765 3388 97
3847 765 3374 38
3848 765 574 6
3849 765 3763 56
3850 765 2306 84
3851 766 1496 43
3852 766 1901 56
3853 766 1201 67
3854 766 3812 44
3855 766 2407 76
3856 766 1081 5
3857 766 3791 8
3858 766 2263 25
3859 767 3186 57
3860 767 3845 1
3861 767 3732 70
3862 767 89 54
3863 767 2010 9
3864 767 3746 39
3865 767 100 55
3866 768 3726 27
3867 768 3183 76
3868 768 1162 11
3869 768 2202 7
3870 768 1422 19
3871 768 926 59
3872 768 586 82
3873 768 3714 38
3874 769 2513 23
3875 769 1946 28
3876 769 563 61
3877 770 17 65
3878 770 1653 25
3879 770 1042 58
3880 770 3320 84
3881 770 1753 55
3882 770 234 18
3883 770 3827 31
3884 770 2657 15
3885 770 120 93
3886 771 2503 36
3887 771 354 61
3888 771 408 1
3889 771 521 12
3890 772 589 19
3891 772 3352 51
3892 772 3384 88
3893 772 2267 3
3894 772 2535 96
3895 773 2383 48
3896 773 3189 53
3897 773 1667 91
3898 773 2798 90
3899 773 1625 21
3900 773 1513 80
3901 774 332 17
3902 774 3963 52
3903 774 1188 50
3904 774 2331 76
3905 774 2985 21
3906 775 1428 30
3907 775 2132 50
3908 776 1143 18
3909 776 361 7
3910 777 3616 13
3911 777 821 30
3912 777 3047 38
3913 777 3149 19
3914 777 1374 14
3915 777 2013 33
3916 777 334 92
3917 777 3541 66
3918 777 529 64
3919 777 2325 56
3920 778 3980 30
3921 778 647 4
3922 778 3845 19
3923 778 3480 91
3924 778 700 76
3925 779 3591 65
3926 779 2248 51
3927 779 929 17
3928 779 3544 65
3929 780 377 15
3930 780 3272 11
3931 780 2596 71
3932 780 41 3
3933 780 351 26
3934 780 3943 16
3935 780 349 76
3936 781 2540 51
3937 781 101 89
3938 781 1333 67
3939 781 3763 70
3940 781 2085 43
3941 781 927 25
3942 782 1008 47
3943 782 1854 76
3944 782 1191 9
3945 783 86 25
3946 783 224 95
3947 783 3137 45
3948 783 3079 65
3949 783 2308 24
3950 783 3625 87
3951 783 3803 55
3952 784 2604 32
3953 784 1825 64
3954 784 2325 94
3955 784 519 37
3956 784 329 58
3957 784 2914 68
3958 784 3473 67
3959 784 1291 90
3960 785 1801 68
3961 785 3986 19
3962 785 3134 39
3963 785 2120 43
3964 786 2738 88
3965 786 2406 80
3966 786 1317 16
3967 786 1016 78
3968 786 1705 67
3969 787 2937 64
3970 787 117 69
3971 787 2816 15
3972 787 1590 93
3973 787 2590 28
3974 787 3843 28
3975 787 3509 73
3976 787 60 16
3977 788 2172 63
3978 788 1044 20
3979 788 3451 26
3980 788 3005 98
3981 788 1645 17
3982 788 3014 71
3983 788 942 67
3984 788 1393 21
3985 789 3001 83
3986 789 1176 98
3987 789 46 29
3988 789 907 80
3989 789 3904 24
3990 789 3536 91
3991 790 3870 90
3992 790 3937 59
3993 790 1716 41
3994 790 3217 40
3995 790 3147 12
3996 790 1678 100
3997 790 1595 27
3998 790 1557 68
3999 791 1639 61
4000 791 2811 7
4001 792 1083 48
4002 792 96 41
4003 793 2716 37
4004 793 2158 37
4005 793 279 4
4006 793 400 43
4007 794 1592 89
4008 794 209 39
4009 795 3876 63
4010 795 629 42
4011 795 1693 46
4012 795 2660 25
4013 795 3240 24
4014 795 2576 38
4015 795 3657 15
4016 795 551 26
4017 796 363 54
4018 796 3489 80
4019 796 964 6
4020 796 1932 62
4021 796 835 5
4022 796 3636 21
4023 797 61 93
4024 797 3389 83
4025 797 2773 39
4026 798 344 75
4027 798 86 79
4028 798 1189 16
4029 799 3110 36
4030 799 2824 87
4031 799 1868 14
4032 799 3232 2
4033 799 1176 89
4034 799 2498 61
4035 799 2700 13
4036 800 2436 61
4037 800 2329 71
4038 800 2671 59
4039 800 2601 66
4040 800 2857 73
4041 800 3289 54
4042 801 3111 64
4043 801 2786 97
4044 801 3905 46
4045 802 3093 95
4046 802 3517 27
4047 802 2007 89
4048 802 2527 49
4049 803 764 2
4050 803 1684 1
4051 803 1373 36
4052 803 3022 100
4053 803 3842 41
4054 804 1434 97
4055 804 1371 39
4056 804 3946 44
4057 804 3718 64
4058 804 3576 78
4059 804 1490 37
4060 804 3502 18
4061 804 546 64
4062 804 2510 48
4063 805 2834 30
4064 805 883 60
4065 805 2632 28
4066 805 3518 59
4067 805 1673 27
4068 805 1158 22
4069 806 2048 51
4070 806 162 89
4071 806 3807 74
4072 806 1415 45
4073 806 187 26
4074 806 2392 58
4075 806 600 19
4076 807 3088 33
4077 808 342 40
4078 808 1125 36
4079 808 3294 73
4080 808 3386 61
4081 808 355 93
4082 808 2023 16
4083 808 1269 21
4084 809 2297 21
4085 809 490 49
4086 809 3402 76
4087 809 3969 41
4088 810 583 10
4089 810 2190 38
4090 810 2738 84
4091 810 1758 82
4092 810 96 31
4093 810 1045 54
4094 811 2815 77
4095 811 2578 21
4096 811 2584 6
4097 811 2830 8
4098 812 32 75
4099 812 646 13
4100 812 711 100
4101 812 1650 19
4102 812 1354 45
4103 813 2843 92
4104 813 49 66
4105 813 3057 48
4106 814 3456 31
4107 814 945 40
4108 814 2529 96
4109 814 2816 7
4110 815 2321 18
4111 816 2380 77
4112 816 2847 63
4113 816 518 3
4114 816 2151 66
4115 816 742 74
4116 817 2874 46
4117 818 2493 31
4118 818 2098 65
4119 818 786 91
4120 818 1393 78
4121 818 3370 61
4122 818 1625 3
4123 819 2605 56
4124 819 1628 85
4125 819 1122 34
4126 819 2436 5
4127 819 1778 10
4128 819 1719 27
4129 819 1621 64
4130 819 1153 35
4131 820 1737 71
4132 820 837 74
4133 820 205 51
4134 820 3875 64
4135 821 485 72
4136 821 130 17
4137 822 2499 55
4138 822 318 29
4139 823 573 63
4140 823 3002 49
4141 823 1508 78
4142 823 3363 17
4143 823 3909 34
4144 823 3531 51
4145 823 2200 9
4146 824 1499 1
4147 824 1509 43
4148 824 1567 93
4149 824 1752 74
4150 824 3953 81
4151 825 1292 77
4152 825 1384 83
4153 825 320 32
4154 825 3101 15
4155 825 3293 70
4156 825 2275 3
4157 825 1683 38
4158 826 722 86
4159 826 953 39
4160 826 3414 100
4161 826 1160 63
4162 826 2195 78
4163 826 3386 37
4164 827 3391 4
4165 827 2451 42
4166 827 3679 5
4167 827 3504 95
4168 828 2706 89
4169 828 215 42
4170 828 3706 14
4171 828 2646 43
4172 829 1771 75
4173 830 1209 35
4174 830 3823 78
4175 830 679 2
4176 830 1869 53
4177 830 3525 98
4178 830 3905 8
4179 831 2397 32
4180 831 1006 43
4181 831 3721 54
4182 831 3232 82
4183 831 2841 21
4184 831 2199 60
4185 831 3797 2
4186 831 1811 50
4187 831 3290 10
4188 832 3868 3
4189 833 3595 85
4190 833 2293 47
4191 833 3162 6
4192 833 2663 8
4193 833 1257 99
4194 834 2468 77
4195 834 1047 13
4196 834 979 63
4197 834 1102 14
4198 834 663 80
4199 835 1806 81
4200 835 2455 47
4201 835 520 32
4202 835 709 57
4203 836 3368 20
4204 836 865 72
4205 836 3735 13
4206 836 2899 60
4207 836 1484 62
4208 837 3334 96
4209 837 2330 34
4210 837 1224 1
4211 837 323 72
4212 837 3975 79
4213 837 2721 72
4214 837 2537 68
4215 838 289 40
4216 838 1668 61
4217 838 2065 74
4218 838 2085 57
4219 838 2855 47
4220 839 1045 85
4221 839 3576 28
4222 839 1513 10
4223 839 2786 88
4224 839 117 93
4225 839 911 16
4226 840 1964 47
4227 840 43 95
4228 840 3977 38
4229 840 2834 42
4230 840 73 96
4231 840 3669 9
4232 840 3334 54
4233 840 3686 39
4234 840 1065 28
4235 841 3035 96
4236 841 3215 32
4237 841 3970 89
4238 841 406 83
4239 842 1854 76
4240 842 914 68
4241 842 1316 17
4242 842 963 67
4243 842 3911 69
4244 842 720 31
4245 842 3957 50
4246 843 2136 60
4247 843 214 1
4248 843 381 6
4249 843 85 76
4250 843 2801 59
4251 844 341 33
4252 844 903 14
4253 844 3920 71
4254 844 337 71
4255 844 3300 54
4256 845 1826 71
4257 845 2521 18
4258 845 2629 99
4259 845 566 71
4260 845 3735 88
4261 845 54 91
4262 846 822 63
4263 846 3223 94
4264 847 1484 46
4265 847 2558 63
4266 847 307 13
4267 847 1926 76
4268 848 2395 87
4269 848 898 70
4270 848 3014 70
4271 848 1642 59
4272 849 543 24
4273 849 987 82
4274 850 3964 100
4275 850 1363 88
4276 850 1959 25
4277 850 787 7
4278 851 2953 88
4279 851 850 57
4280 851 66 44
4281 851 1271 89
4282 851 1336 45
4283 851 3733 61
4284 851 3994 71
4285 851 161 53
4286 852 219 84
4287 852 1006 13
4288 853 3601 49
4289 853 168 41
4290 853 827 71
4291 853 3327 33
4292 854 2147 13
4293 854 816 96
4294 854 3805 26
4295 854 3841 1
4296 854 1684 5
4297 854 2451 94
4298 854 2978 80
4299 854 1911 27
4300 854 1765 21
4301 854 279 22
4302 855 1824 3
4303 855 889 53
4304 855 574 38
4305 855 1333 52
4306 855 3753 23
4307 856 3873 3
4308 856 3937 54
4309 856 363 84
4310 856 168 55
4311 856 1818 63
4312 857 3285 23
4313 857 1072 79
4314 857 3921 65
4315 858 447 31
4316 858 398 54
4317 858 2384 100
4318 858 1480 11
4319 858 3157 76
4320 858 3301 81
4321 859 1562 40
4322 860 985 92
4323 860 3388 11
4324 860 608 93
4325 860 554 4
4326 860 1470 24
4327 861 3950 65
4328 861 1651 90
4329 861 2259 86
4330 861 3745 90
4331 862 463 23
4332 862 991 77
4333 862 1691 52
4334 862 109 26
4335 862 2532 93
4336 862 349 97
4337 862 1934 66
4338 862 2579 88
4339 862 2110 1
4340 862 3439 23
4341 863 1885 56
4342 863 2550 40
4343 863 2166 97
4344 863 269 77
4345 863 3372 84
4346 863 479 95
4347 863 1865 20
4348 863 2819 99
4349 863 3526 72
4350 863 3767 7
4351 863 1814 30
4352 864 2709 10
4353 864 1557 45
4354 864 995 14
4355 864 216 81
4356 864 801 21
4357 865 112 22
4358 865 3758 96
4359 865 1750 56
4360 865 979 41
4361 865 3058 83
4362 866 3015 68
4363 866 1548 11
4364 866 851 90
4365 866 578 57
4366 866 203 60
4367 866 302 23
4368 866 1324 75
4369 867 741 83
4370 867 1107 83
4371 867 2603 24
4372 867 2456 45
4373 867 2916 60
4374 867 2261 68
4375 867 691 26
4376 867 3132 55
4377 868 1047 30
4378 868 743 54
4379 868 2311 68
4380 868 449 14
4381 868 2306 17
4382 868 3208 29
4383 868 2395 3
4384 868 1598 42
4385 869 535 89
4386 869 2929 29
4387 869 457 20
4388 869 1224 42
4389 869 2990 18
4390 870 437 55
4391 870 570 7
4392 870 999 6
4393 870 2173 9
4394 870 2256 82
4395 870 680 12
4396 871 885 70
4397 871 3383 82
4398 872 1856 14
4399 872 966 24
4400 872 1575 32
4401 872 2502 3
4402 872 2801 62
4403 872 3887 28
4404 873 2626 68
4405 873 965 68
4406 873 1536 72
4407 873 3086 85
4408 873 1233 8
4409 874 2740 10
4410 874 3709 81
4411 874 2633 19
4412 875 3443 22
4413 875 2903 12
4414 875 922 18
4415 875 3098 34
4416 876 3343 81
4417 876 2010 26
4418 876 1240 96
4419 876 1539 100
4420 876 2842 97
4421 876 3809 88
4422 877 1940 54
4423 877 1307 45
4424 877 1852 17
4425 877 2672 13
4426 878 2441 8
4427 878 742 10
4428 878 918 5
4429 878 1301 57
4430 879 3183 82
4431 879 1897 35
4432 879 1997 43
4433 879 1608 23
4434 879 2459 7
4435 879 2710 93
4436 879 3116 45
4437 879 3511 91
4438 880 3422 7
4439 880 970 5
4440 880 2041 76
4441 880 1033 74
4442 881 2713 11
4443 881 1003 9
4444 881 147 78
4445 881 1350 81
4446 881 2966 93
4447 881 2391 60
4448 882 3865 15
4449 882 3432 42
4450 882 2652 65
4451 882 1539 4
4452 882 2835 66
4453 882 3450 48
4454 882 2927 81
4455 882 3633 16
4456 882 2511 11
4457 883 3633 89
4458 883 2436 9
4459 884 1793 42
4460 884 1381 3
4461 884 3586 86
4462 884 2287 90
4463 885 962 39
4464 885 1417 14
4465 886 1350 22
4466 886 3883 21
4467 886 1798 93
4468 886 625 44
4469 887 1864 8
4470 887 3038 10
4471 887 613 15
4472 887 3135 22
4473 888 361 65
4474 888 3770 59
4475 888 3277 100
4476 888 535 98
4477 888 611 43
4478 888 2222 8
4479 889 234 67
4480 889 3480 24
4481 889 3168 51
4482 890 3040 60
4483 890 1383 6
4484 890 1625 25
4485 890 1772 73
4486 890 2735 8
4487 890 1638 76
4488 891 1558 63
4489 891 2313 32
4490 891 1301 72
4491 891 2518 2
4492 891 317 57
4493 891 3680 79
4494 891 3711 76
4495 891 3209 13
4496 892 263 37
4497 892 1025 78
4498 892 12 31
4499 892 225 64
4500 892 146 14
4501 892 293 77
4502 892 255 12
4503 893 1916 5
4504 893 176 36
4505 893 432 48
4506 893 2995 15
4507 893 3848 39
4508 893 2472 16
4509 894 685 33
4510 894 770 49
4511 894 1429 91
4512 894 2396 69
4513 894 950 65
4514 894 2013 16
4515 894 942 64
4516 895 969 41
4517 895 3343 97
4518 895 247 53
4519 895 1934 9
4520 895 2661 6
4521 896 1575 73
4522 896 1954 45
4523 896 782 72
4524 896 2520 30
4525 896 1788 38
4526 896 1645 70
4527 896 2543 93
4528 896 763 31
4529 897 2234 44
4530 897 3884 77
4531 897 2864 9
4532 897 317 21
4533 897 2762 60
4534 897 2602 43
4535 897 2899 30
4536 898 3924 54
4537 898 348 96
4538 898 2483 24
4539 898 1478 39
4540 898 723 61
4541 900 1744 79
4542 900 1419 80
4543 900 1607 96
4544 900 2038 8
4545 900 3312 46
4546 900 3330 24
4547 901 872 98
4548 901 549 30
4549 901 447 88
4550 901 2978 25
4551 902 104 94
4552 902 3480 85
4553 902 3116 93
4554 902 2077 40
4555 902 2289 61
4556 902 492 44
4557 902 1727 2
4558 902 846 100
4559 902 911 98
4560 904 125 74
4561 904 2804 9
4562 904 158 62
4563 905 1075 71
4564 905 3755 25
4565 905 1212 46
4566 905 1378 94
4567 905 1236 54
4568 905 2827 25
4569 905 2548 83
4570 906 2693 49
4571 906 2478 35
4572 906 3289 5
4573 906 2801 81
4574 906 1419 81
4575 906 1853 86
4576 907 2664 48
4577 908 3660 68
4578 908 3519 43
4579 908 1034 65
4580 909 3278 71
4581 909 803 10
4582 909 283 13
4583 909 3410 70
4584 909 2487 48
4585 909 790 45
4586 910 3257 58
4587 910 2155 61
4588 910 594 11
4589 910 2721 61
4590 911 2132 3
4591 911 576 57
4592 911 2782 58
4593 911 1169 47
4594 911 3197 61
4595 911 1904 55
4596 911 2223 56
4597 911 2574 17
4598 912 1520 60
4599 912 483 10
4600 912 3186 8
4601 912 3866 91
4602 912 3862 50
4603 912 1797 14
4604 913 3840 5
4605 913 806 37
4606 913 2592 23
4607 913 1007 100
4608 913 3130 98
4609 914 3248 5
4610 914 1969 32
4611 914 1428 3
4612 914 1063 61
4613 914 1764 27
4614 915 237 91
4615 915 3364 94
4616 916 3177 45
4617 916 2997 30
4618 916 3791 72
4619 916 3990 50
4620 916 747 68
4621 917 1958 19
4622 917 613 65
4623 917 2318 9
4624 917 3937 42
4625 918 184 80
4626 918 2298 60
4627 918 3644 69
4628 918 2360 3
4629 918 67 2
4630 918 587 93
4631 919 2970 60
4632 919 2742 84
4633 919 847 72
4634 919 3461 50
4635 920 100 15
4636 920 1399 55
4637 920 1728 78
4638 920 1509 1
4639 920 144 8
4640 920 2120 67
4641 921 1614 41
4642 921 1632 32
4643 921 745 34
4644 921 588 92
4645 921 928 60
4646 921 1225 42
4647 922 2873 41
4648 922 396 8
4649 922 2365 96
4650 922 1450 57
4651 922 1454 39
4652 922 2615 68
4653 923 896 13
4654 923 1249 34
4655 923 3653 39
4656 924 2441 40
4657 924 3425 31
4658 924 658 98
4659 924 1427 76
4660 924 1368 34
4661 924 3240 36
4662 925 3735 53
4663 925 3614 96
4664 926 3900 78
4665 926 2092 22
4666 926 3915 52
4667 926 952 52
4668 927 3692 23
4669 927 651 54
4670 927 2846 99
4671 927 3197 28
4672 927 1529 77
4673 928 672 45
4674 928 3707 13
4675 928 2469 75
4676 928 3484 90
4677 928 2466 67
4678 928 1827 14
4679 928 3508 92
4680 928 1687 30
4681 929 2302 69
4682 929 2629 30
4683 929 2627 25
4684 929 1090 36
4685 929 1971 90
4686 929 2426 79
4687 930 248 83
4688 930 101 39
4689 930 454 11
4690 931 1795 41
4691 931 2100 44
4692 931 1164 24
4693 931 2334 74
4694 931 1635 95
4695 932 291 80
4696 932 889 21
4697 932 978 60
4698 932 681 60
4699 933 3177 61
4700 933 3956 87
4701 933 3326 59
4702 933 889 12
4703 933 1334 25
4704 933 1966 48
4705 935 1286 69
4706 935 1261 80
4707 935 3874 78
4708 935 2949 83
4709 935 1341 53
4710 936 3637 16
4711 936 3520 51
4712 936 3444 3
4713 937 3002 8
4714 937 767 11
4715 937 2872 27
4716 937 3618 14
4717 937 1466 15
4718 937 1381 32
4719 938 278 87
4720 938 1884 81
4721 938 2271 64
4722 938 2078 65
4723 938 1603 57
4724 939 2434 9
4725 939 3424 70
4726 940 3850 61
4727 940 3992 85
4728 940 1258 78
4729 941 942 60
4730 941 46 86
4731 941 1995 91
4732 941 2328 68
4733 942 3109 83
4734 942 3350 75
4735 942 3784 22
4736 943 983 74
4737 943 3537 31
4738 944 2305 8
4739 944 240 74
4740 944 615 8
4741 944 957 100
4742 944 3439 58
4743 944 231 61
4744 944 1701 19
4745 944 2553 41
4746 944 566 71
4747 945 2804 39
4748 945 2342 7
4749 945 2015 7
4750 945 2780 78
4751 945 1809 83
4752 946 1613 1
4753 946 1628 54
4754 946 3964 24
4755 946 45 82
4756 946 3955 43
4757 947 2227 4
4758 947 3910 75
4759 947 1939 99
4760 947 2831 35
4761 948 246 53
4762 948 3804 91
4763 949 728 50
4764 949 1547 86
4765 949 1798 51
4766 949 801 1
4767 949 3509 43
4768 949 822 1
4769 949 3103 54
4770 949 3646 67
4771 950 2313 73
4772 950 1137 4
4773 950 3862 24
4774 951 869 47
4775 951 3401 95
4776 951 1063 48
4777 951 887 94
4778 952 2865 21
4779 952 1226 65
4780 952 390 67
4781 952 3265 99
4782 952 1054 97
4783 952 1673 77
4784 952 232 59
4785 952 194 26
4786 952 463 59
4787 952 802 82
4788 953 151 72
4789 953 3001 34
4790 953 351 4
4791 953 2099 57
4792 953 1613 85
4793 954 371 2
4794 954 3739 34
4795 954 3662 15
4796 954 323 75
4797 954 1970 4
4798 955 2281 23
4799 955 2216 35
4800 956 1262 16
4801 956 2716 53
4802 957 3792 87
4803 957 3830 100
4804 957 1575 14
4805 958 2217 64
4806 958 3995 58
4807 958 3087 18
4808 959 848 25
4809 959 3191 64
4810 959 330 73
4811 959 3576 82
4812 959 97 57
4813 959 638 98
4814 959 3846 30
4815 960 1114 5
4816 960 3039 73
4817 960 3637 2
4818 960 30 43
4819 960 3668 29
4820 961 886 25
4821 961 3612 98
4822 961 1678 8
4823 961 2527 15
4824 961 1028 87
4825 961 2440 76
4826 961 1563 21
4827 961 1661 43
4828 962 523 16
4829 962 1553 68
4830 962 433 55
4831 962 3183 37
4832 962 2358 58
4833 963 1433 3
4834 963 720 34
4835 963 681 68
4836 963 1168 48
4837 963 3614 95
4838 963 3759 100
4839 963 9 41
4840 964 2658 6
4841 964 3202 22
4842 964 3956 27
4843 964 3726 11
4844 964 864 32
4845 965 1363 100
4846 965 1915 58
4847 965 3692 97
4848 965 2700 99
4849 966 3133 94
4850 966 328 38
4851 966 286 91
4852 966 1415 35
4853 967 3342 63
4854 967 1634 16
4855 967 2987 45
4856 967 660 49
4857 967 3653 46
4858 967 89 7
4859 967 225 28
4860 967 2549 61
4861 967 1405 13
4862 967 2466 42
4863 968 1800 95
4864 968 1626 91
4865 968 3324 4
4866 968 1845 2
4867 969 973 62
4868 969 3865 33
4869 970 3890 72
4870 970 2515 66
4871 970 3280 29
4872 971 3805 66
4873 971 1132 20
4874 972 1543 56
4875 972 156 69
4876 972 91 19
4877 973 1254 8
4878 973 3203 11
4879 973 23 19
4880 973 579 5
4881 973 3513 19
4882 973 2195 92
4883 974 2253 14
4884 974 1209 41
4885 974 1153 19
4886 975 598 52
4887 975 3868 23
4888 975 875 7
4889 976 3238 62
4890 976 2626 85
4891 976 720 87
4892 976 1382 100
4893 977 1170 55
4894 977 208 88
4895 977 2025 61
4896 977 3380 74
4897 977 3070 47
4898 977 2073 92
4899 978 968 64
4900 978 859 41
4901 978 1142 87
4902 978 3105 60
4903 978 339 14
4904 978 879 94
4905 978 1976 97
4906 979 1838 65
4907 979 3395 56
4908 979 1028 77
4909 979 3528 58
4910 979 3436 19
4911 979 2926 48
4912 979 3468 3
4913 979 2756 4
4914 979 3590 56
4915 980 1053 77
4916 980 3295 60
4917 980 1335 32
4918 980 2448 55
4919 980 3522 44
4920 980 3933 66
4921 981 2236 58
4922 981 271 92
4923 981 1381 83
4924 982 3996 91
4925 982 1840 75
4926 982 1472 34
4927 982 2626 76
4928 982 658 90
4929 982 2634 19
4930 982 2224 85
4931 982 3970 27
4932 982 2242 16
4933 983 3773 81
4934 983 3324 45
4935 983 1815 14
4936 984 975 15
4937 984 445 2
4938 984 1808 82
4939 984 1705 72
4940 984 3274 11
4941 984 3566 64
4942 984 897 66
4943 984 1369 26
4944 984 2373 11
4945 984 2579 30
4946 985 3005 43
4947 985 191 59
4948 985 1972 10
4949 985 223 80
4950 985 425 8
4951 985 1871 76
4952 986 2976 89
4953 986 1258 26
4954 986 1132 89
4955 986 852 99
4956 987 2140 53
4957 987 3934 55
4958 987 3549 93
4959 987 927 15
4960 987 2351 62
4961 987 3493 53
4962 988 3914 47
4963 988 1255 65
4964 988 84 65
4965 988 3665 11
4966 988 2284 68
4967 988 1450 66
4968 989 926 31
4969 989 2518 60
4970 989 620 49
4971 989 1265 3
4972 990 1427 54
4973 990 2226 9
4974 990 1252 84
4975 990 1175 90
4976 990 1935 58
4977 991 3538 10
4978 991 2577 17
4979 991 2762 46
4980 991 844 44
4981 992 1941 89
4982 992 480 8
4983 992 2473 58
4984 992 3122 45
4985 992 468 70
4986 993 236 34
4987 993 1522 74
4988 993 3791 26
4989 994 145 79
4990 994 2181 15
4991 994 2909 86
4992 994 3034 62
4993 994 1949 69
4994 994 3349 21
4995 995 3876 54
4996 995 61 35
4997 995 2467 8
4998 995 40 71
4999 996 2496 26
5000 996 3507 35
5001 996 328 85
5002 997 3529 35
5003 997 2216 40
5004 998 223 27
5005 998 3320 36
5006 998 3351 8
5007 998 3332 24
5008 999 2944 67
5009 999 217 67
5010 999 2759 43
5011 1000 2062 89
5012 1001 3558 41
5013 1001 821 76
5014 1001 2695 77
5015 1001 2074 11
5016 1001 3900 8
5017 1002 995 66
5018 1002 2918 59
5019 1002 3296 58
5020 1002 2357 14
5021 1002 751 63
5022 1003 3389 41
5023 1003 1902 56
5024 1004 1270 49
5025 1004 3639 94
5026 1004 2110 88
5027 1005 2016 32
5028 1005 919 41
5029 1005 3678 63
5030 1005 762 75
5031 1006 2502 1
5032 1006 2737 25
5033 1006 1367 95
5034 1006 3054 65
5035 1006 3465 9
5036 1007 2830 69
5037 1007 473 55
5038 1007 1603 98
5039 1007 3449 67
5040 1007 1194 26
5041 1008 804 21
5042 1008 1563 8
5043 1008 2284 2
5044 1008 2259 60
5045 1008 667 94
5046 1009 2213 27
5047 1009 324 71
5048 1009 516 94
5049 1009 2689 88
5050 1010 2478 51
5051 1010 2567 43
5052 1010 1133 38
5053 1010 1188 30
5054 1010 2588 57
5055 1010 1366 1
5056 1010 3645 14
5057 1011 3901 16
5058 1011 3312 17
5059 1011 836 51
5060 1012 279 77
5061 1012 2098 75
5062 1012 2006 23
5063 1012 1442 68
5064 1012 1933 78
5065 1012 1220 59
5066 1013 498 83
5067 1013 3051 18
5068 1014 270 18
5069 1014 804 34
5070 1014 1363 74
5071 1014 1508 57
5072 1014 2418 53
5073 1015 435 12
5074 1015 2274 79
5075 1015 1117 100
5076 1015 3213 87
5077 1015 494 29
5078 1015 370 40
5079 1015 112 69
5080 1016 2407 64
5081 1016 3196 61
5082 1016 1930 83
5083 1016 1989 88
5084 1016 2427 49
5085 1017 1869 6
5086 1017 1059 13
5087 1017 1904 29
5088 1017 899 14
5089 1018 1769 3
5090 1018 158 92
5091 1018 3594 80
5092 1019 1164 69
5093 1019 2866 55
5094 1019 2988 17
5095 1019 2424 34
5096 1019 1079 47
5097 1019 3817 26
5098 1019 3949 11
5099 1019 1467 16
5100 1019 2996 41
5101 1019 2665 97
5102 1019 2171 64
5103 1019 619 14
5104 1020 2689 70
5105 1020 3657 18
5106 1020 2799 99
5107 1021 2563 50
5108 1021 30 43
5109 1021 403 18
5110 1022 3673 24
5111 1022 1317 59
5112 1022 487 15
5113 1022 3030 89
5114 1022 3951 2
5115 1022 3233 52
5116 1022 2302 68
5117 1023 695 34
5118 1023 2010 53
5119 1023 3645 55
5120 1023 2642 56
5121 1023 2821 46
5122 1024 2354 54
5123 1024 2377 47
5124 1024 975 70
5125 1024 289 33
5126 1024 2553 5
5127 1024 1583 37
5128 1025 733 24
5129 1025 2985 82
5130 1025 1153 92
5131 1025 1678 75
5132 1025 2393 11
5133 1025 446 83
5134 1026 3223 8
5135 1026 427 28
5136 1026 3802 57
5137 1027 976 35
5138 1027 2173 75
5139 1027 2045 58
5140 1027 724 25
5141 1028 2639 55
5142 1028 2767 39
5143 1028 24 47
5144 1028 3329 54
5145 1028 3695 64
5146 1029 2798 10
5147 1029 1966 21
5148 1029 3934 11
5149 1029 3423 90
5150 1029 3201 21
5151 1029 3427 39
5152 1030 1421 78
5153 1030 3772 71
5154 1030 750 94
5155 1030 3168 58
5156 1031 1867 56
5157 1031 1396 82
5158 1031 3988 39
5159 1031 2485 10
5160 1032 983 42
5161 1032 2131 46
5162 1032 1467 61
5163 1032 223 96
5164 1033 1070 86
5165 1033 57 18
5166 1033 1269 16
5167 1033 3780 87
5168 1033 2518 32
5169 1034 758 9
5170 1034 1563 90
5171 1034 433 80
5172 1035 1917 11
5173 1035 1733 32
5174 1035 2475 75
5175 1035 418 49
5176 1035 836 68
5177 1035 3705 31
5178 1035 1940 76
5179 1035 1151 90
5180 1036 3673 7
5181 1036 2109 22
5182 1037 3497 65
5183 1037 1028 21
5184 1038 1480 74
5185 1038 2090 58
5186 1038 1788 56
5187 1039 1544 63
5188 1039 2530 93
5189 1039 424 23
5190 1039 1736 23
5191 1040 16 100
5192 1040 1813 3
5193 1040 3049 64
5194 1040 3562 11
5195 1040 114 99
5196 1040 676 83
5197 1041 736 10
5198 1041 832 28
5199 1041 1686 47
5200 1041 2349 4
5201 1041 3102 83
5202 1041 677 92
5203 1041 3076 30
5204 1041 1210 25
5205 1041 1941 53
5206 1043 3208 53
5207 1043 3478 67
5208 1043 3759 97
5209 1043 3906 76
5210 1043 2709 37
5211 1043 685 78
5212 1043 295 37
5213 1043 2359 78
5214 1043 3242 19
5215 1044 3137 64
5216 1044 19 72
5217 1044 1294 27
5218 1045 3025 55
5219 1045 1639 61
5220 1045 966 62
5221 1046 368 36
5222 1046 696 38
5223 1046 2400 63
5224 1046 2808 25
5225 1046 169 22
5226 1046 1878 38
5227 1046 3949 43
5228 1046 373 58
5229 1047 2806 15
5230 1047 3147 74
5231 1047 441 43
5232 1047 1926 47
5233 1047 2441 35
5234 1047 3762 73
5235 1047 3542 98
5236 1047 712 56
5237 1048 571 70
5238 1048 3185 33
5239 1048 851 61
5240 1048 827 21
5241 1048 3371 59
5242 1049 3266 88
5243 1049 1484 52
5244 1049 3993 6
5245 1049 1477 34
5246 1049 684 9
5247 1050 2771 94
5248 1050 3262 23
5249 1050 2596 70
5250 1050 145 12
5251 1050 2186 62
5252 1050 1654 64
5253 1051 3732 15
5254 1051 1221 63
5255 1051 542 12
5256 1051 1263 50
5257 1051 1736 75
5258 1052 2550 76
5259 1052 3244 37
5260 1052 3097 35
5261 1052 691 40
5262 1052 878 24
5263 1053 3172 83
5264 1053 1928 72
5265 1053 2992 25
5266 1053 2517 75
5267 1053 2578 49
5268 1054 3720 28
5269 1054 143 23
5270 1054 473 35
5271 1054 994 64
5272 1054 1319 6
5273 1054 2233 2
5274 1054 1433 40
5275 1055 2023 22
5276 1056 3603 75
5277 1056 2012 88
5278 1056 530 85
5279 1056 1343 48
5280 1056 2172 42
5281 1056 3330 93
5282 1057 2588 91
5283 1057 2266 35
5284 1057 914 61
5285 1057 2589 15
5286 1057 2868 22
5287 1057 2316 7
5288 1057 2767 5
5289 1058 23 57
5290 1058 56 30
5291 1058 1049 12
5292 1058 1592 50
5293 1059 2047 72
5294 1059 3460 6
5295 1060 557 69
5296 1061 2509 6
5297 1061 2011 49
5298 1061 1857 72
5299 1061 566 24
5300 1061 2689 35
5301 1062 404 19
5302 1062 3746 32
5303 1063 537 80
5304 1063 1898 82
5305 1063 3359 77
5306 1063 1981 61
5307 1063 262 82
5308 1063 834 57
5309 1063 3619 51
5310 1063 2568 89
5311 1063 1888 62
5312 1063 2996 41
5313 1063 2734 26
5314 1063 660 17
5315 1064 3841 80
5316 1065 3111 73
5317 1065 646 73
5318 1065 2415 69
5319 1065 3669 29
5320 1065 3156 74
5321 1066 227 13
5322 1066 1910 71
5323 1066 3565 62
5324 1066 3169 90
5325 1066 3544 44
5326 1066 1601 78
5327 1066 25 74
5328 1067 3136 7
5329 1067 2631 47
5330 1067 2640 65
5331 1067 1279 68
5332 1067 0 39
5333 1067 2158 15
5334 1067 3973 75
5335 1067 1367 98
5336 1067 2889 83
5337 1067 3620 97
5338 1067 3833 92
5339 1067 3142 40
5340 1068 458 66
5341 1068 3101 24
5342 1068 514 36
5343 1068 762 54
5344 1068 164 38
5345 1068 2842 88
5346 1069 376 99
5347 1069 936 15
5348 1069 3203 9
5349 1069 1324 68
5350 1069 1870 67
5351 1069 864 1
5352 1069 1025 30
5353 1069 3240 93
5354 1070 865 35
5355 1070 1313 52
5356 1070 1885 58
5357 1071 476 6
5358 1071 135 90
5359 1071 2802 3
5360 1071 432 55
5361 1071 3441 14
5362 1071 2383 97
5363 1071 2666 55
5364 1072 2310 78
5365 1072 1829 28
5366 1072 3731 70
5367 1072 731 34
5368 1072 3998 63
5369 1072 2323 31
5370 1072 2368 66
5371 1072 2598 10
5372 1073 3381 4
5373 1073 802 98
5374 1074 3818 89
5375 1074 2836 51
5376 1074 3964 32
5377 1074 1547 64
5378 1075 1109 1
5379 1075 3146 88
5380 1075 2080 57
5381 1075 3505 22
5382 1076 161 10
5383 1076 1924 72
5384 1076 596 48
5385 1076 79 5
5386 1076 2739 72
5387 1076 1337 17
5388 1076 1947 18
5389 1077 1780 51
5390 1077 1392 9
5391 1077 3813 52
5392 1077 3295 32
5393 1077 1580 40
5394 1077 783 6
5395 1077 2583 44
5396 1077 2663 37
5397 1078 325 50
5398 1078 3777 37
5399 1078 458 79
5400 1078 2607 65
5401 1078 1593 42
5402 1078 3163 79
5403 1078 2381 3
5404 1078 453 97
5405 1079 1205 15
5406 1079 2715 61
5407 1079 2498 45
5408 1079 1203 22
5409 1079 3313 40
5410 1079 602 8
5411 1079 480 90
5412 1080 317 2
5413 1080 2713 10
5414 1080 2023 59
5415 1081 2907 47
5416 1081 1308 47
5417 1081 1502 4
5418 1081 1172 38
5419 1081 2113 76
5420 1081 3628 86
5421 1081 3136 31
5422 1081 3345 42
5423 1082 2288 58
5424 1082 3654 71
5425 1082 2593 15
5426 1082 2797 37
5427 1083 2779 12
5428 1083 3674 20
5429 1083 3182 61
5430 1083 1687 63
5431 1083 1913 4
5432 1083 114 10
5433 1083 2397 94
5434 1083 1479 47
5435 1084 2712 31
5436 1084 3001 25
5437 1084 394 67
5438 1084 264 64
5439 1085 1394 77
5440 1085 350 18
5441 1085 2702 85
5442 1085 585 69
5443 1086 1835 31
5444 1086 812 76
5445 1086 1580 22
5446 1086 2781 77
5447 1086 469 16
5448 1087 2602 20
5449 1087 1209 31
5450 1087 3953 65
5451 1088 3669 87
5452 1088 45 16
5453 1089 2781 94
5454 1089 28 11
5455 1089 2352 84
5456 1089 44 71
5457 1089 808 63
5458 1089 572 36
5459 1089 909 84
5460 1090 3483 6
5461 1090 1962 8
5462 1090 1160 64
5463 1090 1994 33
5464 1091 1620 29
5465 1091 778 97
5466 1091 1200 19
5467 1091 924 50
5468 1091 1182 22
5469 1091 3249 69
5470 1091 907 94
5471 1091 205 81
5472 1091 3700 33
5473 1091 3726 28
5474 1091 3810 22
5475 1092 1945 29
5476 1092 2449 85
5477 1093 1830 63
5478 1093 1328 50
5479 1093 2847 6
5480 1093 2625 94
5481 1093 2823 81
5482 1093 1537 28
5483 1094 3824 41
5484 1094 359 49
5485 1094 293 61
5486 1094 903 18
5487 1094 1594 76
5488 1095 2875 36
5489 1095 3963 36
5490 1095 2219 19
5491 1095 506 37
5492 1095 52 62
5493 1096 3314 23
5494 1096 863 18
5495 1096 2641 21
5496 1097 1602 55
5497 1097 762 37
5498 1097 210 62
5499 1097 1393 20
5500 1097 40 65
5501 1097 3109 32
5502 1097 2341 83
5503 1097 292 32
5504 1098 2271 29
5505 1098 1728 40
5506 1098 3900 96
5507 1098 297 31
5508 1098 3327 21
5509 1098 3543 81
5510 1099 3525 49
5511 1099 915 6
5512 1099 3173 99
5513 1099 3160 88
5514 1100 2627 87
5515 1100 3498 28
5516 1100 3197 24
5517 1100 3185 18
5518 1100 870 20
5519 1100 1349 85
5520 1100 2714 58
5521 1101 3276 43
5522 1101 2777 49
5523 1101 2243 13
5524 1101 807 64
5525 1101 3467 84
5526 1101 1416 46
5527 1102 1462 68
5528 1102 485 28
5529 1102 283 40
5530 1102 740 88
5531 1102 252 35
5532 1102 3570 86
5533 1102 2999 10
5534 1103 144 59
5535 1103 3509 29
5536 1103 2522 4
5537 1103 2090 80
5538 1103 842 65
5539 1103 1025 90
5540 1103 3093 11
5541 1104 721 94
5542 1104 3139 66
5543 1104 1173 97
5544 1104 928 11
5545 1104 1503 92
5546 1105 2926 96
5547 1105 3816 74
5548 1105 3467 91
5549 1105 3159 19
5550 1105 959 37
5551 1105 785 94
5552 1105 1412 85
5553 1106 1968 19
5554 1106 1292 36
5555 1106 29 15
5556 1107 2415 22
5557 1107 662 77
5558 1107 2700 56
5559 1107 3221 29
5560 1107 886 46
5561 1107 2023 78
5562 1107 2916 64
5563 1108 2256 48
5564 1108 1399 21
5565 1109 1022 18
5566 1109 6 66
5567 1109 1049 90
5568 1109 3831 66
5569 1109 2745 30
5570 1110 774 20
5571 1110 1751 4
5572 1110 2003 98
5573 1110 2219 80
5574 1110 228 29
5575 1110 528 76
5576 1111 3653 63
5577 1111 1926 99
5578 1111 2668 34
5579 1111 2335 80
5580 1111 963 71
5581 1112 139 5
5582 1112 1101 4
5583 1112 2900 78
5584 1112 1822 23
5585 1112 973 79
5586 1112 2331 30
5587 1112 3202 53
5588 1113 200 57
5589 1113 484 57
5590 1113 939 69
5591 1113 2466 48
5592 1113 1115 11
5593 1113 316 36
5594 1113 2094 45
5595 1114 1547 44
5596 1114 57 35
5597 1114 2604 99
5598 1114 2447 95
5599 1115 3344 77
5600 1115 2274 40
5601 1115 1869 37
5602 1115 3698 35
5603 1116 3446 94
5604 1116 1407 40
5605 1116 2742 19
5606 1116 3092 77
5607 1116 2392 83
5608 1116 3380 60
5609 1117 463 29
5610 1117 3100 63
5611 1117 2451 19
5612 1118 3403 55
5613 1118 1101 72
5614 1118 580 25
5615 1119 692 21
5616 1119 2882 30
5617 1119 3086 27
5618 1119 657 33
5619 1120 3998 69
5620 1121 58 28
5621 1121 2815 26
5622 1121 2536 63
5623 1121 113 87
5624 1121 3431 46
5625 1121 198 48
5626 1121 1380 89
5627 1122 3883 58
5628 1122 2402 82
5629 1123 3508 81
5630 1123 2928 29
5631 1123 1715 64
5632 1123 3606 70
5633 1124 1970 44
5634 1124 1442 12
5635 1124 3566 30
5636 1124 1049 77
5637 1124 730 26
5638 1124 74 10
5639 1125 3010 14
5640 1125 1670 50
5641 1125 3301 43
5642 1126 14 28
5643 1126 3132 15
5644 1126 3101 19
5645 1126 2652 54
5646 1126 10 33
5647 1127 2323 45
5648 1127 228 49
5649 1127 1193 89
5650 1127 3747 96
5651 1127 1528 79
5652 1127 726 49
5653 1127 1931 57
5654 1127 153 46
5655 1128 3954 57
5656 1128 333 5
5657 1128 1286 46
5658 1128 1153 62
5659 1128 1027 14
5660 1129 3697 62
5661 1129 2402 12
5662 1129 858 47
5663 1129 1583 80
5664 1129 1701 83
5665 1130 2315 12
5666 1130 1783 84
5667 1130 916 70
5668 1130 2507 29
5669 1130 1884 30
5670 1130 3909 29
5671 1131 2108 30
5672 1131 1256 47
5673 1131 445 51
5674 1131 3377 22
5675 1131 3095 99
5676 1132 3150 81
5677 1132 566 84
5678 1132 3896 48
5679 1132 3959 44
5680 1133 1253 3
5681 1134 3241 16
5682 1135 1096 27
5683 1135 2325 43
5684 1135 3706 98
5685 1135 2571 71
5686 1135 478 40
5687 1135 160 15
5688 1136 100 98
5689 1136 1057 100
5690 1136 3818 8
5691 1137 1318 91
5692 1137 3394 94
5693 1137 1253 32
5694 1138 1555 94
5695 1138 3530 34
5696 1138 821 11
5697 1138 1225 10
5698 1138 3011 30
5699 1138 2926 57
5700 1138 679 25
5701 1139 2662 85
5702 1139 2011 18
5703 1139 1048 4
5704 1139 413 85
5705 1139 84 82
5706 1139 1298 84
5707 1139 1924 17
5708 1140 2744 17
5709 1140 462 5
5710 1140 2247 11
5711 1140 3580 59
5712 1140 1859 30
5713 1140 101 70
5714 1141 2553 23
5715 1141 2253 17
5716 1141 2024 81
5717 1141 2205 56
5718 1141 913 100
5719 1141 1453 6
5720 1142 3143 51
5721 1142 3058 69
5722 1142 3915 51
5723 1142 762 81
5724 1142 1625 72
5725 1142 131 90
5726 1143 1207 96
5727 1143 1895 83
5728 1143 2308 53
5729 1143 771 54
5730 1143 2127 30
5731 1144 1579 1
5732 1144 3146 97
5733 1144 669 62
5734 1144 1049 3
5735 1144 3364 80
5736 1144 563 80
5737 1144 2952 53
5738 1144 3196 37
5739 1144 239 70
5740 1144 1542 70
5741 1145 620 53
5742 1145 425 30
5743 1145 2277 77
5744 1145 3140 96
5745 1145 2385 79
5746 1145 2340 66
5747 1145 2107 58
5748 1145 1947 41
5749 1146 1021 55
5750 1146 2784 72
5751 1146 3758 13
5752 1146 926 74
5753 1147 2778 22
5754 1147 1258 80
5755 1147 3906 73
5756 1147 3083 98
5757 1147 2037 43
5758 1147 1399 74
5759 1147 645 11
5760 1147 3482 12
5761 1148 3215 3
5762 1148 3020 17
5763 1148 248 80
5764 1148 3893 68
5765 1148 1551 40
5766 1149 3160 75
5767 1149 914 84
5768 1149 3481 27
5769 1149 815 68
5770 1149 2954 25
5771 1149 2223 41
5772 1150 1942 2
5773 1150 167 73
5774 1150 1042 32
5775 1150 2295 19
5776 1151 637 57
5777 1151 1891 48
5778 1151 3277 25
5779 1152 400 17
5780 1152 267 80
5781 1152 3691 93
5782 1152 1954 50
5783 1152 2339 78
5784 1152 1055 38
5785 1153 410 65
5786 1153 1610 96
5787 1153 1737 51
5788 1153 1087 25
5789 1153 2514 88
5790 1153 2716 85
5791 1153 3668 17
5792 1153 644 8
5793 1153 3813 90
5794 1154 1111 11
5795 1154 583 32
5796 1154 2754 93
5797 1154 2126 97
5798 1154 2121 2
5799 1154 2761 51
5800 1154 936 42
5801 1154 3805 100
5802 1155 1623 26
5803 1155 1048 26
5804 1155 649 22
5805 1155 920 31
5806 1155 3246 77
5807 1156 3596 89
5808 1156 1492 51
5809 1156 2211 78
5810 1156 1158 10
5811 1156 2141 13
5812 1157 1914 85
5813 1157 2831 72
5814 1157 2592 49
5815 1157 3264 49
5816 1157 3956 40
5817 1157 1625 88
5818 1158 1496 98
5819 1158 737 15
5820 1158 129 10
5821 1158 94 44
5822 1158 639 12
5823 1158 2991 96
5824 1158 1963 50
5825 1159 2552 38
5826 1159 3736 90
5827 1159 3362 100
5828 1160 1690 86
5829 1161 558 33
5830 1161 2108 53
5831 1161 3148 43
5832 1161 3083 78
5833 1161 1018 19
5834 1162 3352 25
5835 1162 803 80
5836 1162 474 54
5837 1162 1366 100
5838 1162 1042 48
5839 1162 2043 77
5840 1163 3965 61
5841 1163 1354 72
5842 1164 3883 20
5843 1164 2689 56
5844 1165 2044 75
5845 1165 2945 3
5846 1165 2292 7
5847 1165 178 68
5848 1165 2671 2
5849 1165 2128 1
5850 1166 2477 37
5851 1166 405 59
5852 1166 495 1
5853 1166 2942 26
5854 1166 830 24
5855 1166 2637 21
5856 1166 3915 54
5857 1166 2417 6
5858 1167 2246 96
5859 1167 1910 2
5860 1167 3270 68
5861 1167 3971 65
5862 1167 3269 99
5863 1168 3503 69
5864 1168 3539 40
5865 1168 1394 85
5866 1168 1572 25
5867 1168 542 73
5868 1168 3872 11
5869 1169 3838 26
5870 1169 3819 89
5871 1169 2913 35
5872 1169 3365 80
5873 1170 82 59
5874 1170 229 32
5875 1170 1711 16
5876 1170 1315 3
5877 1171 2047 47
5878 1172 2007 28
5879 1172 1668 72
5880 1172 2666 67
5881 1173 3234 68
5882 1174 3766 83
5883 1174 837 85
5884 1174 3905 77
5885 1174 888 29
5886 1174 292 13
5887 1174 2836 98
5888 1175 1889 21
5889 1175 1342 80
5890 1175 3896 91
5891 1175 231 2
5892 1175 715 40
5893 1175 1095 95
5894 1176 930 35
5895 1176 422 21
5896 1176 2181 65
5897 1176 2683 19
5898 1176 982 31
5899 1176 3660 95
5900 1176 3019 54
5901 1176 277 16
5902 1176 3522 56
5903 1176 3949 5
5904 1176 806 98
5905 1177 587 11
5906 1177 2633 3
5907 1177 852 85
5908 1177 2761 80
5909 1177 2522 63
5910 1178 1864 19
5911 1178 1654 96
5912 1179 315 72
5913 1179 2311 80
5914 1179 1944 81
5915 1179 3860 27
5916 1179 2996 92
5917 1180 2408 69
5918 1180 1190 22
5919 1181 3625 9
5920 1181 361 17
5921 1181 192 96
5922 1181 3468 82
5923 1182 313 13
5924 1182 1841 6
5925 1182 558 13
5926 1182 2545 47
5927 1182 452 97
5928 1183 2592 13
5929 1183 1293 1
5930 1183 1876 54
5931 1183 1423 7
5932 1183 3450 96
5933 1183 3050 77
5934 1183 2004 63
5935 1183 2475 66
5936 1183 290 39
5937 1183 1320 73
5938 1184 2295 62
5939 1184 850 87
5940 1184 408 4
5941 1184 598 37
5942 1184 1075 87
5943 1185 2317 82
5944 1185 417 20
5945 1185 76 90
5946 1185 960 5
5947 1185 722 75
5948 1185 897 57
5949 1186 1754 87
5950 1186 2332 59
5951 1187 2145 87
5952 1187 2527 52
5953 1187 3975 55
5954 1188 2283 86
5955 1188 1169 31
5956 1189 1591 14
5957 1189 1154 5
5958 1189 3508 7
5959 1189 2301 78
5960 1189 93 40
5961 1189 99 43
5962 1190 3235 26
5963 1190 3330 10
5964 1190 3599 77
5965 1191 2668 94
5966 1191 1660 91
5967 1191 203 81
5968 1192 1205 36
5969 1192 375 18
5970 1192 2274 18
5971 1192 903 28
5972 1192 2470 50
5973 1193 3216 42
5974 1193 168 96
5975 1194 1278 31
5976 1194 1972 22
5977 1194 2731 61
5978 1194 567 11
5979 1194 1016 34
5980 1195 304 62
5981 1195 861 100
5982 1195 3726 89
5983 1195 708 23
5984 1196 2372 83
5985 1196 211 87
5986 1196 1632 45
5987 1196 1614 2
5988 1196 2519 62
5989 1197 977 49
5990 1197 1655 20
5991 1197 3106 26
5992 1197 3027 30
5993 1197 3205 17
5994 1197 3579 100
5995 1197 3694 59
5996 1197 3772 48
5997 1197 324 6
5998 1197 1423 75
5999 1198 568 85
6000 1199 2758 35
6001 1199 269 40
6002 1199 1283 34
6003 1199 2001 66
6004 1199 1599 29
6005 1199 1639 11
6006 1200 746 64
6007 1200 3654 100
6008 1201 3995 86
6009 1201 3979 37
6010 1201 1195 96
6011 1201 872 75
6012 1201 3758 28
6013 1201 2444 54
6014 1201 2336 2
6015 1201 627 10
6016 1201 1395 51
6017 1201 3308 11
6018 1201 1302 56
6019 1201 671 92
6020 1201 2483 66
6021 1202 1562 61
6022 1202 2095 96
6023 1202 2069 92
6024 1202 2558 50
6025 1202 1635 29
6026 1203 153 95
6027 1203 2698 4
6028 1203 635 63
6029 1203 3282 26
6030 1204 2279 60
6031 1204 2200 21
6032 1204 3409 20
6033 1204 1836 85
6034 1204 2287 41
6035 1205 1664 62
6036 1205 2486 48
6037 1205 364 70
6038 1205 3332 34
6039 1205 2965 68
6040 1205 580 31
6041 1205 2980 52
6042 1205 26 27
6043 1205 1965 77
6044 1205 3676 16
6045 1206 73 57
6046 1206 3853 5
6047 1206 2564 14
6048 1206 365 28
6049 1206 3899 66
6050 1206 3235 79
6051 1206 1072 72
6052 1206 2633 70
6053 1206 2169 14
6054 1206 3110 1
6055 1207 1792 19
6056 1207 3695 73
6057 1207 922 42
6058 1207 1909 57
6059 1207 2281 72
6060 1207 905 67
6061 1207 1319 17
6062 1208 3509 23
6063 1208 903 87
6064 1208 1276 27
6065 1208 2891 30
6066 1208 2855 87
6067 1208 3824 44
6068 1208 2963 68
6069 1209 1481 55
6070 1209 818 18
6071 1209 2480 28
6072 1210 1380 36
6073 1210 1402 19
6074 1210 3594 85
6075 1211 2997 17
6076 1211 3373 30
6077 1211 3411 38
6078 1211 1252 98
6079 1212 594 17
6080 1212 3925 19
6081 1212 1063 54
6082 1212 445 39
6083 1213 3412 10
6084 1213 3111 3
6085 1214 686 16
6086 1214 3379 34
6087 1215 607 82
6088 1215 1121 36
6089 1215 3987 19
6090 1215 1269 25
6091 1215 1465 1
6092 1215 2465 47
6093 1216 2521 49
6094 1216 3650 50
6095 1216 2860 44
6096 1216 1101 97
6097 1216 1342 57
6098 1216 2170 58
6099 1216 307 54
6100 1216 1256 2
6101 1216 1914 94
6102 1216 1066 98
6103 1216 3094 52
6104 1216 1008 14
6105 1216 1114 81
6106 1217 1810 82
6107 1217 3860 20
6108 1217 2725 46
6109 1218 395 16
6110 1218 1270 63
6111 1219 3845 34
6112 1219 3365 31
6113 1219 1123 39
6114 1219 2004 23
6115 1220 2576 16
6116 1220 558 4
6117 1220 1613 70
6118 1220 2898 40
6119 1220 2007 31
6120 1220 3434 79
6121 1220 3081 69
6122 1221 2240 66
6123 1221 3492 73
6124 1221 436 26
6125 1221 455 90
6126 1222 3557 73
6127 1222 2573 4
6128 1222 1286 32
6129 1222 1057 91
6130 1222 1086 13
6131 1222 3518 56
6132 1222 3813 78
6133 1222 3746 53
6134 1223 3347 34
6135 1223 313 50
6136 1223 794 56
6137 1224 3711 67
6138 1224 1607 2
6139 1224 3423 99
6140 1224 53 20
6141 1224 3303 51
6142 1224 3310 86
6143 1225 3737 94
6144 1225 2507 72
6145 1225 3701 61
6146 1225 3823 38
6147 1225 1501 96
6148 1225 2532 72
6149 1225 2083 45
6150 1225 2940 15
6151 1225 2946 81
6152 1226 3978 81
6153 1226 2820 14
6154 1226 756 58
6155 1226 1994 55
6156 1226 1902 85
6157 1227 1028 92
6158 1227 667 90
6159 1227 51 55
6160 1227 3035 15
6161 1228 1576 19
6162 1228 2361 36
6163 1228 2584 63
6164 1228 3032 88
6165 1228 612 49
6166 1229 2300 83
6167 1229 2783 71
6168 1229 2605 42
6169 1229 1038 89
6170 1229 3198 75
6171 1229 3023 59
6172 1229 2810 49
6173 1230 59 55
6174 1230 2740 39
6175 1230 2902 55
6176 1230 2374 73
6177 1230 1592 21
6178 1230 3015 56
6179 1231 1482 48
6180 1231 3141 77
6181 1231 2956 87
6182 1231 474 82
6183 1231 290 6
6184 1231 2634 24
6185 1231 911 71
6186 1232 3776 21
6187 1232 1204 61
6188 1232 652 59
6189 1233 1059 90
6190 1233 646 39
6191 1233 3975 53
6192 1233 1740 79
6193 1233 3902 97
6194 1234 2135 36
6195 1234 534 92
6196 1234 533 70
6197 1234 3222 24
6198 1234 1330 43
6199 1234 2081 92
6200 1234 221 38
6201 1234 696 41
6202 1235 3397 60
6203 1235 2862 49
6204 1235 2644 32
6205 1235 598 38
6206 1235 3055 38
6207 1235 2397 58
6208 1235 2966 86
6209 1235 3189 72
6210 1236 2140 22
6211 1236 3794 6
6212 1236 3052 7
6213 1236 1054 14
6214 1236 63 25
6215 1237 1512 63
6216 1237 1981 85
6217 1237 1348 50
6218 1237 1799 66
6219 1237 2194 32
6220 1237 2632 47
6221 1238 3487 21
6222 1238 3411 94
6223 1238 1388 95
6224 1238 1319 87
6225 1238 1337 67
6226 1239 2764 10
6227 1239 1247 31
6228 1239 2220 63
6229 1239 441 17
6230 1239 3092 87
6231 1239 494 34
6232 1239 576 23
6233 1239 2877 97
6234 1240 1388 6
6235 1240 3169 37
6236 1241 2805 54
6237 1241 111 96
6238 1241 1140 47
6239 1241 636 30
6240 1241 3473 41
6241 1242 293 21
6242 1242 2477 9
6243 1242 2369 84
6244 1242 3786 64
6245 1243 911 82
6246 1243 1044 8
6247 1243 3043 44
6248 1243 3812 61
6249 1243 3549 18
6250 1243 1027 49
6251 1243 1531 64
6252 1244 2595 59
6253 1244 3583 74
6254 1244 2151 71
6255 1244 3104 25
6256 1245 1890 6
6257 1245 2637 7
6258 1245 2287 19
6259 1245 2461 93
6260 1245 173 96
6261 1245 1090 7
6262 1245 2168 25
6263 1246 954 5
6264 1246 2982 35
6265 1246 61 25
6266 1246 1253 26
6267 1247 951 7
6268 1247 3724 63
6269 1247 1432 60
6270 1247 1047 73
6271 1247 792 3
6272 1248 325 93
6273 1248 2870 4
6274 1248 1971 82
6275 1248 816 12
6276 1249 2392 17
6277 1249 1722 12
6278 1249 34 47
6279 1249 3994 25
6280 1249 3991 24
6281 1249 1885 32
6282 1250 1152 65
6283 1250 1006 70
6284 1250 1366 40
6285 1250 3454 8
6286 1250 50 73
6287 1251 579 79
6288 1251 3233 44
6289 1251 1914 48
6290 1251 1780 44
6291 1251 1896 2
6292 1252 81 55
6293 1252 1015 21
6294 1252 2156 63
6295 1252 3002 16
6296 1252 2307 72
6297 1252 318 16
6298 1252 1042 7
6299 1252 3883 50
6300 1253 2842 26
6301 1253 1715 10
6302 1254 1082 77
6303 1254 2343 69
6304 1254 3306 47
6305 1254 2445 37
6306 1254 2134 36
6307 1254 2599 96
6308 1254 1634 70
6309 1255 1426 7
6310 1255 1519 56
6311 1255 1435 50
6312 1256 1143 58
6313 1257 258 94
6314 1257 446 49
6315 1257 2531 35
6316 1257 1811 91
6317 1258 2045 56
6318 1259 2934 18
6319 1259 757 82
6320 1259 2777 79
6321 1259 3732 88
6322 1259 3021 5
6323 1259 1830 86
6324 1259 1097 100
6325 1259 1559 92
6326 1259 2239 54
6327 1260 632 42
6328 1260 2084 9
6329 1260 1672 52
6330 1260 2004 45
6331 1261 2109 11
6332 1261 3783 17
6333 1261 3166 52
6334 1261 123 41
6335 1262 344 33
6336 1262 3523 61
6337 1262 2255 26
6338 1262 318 62
6339 1262 3321 5
6340 1263 2610 35
6341 1263 1996 22
6342 1263 767 84
6343 1263 1623 9
6344 1263 3885 39
6345 1263 354 16
6346 1264 2584 47
6347 1264 800 19
6348 1264 1114 31
6349 1264 1580 72
6350 1265 1391 58
6351 1265 3263 57
6352 1265 69 97
6353 1266 441 68
6354 1266 92 64
6355 1266 1563 8
6356 1266 3414 99
6357 1267 1574 4
6358 1267 382 1
6359 1267 1012 73
6360 1267 3677 68
6361 1267 2206 44
6362 1267 121 35
6363 1267 2116 45
6364 1267 1694 8
6365 1267 2768 53
6366 1267 1996 82
6367 1268 1729 77
6368 1269 3583 27
6369 1269 2493 44
6370 1269 2650 81
6371 1270 2501 61
6372 1270 1763 52
6373 1270 2490 31
6374 1270 1746 86
6375 1270 3657 27
6376 1270 116 66
6377 1270 3687 84
6378 1271 1004 15
6379 1271 2503 24
6380 1271 530 25
6381 1271 2979 42
6382 1271 3574 39
6383 1271 2061 83
6384 1271 2937 25
6385 1271 819 84
6386 1272 2879 28
6387 1272 1107 56
6388 1272 3590 6
6389 1272 68 51
6390 1272 1276 20
6391 1272 2053 1
6392 1272 3793 27
6393 1273 297 64
6394 1273 531 53
6395 1273 3261 8
6396 1273 1308 17
6397 1273 742 82
6398 1273 415 5
6399 1273 3906 81
6400 1274 2427 64
6401 1274 2241 5
6402 1274 2576 58
6403 1274 1450 32
6404 1274 519 61
6405 1274 3506 31
6406 1275 1523 51
6407 1275 1386 54
6408 1275 3726 69
6409 1275 1483 6
6410 1275 902 31
6411 1275 3468 12
6412 1276 2038 56
6413 1276 3305 78
6414 1276 2387 83
6415 1276 2963 57
6416 1276 3968 56
6417 1276 2838 3
6418 1277 2195 58
6419 1277 2946 92
6420 1277 1939 78
6421 1277 3458 2
6422 1277 873 35
6423 1277 97 50
6424 1277 2611 83
6425 1277 3205 56
6426 1277 277 3
6427 1278 822 6
6428 1278 1902 44
6429 1278 3674 43
6430 1278 979 76
6431 1278 879 98
6432 1278 2213 31
6433 1278 2497 95
6434 1278 2552 9
6435 1279 3453 75
6436 1279 1576 75
6437 1279 2447 36
6438 1279 881 74
6439 1280 998 25
6440 1281 1030 36
6441 1281 2370 35
6442 1281 2350 79
6443 1281 1452 91
6444 1281 222 78
6445 1282 1263 9
6446 1282 2524 84
6447 1282 915 84
6448 1282 2826 50
6449 1282 319 11
6450 1282 2058 47
6451 1282 143 80
6452 1282 605 6
6453 1282 399 24
6454 1283 2654 72
6455 1283 2610 57
6456 1283 2129 79
6457 1283 3854 90
6458 1283 2812 72
6459 1283 96 20
6460 1284 748 54
6461 1284 1345 84
6462 1284 829 23
6463 1284 1227 18
6464 1285 2848 42
6465 1285 1766 44
6466 1285 2716 43
6467 1285 1582 58
6468 1286 1104 39
6469 1286 2586 100
6470 1287 328 14
6471 1287 2680 80
6472 1287 2276 34
6473 1288 2121 93
6474 1288 910 45
6475 1288 418 82
6476 1288 2847 6
6477 1289 3062 67
6478 1289 916 82
6479 1289 740 79
6480 1289 2019 5
6481 1289 2560 56
6482 1289 1106 50
6483 1290 510 4
6484 1290 3340 30
6485 1290 1536 54
6486 1291 1426 30
6487 1291 1247 35
6488 1291 1514 2
6489 1291 2251 75
6490 1291 2847 83
6491 1291 2972 12
6492 1291 2019 91
6493 1292 1618 97
6494 1292 2090 49
6495 1292 3664 11
6496 1293 2329 54
6497 1294 3698 73
6498 1294 2566 28
6499 1294 2466 16
6500 1294 3268 32
6501 1294 1716 26
6502 1294 1958 32
6503 1295 1816 49
6504 1295 2144 26
6505 1295 1704 38
6506 1296 3450 42
6507 1296 159 23
6508 1296 982 69
6509 1296 3792 4
6510 1296 3341 35
6511 1297 3751 86
6512 1297 1777 29
6513 1297 1621 25
6514 1297 346 23
6515 1298 1569 95
6516 1298 551 98
6517 1298 508 50
6518 1298 1717 33
6519 1299 2463 36
6520 1299 1916 35
6521 1299 2235 48
6522 1300 370 66
6523 1300 3136 13
6524 1300 575 52
6525 1301 360 39
6526 1301 1278 75
6527 1301 1590 35
6528 1301 2386 54
6529 1301 231 13
6530 1302 665 43
6531 1302 459 21
6532 1302 1146 82
6533 1302 3161 65
6534 1302 139 53
6535 1302 3212 71
6536 1303 655 15
6537 1303 302 42
6538 1303 2388 79
6539 1303 1869 14
6540 1304 2355 47
6541 1304 3180 53
6542 1304 1976 60
6543 1304 3374 39
6544 1304 1325 84
6545 1305 1306 97
6546 1305 1116 3
6547 1305 392 81
6548 1305 1457 63
6549 1305 3556 89
6550 1306 3497 76
6551 1307 3427 33
6552 1307 1390 74
6553 1307 443 13
6554 1307 3783 57
6555 1308 1048 84
6556 1308 1944 89
6557 1308 234 79
6558 1308 3069 89
6559 1308 2195 4
6560 1309 199 55
6561 1309 67 3
6562 1310 3358 86
6563 1310 1562 94
6564 1310 1652 70
6565 1310 3973 13
6566 1310 3635 18
6567 1310 3802 45
6568 1310 3541 57
6569 1311 3578 8
6570 1311 2593 51
6571 1311 1719 4
6572 1311 1108 20
6573 1311 3083 90
6574 1311 205 79
6575 1311 2834 68
6576 1311 930 93
6577 1311 3357 22
6578 1311 3999 19
6579 1312 1833 34
6580 1312 1041 71
6581 1312 315 75
6582 1312 1177 90
6583 1312 1791 57
6584 1312 1570 9
6585 1312 794 40
6586 1312 2183 61
6587 1312 1922 7
6588 1312 827 53
6589 1312 133 63
6590 1312 1775 45
6591 1313 424 78
6592 1313 3772 51
6593 1313 639 43
6594 1313 1076 5
6595 1313 2613 3
6596 1313 1969 100
6597 1313 2160 87
6598 1313 1014 85
6599 1314 45 3
6600 1314 2947 24
6601 1314 1533 15
6602 1314 3332 87
6603 1314 1654 73
6604 1314 2970 96
6605 1314 193 58
6606 1314 2185 80
6607 1315 2798 58
6608 1315 3324 99
6609 1315 3489 97
6610 1315 1439 89
6611 1316 106 54
6612 1316 1328 39
6613 1316 10 83
6614 1317 3631 57
6615 1317 1016 1
6616 1317 481 84
6617 1317 914 40
6618 1317 1744 89
6619 1317 1319 72
6620 1317 2688 53
6621 1318 2662 85
6622 1318 834 4
6623 1318 519 11
6624 1318 3005 52
6625 1318 2650 44
6626 1318 518 51
6627 1318 510 9
6628 1318 850 19
6629 1318 2204 40
6630 1318 1228 56
6631 1319 720 53
6632 1319 2739 18
6633 1319 1594 43
6634 1319 3304 53
6635 1319 1141 75
6636 1320 2799 45
6637 1320 1612 9
6638 1320 33 19
6639 1321 3821 48
6640 1321 1459 9
6641 1321 3078 55
6642 1321 3488 18
6643 1321 303 65
6644 1321 2438 93
6645 1321 3724 81
6646 1322 141 4
6647 1323 2112 23
6648 1323 1857 49
6649 1323 1069 14
6650 1323 2019 36
6651 1324 2093 23
6652 1324 2772 20
6653 1324 2859 68
6654 1324 39 85
6655 1325 3816 38
6656 1325 1353 64
6657 1325 2392 37
6658 1325 3894 50
6659 1325 2527 76
6660 1325 106 63
6661 1325 3240 67
6662 1325 2728 45
6663 1326 541 16
6664 1326 1438 27
6665 1326 3853 55
6666 1326 3482 68
6667 1327 3917 10
6668 1327 238 78
6669 1327 3289 36
6670 1327 1059 100
6671 1328 1054 70
6672 1328 1982 3
6673 1328 1347 83
6674 1328 878 36
6675 1329 2353 35
6676 1329 219 94
6677 1329 1190 49
6678 1329 359 30
6679 1329 3096 44
6680 1329 1678 88
6681 1329 1192 71
6682 1329 2566 5
6683 1330 2584 6
6684 1330 2500 96
6685 1330 2072 82
6686 1331 3599 84
6687 1331 837 18
6688 1331 2975 58
6689 1331 3172 18
6690 1332 723 79
6691 1332 2844 12
6692 1332 3551 58
6693 1332 869 14
6694 1332 1728 35
6695 1333 3211 16
6696 1333 3990 14
6697 1333 3311 18
6698 1333 413 14
6699 1333 988 24
6700 1334 3863 79
6701 1334 3159 6
6702 1334 2276 45
6703 1334 2309 67
6704 1334 1826 65
6705 1334 1043 94
6706 1334 3056 65
6707 1334 2568 38
6708 1335 2536 9
6709 1335 2950 75
6710 1335 3461 26
6711 1335 1152 51
6712 1335 1079 82
6713 1335 1233 81
6714 1335 2506 93
6715 1336 3992 22
6716 1336 526 49
6717 1336 279 81
6718 1337 1675 99
6719 1337 1653 90
6720 1337 479 27
6721 1338 2794 12
6722 1338 3621 100
6723 1338 413 29
6724 1338 147 89
6725 1338 265 39
6726 1338 2179 75
6727 1339 3501 33
6728 1339 60 55
6729 1339 1373 4
6730 1339 2802 60
6731 1340 1051 66
6732 1340 3454 9
6733 1340 174 93
6734 1340 537 66
6735 1340 3303 21
6736 1341 2545 80
6737 1341 2966 44
6738 1341 1921 17
6739 1342 3796 14
6740 1342 2569 76
6741 1342 2387 85
6742 1342 2304 31
6743 1342 351 70
6744 1342 2829 44
6745 1342 1747 21
6746 1342 2398 18
6747 1342 1206 22
6748 1342 1533 79
6749 1343 2503 28
6750 1343 1068 16
6751 1344 768 9
6752 1344 218 40
6753 1344 3484 24
6754 1344 2520 29
6755 1344 2543 11
6756 1344 3750 11
6757 1344 3030 47
6758 1345 3418 40
6759 1345 1223 62
6760 1345 52 75
6761 1345 403 89
6762 1345 329 58
6763 1346 1785 81
6764 1346 1129 94
6765 1346 8 2
6766 1346 341 33
6767 1346 2172 80
6768 1347 426 94
6769 1347 2844 81
6770 1347 3490 88
6771 1347 3823 74
6772 1348 1598 99
6773 1348 2320 69
6774 1348 970 85
6775 1348 2194 66
6776 1348 2844 85
6777 1348 3024 30
6778 1349 643 11
6779 1349 3926 91
6780 1349 2731 23
6781 1350 1026 3
6782 1350 3794 49
6783 1350 1031 85
6784 1350 1076 5
6785 1350 941 41
6786 1351 2464 30
6787 1351 3797 75
6788 1351 319 44
6789 1352 1855 40
6790 1352 1408 32
6791 1352 43 97
6792 1352 3380 91
6793 1353 648 22
6794 1353 421 66
6795 1353 2876 36
6796 1353 2810 45
6797 1353 379 83
6798 1353 3901 10
6799 1354 617 17
6800 1354 3362 77
6801 1354 922 86
6802 1354 1774 98
6803 1354 967 73
6804 1355 3687 27
6805 1355 2209 69
6806 1355 247 59
6807 1356 1752 90
6808 1356 3850 67
6809 1356 2395 66
6810 1356 3705 35
6811 1356 3027 26
6812 1356 2898 10
6813 1356 868 1
6814 1357 3024 57
6815 1357 22 38
6816 1357 3901 74
6817 1357 2048 11
6818 1357 2848 34
6819 1358 1052 68
6820 1358 3553 58
6821 1358 761 54
6822 1358 1820 36
6823 1358 2248 23
6824 1358 3705 57
6825 1359 2084 28
6826 1359 2396 1
6827 1359 2698 1
6828 1359 2865 75
6829 1360 466 22
6830 1360 3800 7
6831 1360 2203 97
6832 1360 1048 13
6833 1361 1540 69
6834 1361 2537 72
6835 1361 3737 63
6836 1361 1870 8
6837 1361 11 100
6838 1361 910 54
6839 1361 1112 82
6840 1362 152 77
6841 1362 2399 96
6842 1363 223 81
6843 1363 2418 70
6844 1363 1016 26
6845 1363 3233 19
6846 1363 1521 97
6847 1363 1368 74
6848 1363 2840 19
6849 1363 945 35
6850 1363 1544 8
6851 1364 2667 11
6852 1364 3468 15
6853 1364 1784 49
6854 1364 837 23
6855 1364 3705 66
6856 1365 1800 3
6857 1365 684 12
6858 1365 1068 100
6859 1365 3615 54
6860 1365 1098 70
6861 1366 3221 5
6862 1366 577 60
6863 1366 431 31
6864 1366 3768 22
6865 1367 868 67
6866 1367 527 14
6867 1367 3160 74
6868 1368 2302 60
6869 1368 1034 47
6870 1368 2918 81
6871 1368 3508 83
6872 1368 1566 83
6873 1369 1499 93
6874 1369 287 5
6875 1369 1377 59
6876 1369 3636 63
6877 1370 1855 20
6878 1370 1081 10
6879 1370 3508 65
6880 1370 3525 72
6881 1370 215 80
6882 1371 3132 3
6883 1371 1336 56
6884 1371 1748 54
6885 1371 215 45
6886 1372 1877 83
6887 1372 2071 8
6888 1372 3162 85
6889 1372 505 43
6890 1372 1780 55
6891 1373 181 47
6892 1373 3019 48
6893 1373 1278 30
6894 1374 1323 36
6895 1374 943 3
6896 1374 1500 7
6897 1374 601 20
6898 1375 2718 56
6899 1375 1181 88
6900 1375 481 64
6901 1375 1364 11
6902 1375 2605 53
6903 1376 2544 9
6904 1376 373 59
6905 1376 2646 18
6906 1376 991 59
6907 1376 3272 57
6908 1376 3926 41
6909 1377 1152 30
6910 1377 700 87
6911 1377 1650 79
6912 1377 782 73
6913 1377 1076 43
6914 1378 3000 34
6915 1378 3906 27
6916 1378 95 87
6917 1378 1756 12
6918 1378 3655 90
6919 1379 2906 81
6920 1379 2939 81
6921 1379 72 84
6922 1379 354 55
6923 1379 749 13
6924 1379 463 10
6925 1379 2156 70
6926 1379 2974 53
6927 1380 3045 76
6928 1380 2535 67
6929 1380 3337 15
6930 1380 81 36
6931 1381 1288 100
6932 1381 3207 92
6933 1381 1510 23
6934 1381 3967 84
6935 1381 2142 15
6936 1381 239 65
6937 1381 3882 48
6938 1382 3492 74
6939 1382 3101 24
6940 1382 2134 73
6941 1382 3078 31
6942 1382 2512 7
6943 1383 2735 4
6944 1383 159 38
6945 1383 1455 87
6946 1383 2596 36
6947 1384 2618 78
6948 1385 3850 19
6949 1385 3936 21
6950 1386 2159 75
6951 1386 563 35
6952 1386 1887 53
6953 1386 2268 71
6954 1387 3221 80
6955 1387 748 60
6956 1387 2771 52
6957 1387 2618 81
6958 1388 2628 14
6959 1388 562 53
6960 1388 2242 53
6961 1389 2261 100
6962 1390 27 16
6963 1390 3048 15
6964 1390 2162 69
6965 1390 2465 48
6966 1390 84 60
6967 1391 3484 5
6968 1391 3590 96
6969 1391 3405 7
6970 1391 1756 12
6971 1391 2757 3
6972 1391 44 74
6973 1391 1935 21
6974 1392 2423 8
6975 1392 964 61
6976 1392 1412 30
6977 1392 1448 57
6978 1392 887 71
6979 1392 366 90
6980 1393 3661 56
6981 1393 63 52
6982 1393 1653 42
6983 1393 3891 46
6984 1394 1450 86
6985 1394 271 61
6986 1394 13 15
6987 1394 1029 78
6988 1394 3232 44
6989 1394 3852 43
6990 1394 491 62
6991 1394 3142 22
6992 1395 2111 73
6993 1395 2548 6
6994 1395 3659 25
6995 1395 1559 34
6996 1396 3391 9
6997 1396 3164 84
6998 1396 3553 30
6999 1397 1103 70
7000 1397 205 54
7001 1397 1034 41
7002 1397 2729 10
7003 1397 1820 60
7004 1397 2686 50
7005 1397 3282 64
7006 1397 475 87
7007 1398 2222 85
7008 1398 3559 83
7009 1398 1799 90
7010 1398 1832 84
7011 1399 1721 84
7012 1399 2823 30
7013 1399 2659 84
7014 1400 2264 62
7015 1400 740 20
7016 1400 2578 63
7017 1400 3021 22
7018 1400 1139 45
7019 1400 508 76
7020 1401 3093 92
7021 1401 1857 4
7022 1401 2803 51
7023 1401 613 25
7024 1401 2324 45
7025 1402 206 79
7026 1402 2634 89
7027 1402 2445 29
7028 1402 1130 16
7029 1402 558 21
7030 1402 3910 99
7031 1403 1973 16
7032 1403 1642 90
7033 1403 271 47
7034 1403 2572 10
7035 1403 2526 85
7036 1404 793 6
7037 1404 3801 4
7038 1404 1244 78
7039 1404 873 77
7040 1404 2923 78
7041 1404 2251 14
7042 1404 2078 23
7043 1405 1205 80
7044 1405 2943 76
7045 1406 1530 68
7046 1406 1375 24
7047 1406 1088 94
7048 1407 2719 35
7049 1407 2711 67
7050 1407 3967 56
7051 1407 156 13
7052 1407 1308 28
7053 1408 1278 88
7054 1408 3527 11
7055 1408 2513 13
7056 1408 3451 1
7057 1408 3808 25
7058 1409 3862 42
7059 1409 3922 67
7060 1409 1876 4
7061 1409 3771 59
7062 1409 1891 60
7063 1409 3266 89
7064 1410 147 11
7065 1410 2574 8
7066 1410 3520 76
7067 1411 2714 12
7068 1411 468 22
7069 1411 1010 8
7070 1411 809 88
7071 1411 2269 33
7072 1411 2169 92
7073 1411 3533 44
7074 1411 1167 87
7075 1411 396 75
7076 1412 3143 30
7077 1412 475 66
7078 1412 1966 61
7079 1412 2952 78
7080 1412 416 47
7081 1412 2711 78
7082 1413 2781 49
7083 1413 2967 29
7084 1413 2496 67
7085 1413 1885 85
7086 1413 2491 39
7087 1414 2530 42
7088 1414 1570 32
7089 1414 102 42
7090 1415 1952 93
7091 1415 55 36
7092 1415 242 51
7093 1415 3838 70
7094 1415 2505 15
7095 1415 1802 80
7096 1415 886 54
7097 1415 2100 50
7098 1415 1695 23
7099 1415 2780 25
7100 1415 577 93
7101 1415 2349 87
7102 1416 3625 7
7103 1416 1740 2
7104 1416 2750 25
7105 1416 3587 57
7106 1416 2103 30
7107 1416 591 51
7108 1416 3034 26
7109 1416 1104 60
7110 1418 3530 100
7111 1418 3538 88
7112 1418 1225 45
7113 1418 3847 62
7114 1418 1802 97
7115 1418 3023 5
7116 1418 3800 67
7117 1418 2272 9
7118 1418 3242 43
7119 1418 1167 9
7120 1418 364 89
7121 1418 332 69
7122 1419 3010 91
7123 1419 180 2
7124 1419 1887 94
7125 1419 1858 59
7126 1419 1366 64
7127 1420 2729 70
7128 1421 2794 29
7129 1421 568 28
7130 1421 3202 99
7131 1421 799 55
7132 1421 201 68
7133 1421 1535 24
7134 1421 2596 53
7135 1421 3881 9
7136 1421 2445 38
7137 1421 3092 89
7138 1422 2218 92
7139 1422 828 39
7140 1422 1668 51
7141 1422 3166 34
7142 1422 3880 100
7143 1422 3741 46
7144 1422 27 47
7145 1423 2003 58
7146 1423 2468 45
7147 1423 2811 29
7148 1423 1516 9
7149 1423 2300 8
7150 1423 2743 6
7151 1423 1728 18
7152 1423 3751 53
7153 1424 882 55
7154 1424 63 72
7155 1424 2309 78
7156 1425 430 91
7157 1425 1517 57
7158 1425 1556 40
7159 1425 3992 24
7160 1425 3163 61
7161 1425 652 41
7162 1426 2546 57
7163 1426 1023 10
7164 1426 1010 35
7165 1426 1069 67
7166 1426 3777 77
7167 1427 1829 9
7168 1427 1084 23
7169 1427 3486 48
7170 1427 1865 45
7171 1427 3670 17
7172 1427 704 80
7173 1427 428 13
7174 1427 3808 87
7175 1427 3291 52
7176 1428 1749 45
7177 1429 3021 26
7178 1429 3250 78
7179 1429 2686 64
7180 1430 3469 73
7181 1431 3267 33
7182 1431 1382 36
7183 1431 3851 58
7184 1431 3453 33
7185 1431 115 2
7186 1431 632 9
7187 1431 216 86
7188 1432 3035 93
7189 1432 3771 43
7190 1432 2190 71
7191 1432 888 83
7192 1432 81 53
7193 1433 1249 54
7194 1433 96 68
7195 1433 705 37
7196 1433 2321 74
7197 1433 2421 22
7198 1433 3639 57
7199 1433 1546 21
7200 1434 1978 47
7201 1434 1315 33
7202 1434 3667 43
7203 1434 1634 100
7204 1435 1629 22
7205 1435 655 68
7206 1435 944 25
7207 1436 3654 93
7208 1436 3608 20
7209 1436 3078 36
7210 1436 1458 4
7211 1437 697 18
7212 1437 494 25
7213 1437 936 5
7214 1437 499 67
7215 1437 1983 95
7216 1437 235 75
7217 1437 341 93
7218 1437 3640 10
7219 1438 325 18
7220 1438 2638 21
7221 1438 518 96
7222 1438 3859 75
7223 1438 3010 37
7224 1438 835 25
7225 1438 1067 79
7226 1438 172 57
7227 1438 3559 14
7228 1439 3410 96
7229 1439 319 41
7230 1439 3856 5
7231 1439 2451 14
7232 1440 3624 7
7233 1440 3412 20
7234 1440 1321 86
7235 1440 1299 32
7236 1440 1915 74
7237 1440 3687 39
7238 1441 1843 15
7239 1442 2205 40
7240 1442 2058 85
7241 1443 3717 17
7242 1443 810 87
7243 1443 1069 89
7244 1443 3781 76
7245 1443 3673 8
7246 1443 772 8
7247 1444 1606 73
7248 1444 3960 39
7249 1445 1275 6
7250 1446 2301 16
7251 1446 1948 57
7252 1446 1260 62
7253 1446 648 94
7254 1446 3460 34
7255 1447 3120 80
7256 1447 958 82
7257 1448 906 13
7258 1448 3139 73
7259 1448 590 23
7260 1449 1777 66
7261 1449 1986 26
7262 1449 2225 18
7263 1449 3321 38
7264 1449 2828 73
7265 1449 3297 48
7266 1449 1947 13
7267 1449 3825 15
7268 1450 897 1
7269 1450 3729 76
7270 1450 3319 92
7271 1451 3286 55
7272 1451 2640 90
7273 1451 255 91
7274 1451 2653 58
7275 1452 1730 4
7276 1452 86 88
7277 1453 65 23
7278 1453 1635 38
7279 1453 3826 80
7280 1453 2149 9
7281 1453 3987 10
7282 1453 1324 97
7283 1454 2371 54
7284 1454 1765 74
7285 1454 3732 78
7286 1454 1867 29
7287 1454 3216 39
7288 1454 3553 93
7289 1455 3297 59
7290 1455 1008 83
7291 1455 3987 72
7292 1455 715 99
7293 1455 1472 58
7294 1455 400 60
7295 1456 3418 54
7296 1456 1566 19
7297 1456 1871 78
7298 1456 2953 61
7299 1456 3383 35
7300 1456 3752 96
7301 1457 1084 50
7302 1457 3824 57
7303 1457 1842 78
7304 1457 2180 27
7305 1457 2382 1
7306 1458 249 89
7307 1458 2600 60
7308 1458 1112 19
7309 1458 3066 16
7310 1458 1228 99
7311 1458 3106 95
7312 1458 1714 63
7313 1459 724 71
7314 1459 3975 23
7315 1460 2131 10
7316 1460 863 83
7317 1460 3697 75
7318 1460 3290 90
7319 1461 3636 87
7320 1461 437 18
7321 1461 374 62
7322 1461 1895 78
7323 1461 1198 4
7324 1461 2607 92
7325 1461 2353 8
7326 1462 189 52
7327 1463 1564 95
7328 1463 3623 66
7329 1463 2919 84
7330 1463 3380 33
7331 1463 3059 51
7332 1464 1301 38
7333 1464 2459 23
7334 1464 2921 69
7335 1464 2130 64
7336 1464 1622 32
7337 1465 2652 39
7338 1465 2021 47
7339 1465 3588 85
7340 1465 2667 57
7341 1465 1187 50
7342 1466 1948 25
7343 1466 3550 87
7344 1466 2235 47
7345 1466 1901 66
7346 1466 1794 94
7347 1466 2808 59
7348 1466 146 25
7349 1467 120 13
7350 1467 3499 12
7351 1468 692 11
7352 1468 340 28
7353 1468 3570 47
7354 1468 404 37
7355 1468 2729 94
7356 1468 2489 79
7357 1469 1031 24
7358 1469 3066 41
7359 1469 902 72
7360 1469 647 49
7361 1469 1378 61
7362 1470 2822 36
7363 1470 2194 41
7364 1470 3682 53
7365 1470 1950 38
7366 1470 965 40
7367 1470 3381 29
7368 1471 1267 16
7369 1471 2455 27
7370 1471 193 21
7371 1472 188 69
7372 1472 2466 15
7373 1472 1561 96
7374 1472 1573 48
7375 1472 534 50
7376 1472 2300 10
7377 1472 2232 26
7378 1473 395 54
7379 1473 29 65
7380 1473 1500 24
7381 1473 855 29
7382 1474 2362 31
7383 1474 2408 85
7384 1474 2446 93
7385 1474 3485 19
7386 1474 1829 80
7387 1474 1379 91
7388 1475 3813 5
7389 1475 2714 91
7390 1476 189 38
7391 1476 1644 56
7392 1476 3036 1
7393 1476 179 67
7394 1476 2262 38
7395 1476 1755 50
7396 1476 1509 88
7397 1476 2385 86
7398 1477 2582 57
7399 1477 196 39
7400 1477 1454 5
7401 1477 2025 61
7402 1477 591 18
7403 1477 43 37
7404 1477 336 100
7405 1477 3785 68
7406 1479 1664 6
7407 1479 3559 98
7408 1479 2942 92
7409 1479 1506 14
7410 1480 2585 66
7411 1480 2336 62
7412 1480 3918 80
7413 1481 3141 80
7414 1481 156 78
7415 1481 1841 62
7416 1482 406 14
7417 1482 1968 63
7418 1482 1076 78
7419 1482 1152 3
7420 1482 1591 70
7421 1482 2096 33
7422 1483 1258 72
7423 1483 2305 11
7424 1483 1229 41
7425 1483 2243 90
7426 1484 648 21
7427 1484 1852 63
7428 1484 1485 58
7429 1485 1870 90
7430 1485 22 14
7431 1485 490 10
7432 1485 1003 46
7433 1485 2615 95
7434 1485 1677 21
7435 1485 3178 64
7436 1485 92 42
7437 1486 308 90
7438 1486 695 2
7439 1486 3927 60
7440 1486 151 82
7441 1486 3222 94
7442 1486 1837 27
7443 1487 3478 97
7444 1487 1986 55
7445 1487 150 11
7446 1488 2377 31
7447 1488 669 24
7448 1488 3039 5
7449 1488 436 39
7450 1488 3718 8
7451 1488 1449 51
7452 1489 2548 32
7453 1489 1923 100
7454 1489 3461 21
7455 1489 694 22
7456 1489 2803 25
7457 1489 3541 50
7458 1489 3127 23
7459 1489 1756 83
7460 1490 1414 65
7461 1490 217 13
7462 1490 2682 83
7463 1490 2587 92
7464 1490 3896 95
7465 1490 615 75
7466 1490 3290 59
7467 1490 2329 73
7468 1491 3784 80
7469 1491 365 11
7470 1491 1228 14
7471 1491 2404 11
7472 1491 474 28
7473 1491 1361 4
7474 1492 1793 61
7475 1492 1494 30
7476 1492 2981 54
7477 1492 2363 50
7478 1492 92 12
7479 1492 3980 97
7480 1492 1707 100
7481 1492 3554 77
7482 1493 1842 91
7483 1493 55 52
7484 1493 2653 59
7485 1493 3375 15
7486 1494 3524 75
7487 1494 2282 57
7488 1494 2314 76
7489 1494 3640 56
7490 1494 2473 77
7491 1495 2374 57
7492 1495 3142 68
7493 1495 1262 9
7494 1496 2401 49
7495 1496 2752 23
7496 1496 2726 52
7497 1496 3254 49
7498 1496 1779 63
7499 1496 2661 13
7500 1497 264 97
7501 1497 851 35
7502 1497 2687 9
7503 1497 1459 56
7504 1497 1722 70
7505 1497 3615 23
7506 1497 1692 53
7507 1498 2030 85
7508 1498 2169 89
7509 1498 3806 47
7510 1499 1400 75
7511 1499 2059 64
7512 1499 2841 6
7513 1499 3854 7
7514 1500 3314 57
7515 1500 835 28
7516 1501 553 21
7517 1501 772 15
7518 1502 3908 18
7519 1502 2928 58
7520 1502 2826 10
7521 1502 3034 86
7522 1502 2292 93
7523 1503 3180 18
7524 1503 1524 11
7525 1503 1719 46
7526 1504 2202 16
7527 1504 3495 99
7528 1504 30 80
7529 1504 3588 57
7530 1504 2755 84
7531 1504 2333 3
7532 1504 56 78
7533 1504 332 52
7534 1505 2468 97
7535 1505 527 20
7536 1505 2546 59
7537 1505 3940 29
7538 1505 2955 14
7539 1506 2895 55
7540 1506 377 61
7541 1506 812 27
7542 1506 411 33
7543 1506 3850 73
7544 1507 2318 80
7545 1507 129 20
7546 1507 1454 71
7547 1507 3557 34
7548 1507 1239 19
7549 1507 1472 56
7550 1507 3043 63
7551 1508 465 67
7552 1508 1454 54
7553 1508 3961 95
7554 1508 2336 12
7555 1509 3943 58
7556 1509 3301 65
7557 1509 2350 36
7558 1509 3973 2
7559 1510 3101 42
7560 1510 3394 39
7561 1510 414 70
7562 1510 2134 45
7563 1510 1837 84
7564 1511 3950 15
7565 1511 3288 17
7566 1511 3832 3
7567 1511 3633 53
7568 1511 1891 14
7569 1511 1307 17
7570 1512 3856 95
7571 1512 3655 49
7572 1512 1639 66
7573 1512 3029 61
7574 1512 2901 32
7575 1512 395 61
7576 1512 3366 2
7577 1512 3260 14
7578 1512 3384 35
7579 1513 2660 35
7580 1513 2871 80
7581 1513 3600 87
7582 1513 2834 65
7583 1513 401 59
7584 1513 2399 62
7585 1514 3119 13
7586 1514 2260 90
7587 1514 3087 89
7588 1514 3598 47
7589 1515 856 68
7590 1515 3505 83
7591 1515 810 78
7592 1515 650 96
7593 1515 665 17
7594 1515 1801 98
7595 1515 1938 64
7596 1515 1797 72
7597 1516 1595 13
7598 1516 1717 94
7599 1516 3552 19
7600 1516 107 88
7601 1517 2840 46
7602 1517 1304 77
7603 1517 2833 65
7604 1517 1449 30
7605 1517 3952 28
7606 1518 1081 92
7607 1518 3563 73
7608 1518 3650 88
7609 1518 2770 73
7610 1519 2119 10
7611 1519 3878 76
7612 1519 110 63
7613 1519 2841 93
7614 1520 1745 86
7615 1520 129 75
7616 1520 2103 28
7617 1520 3440 54
7618 1520 2633 65
7619 1520 2954 54
7620 1520 3146 35
7621 1521 1705 21
7622 1521 1575 16
7623 1521 2816 41
7624 1521 3599 9
7625 1521 3017 11
7626 1522 3797 94
7627 1522 52 18
7628 1522 855 91
7629 1522 316 51
7630 1522 2753 9
7631 1523 1604 1
7632 1523 2852 76
7633 1523 614 94
7634 1524 901 9
7635 1524 524 93
7636 1524 900 18
7637 1525 437 68
7638 1525 1130 92
7639 1525 1417 20
7640 1525 648 62
7641 1526 1692 63
7642 1526 2387 41
7643 1526 474 49
7644 1527 3872 85
7645 1527 3900 45
7646 1527 2036 25
7647 1527 652 78
7648 1527 1102 73
7649 1527 3765 72
7650 1527 3256 90
7651 1528 1390 28
7652 1528 1273 63
7653 1528 443 55
7654 1528 50 92
7655 1528 2386 81
7656 1528 2743 81
7657 1529 3694 60
7658 1529 1836 30
7659 1529 2993 21
7660 1529 3702 54
7661 1529 3453 97
7662 1529 40 40
7663 1530 277 21
7664 1530 3712 56
7665 1530 3576 85
7666 1530 1340 54
7667 1530 3990 99
7668 1530 3095 58
7669 1530 1696 57
7670 1530 902 28
7671 1530 3934 4
7672 1531 77 12
7673 1531 3041 34
7674 1532 1715 18
7675 1532 2399 26
7676 1532 3079 44
7677 1532 1371 85
7678 1532 592 18
7679 1532 778 63
7680 1532 3536 87
7681 1532 3923 79
7682 1533 3000 87
7683 1533 1973 35
7684 1533 3229 31
7685 1534 1119 37
7686 1534 2483 5
7687 1534 3385 59
7688 1535 2868 10
7689 1535 3945 90
7690 1535 855 95
7691 1536 3894 96
7692 1536 1375 52
7693 1536 3126 19
7694 1536 1579 99
7695 1537 2013 93
7696 1537 533 63
7697 1537 1086 52
7698 1538 2103 56
7699 1538 2702 34
7700 1538 409 62
7701 1538 3243 68
7702 1538 361 92
7703 1539 1589 90
7704 1539 2887 40
7705 1539 494 67
7706 1539 349 56
7707 1539 684 4
7708 1539 2966 83
7709 1540 181 41
7710 1540 1394 50
7711 1540 911 33
7712 1541 3261 16
7713 1541 1960 30
7714 1541 3034 11
7715 1541 2521 91
7716 1541 312 3
7717 1542 2451 52
7718 1542 2460 52
7719 1542 1758 51
7720 1543 3802 100
7721 1543 3858 6
7722 1543 1387 93
7723 1543 1182 20
7724 1543 3832 79
7725 1543 3219 90
7726 1544 3547 64
7727 1544 1999 19
7728 1544 737 79
7729 1544 2973 39
7730 1544 3442 43
7731 1544 2622 16
7732 1544 3361 26
7733 1544 2219 94
7734 1544 981 46
7735 1544 451 53
7736 1545 1321 1
7737 1545 811 77
7738 1545 309 76
7739 1546 139 7
7740 1546 1772 10
7741 1546 1745 85
7742 1546 2750 34
7743 1546 1701 67
7744 1547 60 2
7745 1547 1255 52
7746 1547 2424 71
7747 1547 1214 10
7748 1547 1300 8
7749 1548 869 55
7750 1548 3872 81
7751 1548 997 44
7752 1548 2264 76
7753 1548 779 96
7754 1549 343 47
7755 1549 1876 88
7756 1549 1125 1
7757 1549 129 27
7758 1549 1572 83
7759 1550 2844 52
7760 1550 1662 28
7761 1550 1267 88
7762 1550 1952 19
7763 1550 2225 56
7764 1550 3842 22
7765 1551 3085 30
7766 1551 1434 61
7767 1551 2173 42
7768 1551 1427 3
7769 1551 2991 43
7770 1551 2656 95
7771 1551 1178 81
7772 1551 2809 38
7773 1552 211 27
7774 1552 3450 20
7775 1552 1302 24
7776 1552 3318 93
7777 1553 2755 54
7778 1553 2605 2
7779 1553 1529 21
7780 1553 1769 62
7781 1553 3778 72
7782 1554 1756 36
7783 1554 1635 50
7784 1554 671 90
7785 1554 2940 24
7786 1555 3486 37
7787 1555 1993 8
7788 1555 561 49
7789 1555 3472 89
7790 1555 1654 67
7791 1555 2954 27
7792 1555 1720 58
7793 1555 1147 43
7794 1555 1444 77
7795 1555 3249 96
7796 1555 798 34
7797 1556 2008 92
7798 1556 1028 46
7799 1557 697 68
7800 1557 1850 62
7801 1557 3825 90
7802 1557 311 7
7803 1557 1566 19
7804 1558 3431 28
7805 1558 545 97
7806 1558 462 3
7807 1558 2778 61
7808 1558 3364 82
7809 1559 197 9
7810 1559 943 6
7811 1559 2026 96
7812 1559 2227 43
7813 1560 1409 49
7814 1560 2340 40
7815 1560 3494 6
7816 1560 3401 95
7817 1561 727 3
7818 1561 1370 53
7819 1561 3306 58
7820 1561 596 40
7821 1561 3780 14
7822 1561 1053 48
7823 1561 55 68
7824 1561 1554 50
7825 1562 3482 64
7826 1562 2639 79
7827 1562 3639 41
7828 1562 2198 87
7829 1563 3789 17
7830 1563 1751 37
7831 1563 1978 93
7832 1563 2371 3
7833 1564 1827 82
7834 1564 3427 69
7835 1564 818 64
7836 1564 1989 90
7837 1565 3599 35
7838 1566 1345 13
7839 1566 2639 41
7840 1566 1923 97
7841 1566 1501 84
7842 1566 1618 83
7843 1566 1344 48
7844 1566 1363 3
7845 1566 341 59
7846 1567 227 43
7847 1567 2300 63
7848 1567 1166 54
7849 1567 3354 34
7850 1567 3390 40
7851 1567 2039 74
7852 1567 2927 49
7853 1568 1963 81
7854 1568 662 32
7855 1568 1258 100
7856 1568 3331 74
7857 1568 2003 24
7858 1568 1068 13
7859 1569 1257 39
7860 1569 2087 72
7861 1569 3517 16
7862 1569 951 73
7863 1570 633 51
7864 1570 3207 40
7865 1570 3138 22
7866 1570 1501 36
7867 1571 3123 92
7868 1571 2920 8
7869 1571 2390 37
7870 1571 3204 99
7871 1571 2248 26
7872 1571 3924 52
7873 1571 3329 47
7874 1572 922 38
7875 1572 1287 96
7876 1572 3973 42
7877 1572 3052 11
7878 1572 1538 76
7879 1572 794 10
7880 1572 9 92
7881 1573 1445 55
7882 1573 3591 7
7883 1573 1596 7
7884 1573 3510 82
7885 1574 720 23
7886 1574 3823 91
7887 1575 1852 18
7888 1575 2550 20
7889 1575 336 55
7890 1576 592 88
7891 1576 1385 43
7892 1576 3631 92
7893 1576 510 55
7894 1576 1179 64
7895 1576 3070 77
7896 1576 2909 80
7897 1576 3796 21
7898 1576 2871 54
7899 1576 917 49
7900 1576 2294 18
7901 1577 2164 39
7902 1577 2650 30
7903 1577 3164 36
7904 1577 2827 92
7905 1577 661 94
7906 1577 2988 96
7907 1577 1274 13
7908 1578 1865 60
7909 1578 343 70
7910 1578 3068 85
7911 1579 868 9
7912 1579 2509 39
7913 1579 780 67
7914 1579 3856 87
7915 1580 3505 95
7916 1580 139 6
7917 1580 3523 69
7918 1581 497 79
7919 1581 2242 91
7920 1581 3241 50
7921 1582 1461 47
7922 1582 1137 94
7923 1582 327 84
7924 1582 994 72
7925 1582 307 49
7926 1582 2440 14
7927 1582 1332 39
7928 1582 3120 53
7929 1582 1425 79
7930 1583 1709 20
7931 1583 3632 85
7932 1583 918 15
7933 1583 269 89
7934 1583 1505 10
7935 1584 1994 75
7936 1584 279 29
7937 1584 1191 88
7938 1584 1492 49
7939 1584 1026 69
7940 1584 1482 60
7941 1584 1745 97
7942 1585 3550 47
7943 1585 1700 62
7944 1585 1758 36
7945 1585 2350 12
7946 1585 145 22
7947 1586 3596 23
7948 1586 46 92
7949 1586 2757 66
7950 1586 3201 61
7951 1586 2633 55
7952 1586 1109 63
7953 1586 1799 2
7954 1586 2411 87
7955 1586 3266 33
7956 1587 30 35
7957 1587 337 40
7958 1587 590 61
7959 1587 1708 10
7960 1587 1992 69
7961 1587 3374 50
7962 1587 2370 73
7963 1587 1840 38
7964 1587 1494 85
7965 1588 563 9
7966 1588 1813 30
7967 1588 2546 78
7968 1588 205 7
7969 1588 580 33
7970 1589 2523 5
7971 1589 2195 70
7972 1589 2070 7
7973 1589 3502 65
7974 1589 2374 53
7975 1590 1013 18
7976 1590 3295 92
7977 1590 2100 94
7978 1590 3729 67
7979 1590 929 98
7980 1590 43 92
7981 1590 3800 30
7982 1590 3507 41
7983 1590 2817 94
7984 1591 210 90
7985 1591 2307 42
7986 1591 3120 82
7987 1592 175 62
7988 1592 2317 13
7989 1592 624 37
7990 1592 482 24
7991 1592 1252 60
7992 1592 701 5
7993 1592 3407 76
7994 1593 1105 28
7995 1593 278 11
7996 1593 1698 77
7997 1593 2509 11
7998 1593 2115 94
7999 1593 1408 24
8000 1593 107 91
8001 1594 602 9
8002 1594 1602 20
8003 1594 3273 43
8004 1594 108 84
8005 1595 1321 75
8006 1595 2601 43
8007 1595 1434 30
8008 1595 1308 43
8009 1595 2852 28
8010 1596 3337 81
8011 1596 2951 18
8012 1596 2001 93
8013 1596 1963 37
8014 1596 1718 16
8015 1596 1642 22
8016 1596 3600 55
8017 1597 1792 54
8018 1597 2459 52
8019 1597 832 90
8020 1598 564 23
8021 1598 2607 85
8022 1598 1734 6
8023 1598 1123 55
8024 1598 2140 72
8025 1599 1631 42
8026 1599 820 51
8027 1599 2855 53
8028 1599 1294 98
8029 1599 1648 98
8030 1599 1168 6
8031 1600 1111 97
8032 1600 2163 79
8033 1600 531 1
8034 1600 3818 91
8035 1600 798 20
8036 1601 3678 66
8037 1601 790 71
8038 1601 520 43
8039 1601 261 39
8040 1601 2314 9
8041 1602 747 9
8042 1602 1601 10
8043 1602 3693 92
8044 1602 2086 16
8045 1603 1683 82
8046 1603 685 17
8047 1603 3551 4
8048 1603 1862 12
8049 1603 1384 46
8050 1604 410 5
8051 1604 3948 20
8052 1604 220 49
8053 1604 3946 12
8054 1604 2521 43
8055 1604 3615 48
8056 1605 3631 33
8057 1605 2285 93
8058 1605 598 20
8059 1605 693 60
8060 1605 1391 89
8061 1605 2866 58
8062 1606 850 86
8063 1606 1007 12
8064 1606 665 83
8065 1606 1715 35
8066 1607 197 9
8067 1607 3449 7
8068 1607 3482 40
8069 1607 2533 46
8070 1607 2130 18
8071 1607 27 67
8072 1607 2877 69
8073 1607 146 61
8074 1607 3880 53
8075 1608 3903 38
8076 1608 1695 94
8077 1608 2000 56
8078 1608 2061 65
8079 1609 2998 66
8080 1609 2667 3
8081 1609 1964 80
8082 1609 2120 4
8083 1609 3755 91
8084 1610 3216 88
8085 1610 705 33
8086 1610 2935 80
8087 1610 1253 89
8088 1610 778 42
8089 1610 985 20
8090 1610 131 49
8091 1610 3493 4
8092 1611 514 43
8093 1611 332 91
8094 1611 2009 14
8095 1611 294 95
8096 1612 2057 95
8097 1612 3945 65
8098 1612 3440 48
8099 1612 146 38
8100 1613 1220 94
8101 1613 3368 95
8102 1613 3735 50
8103 1613 3051 36
8104 1614 1746 13
8105 1614 3762 26
8106 1615 242 63
8107 1615 3365 19
8108 1615 2913 99
8109 1616 3908 72
8110 1616 1385 14
8111 1616 3975 14
8112 1616 3123 17
8113 1616 1472 22
8114 1617 1485 27
8115 1617 2476 10
8116 1618 489 39
8117 1618 224 34
8118 1619 1209 72
8119 1619 3152 69
8120 1619 3440 52
8121 1620 1814 30
8122 1620 1601 54
8123 1620 2620 55
8124 1620 158 65
8125 1620 1778 5
8126 1621 2292 23
8127 1622 3583 78
8128 1622 2965 41
8129 1622 862 48
8130 1622 1332 35
8131 1623 2096 70
8132 1623 3335 44
8133 1623 1606 97
8134 1623 3711 73
8135 1623 2246 91
8136 1624 3876 96
8137 1624 299 99
8138 1624 552 82
8139 1624 472 77
8140 1624 3319 58
8141 1624 25 43
8142 1625 1529 24
8143 1625 3553 53
8144 1625 2705 45
8145 1625 2684 98
8146 1625 162 63
8147 1625 1447 5
8148 1625 1896 8
8149 1625 3831 45
8150 1626 2123 53
8151 1626 2734 18
8152 1626 2317 68
8153 1626 2692 90
8154 1626 2297 38
8155 1626 3866 37
8156 1626 1998 25
8157 1626 823 19
8158 1626 425 80
8159 1627 2473 83
8160 1627 3544 5
8161 1627 624 91
8162 1627 39 70
8163 1627 1668 12
8164 1627 1616 91
8165 1627 2697 12
8166 1627 3303 55
8167 1627 3796 6
8168 1628 2674 92
8169 1628 132 77
8170 1628 1927 53
8171 1629 2281 23
8172 1629 1304 79
8173 1629 1323 88
8174 1629 445 32
8175 1629 1466 73
8176 1629 1741 93
8177 1629 3836 42
8178 1629 53 94
8179 1629 2839 96
8180 1630 498 82
8181 1630 1137 56
8182 1630 163 12
8183 1630 1500 25
8184 1630 1736 49
8185 1630 975 12
8186 1630 2864 42
8187 1631 1561 14
8188 1631 286 2
8189 1631 119 99
8190 1631 761 1
8191 1632 2938 27
8192 1632 2138 64
8193 1632 1999 34
8194 1632 3177 81
8195 1632 3975 82
8196 1633 128 74
8197 1633 1288 88
8198 1633 2553 19
8199 1634 2248 16
8200 1634 710 20
8201 1634 382 2
8202 1634 1558 80
8203 1635 3783 54
8204 1635 979 79
8205 1635 2689 66
8206 1636 2967 100
8207 1636 485 50
8208 1636 1363 5
8209 1637 2610 7
8210 1637 806 89
8211 1637 3995 92
8212 1638 533 64
8213 1638 2682 60
8214 1638 501 88
8215 1638 940 42
8216 1638 284 58
8217 1639 3086 12
8218 1639 3248 47
8219 1639 1993 47
8220 1639 797 43
8221 1639 2698 50
8222 1639 3173 18
8223 1639 1308 89
8224 1640 1632 25
8225 1640 816 74
8226 1640 2908 88
8227 1641 3542 37
8228 1641 42 64
8229 1641 2372 54
8230 1641 2511 40
8231 1641 3661 53
8232 1641 1745 91
8233 1641 2296 79
8234 1642 3460 9
8235 1642 148 95
8236 1643 385 37
8237 1643 237 44
8238 1644 873 59
8239 1644 2014 66
8240 1644 2526 48
8241 1644 3257 80
8242 1644 761 90
8243 1645 982 85
8244 1645 1569 94
8245 1645 3947 1
8246 1646 1932 75
8247 1646 1861 44
8248 1646 2310 16
8249 1646 2278 78
8250 1646 149 93
8251 1647 3820 71
8252 1647 3303 4
8253 1647 1288 76
8254 1647 50 41
8255 1647 2235 77
8256 1648 2982 80
8257 1648 1624 99
8258 1648 913 8
8259 1648 1070 46
8260 1648 2506 49
8261 1648 3006 3
8262 1649 761 28
8263 1649 2052 17
8264 1649 12 50
8265 1650 217 52
8266 1650 146 98
8267 1650 2751 18
8268 1650 778 94
8269 1650 3475 89
8270 1650 3538 44
8271 1650 46 94
8272 1650 3438 13
8273 1651 93 8
8274 1651 2175 30
8275 1651 86 13
8276 1651 1685 47
8277 1651 3218 32
8278 1651 3206 4
8279 1652 2614 66
8280 1652 1261 60
8281 1652 718 5
8282 1653 54 31
8283 1653 2340 30
8284 1653 3812 1
8285 1653 3572 21
8286 1653 625 36
8287 1653 1598 53
8288 1653 1470 62
8289 1654 3058 62
8290 1654 892 54
8291 1654 2986 86
8292 1654 1490 80
8293 1654 3566 96
8294 1654 2527 54
8295 1654 3887 71
8296 1654 1932 84
8297 1654 1810 72
8298 1655 3946 58
8299 1655 1803 94
8300 1655 2063 1
8301 1655 82 55
8302 1656 2022 38
8303 1656 1648 12
8304 1656 3250 8
8305 1656 2335 66
8306 1656 2934 7
8307 1656 3772 80
8308 1656 3066 85
8309 1657 734 9
8310 1657 3815 1
8311 1657 27 61
8312 1657 3512 84
8313 1657 2715 20
8314 1657 287 73
8315 1657 1886 79
8316 1658 3990 94
8317 1658 3266 56
8318 1658 39 64
8319 1658 2671 22
8320 1658 3297 23
8321 1658 2959 37
8322 1659 2625 99
8323 1659 1746 68
8324 1659 1533 44
8325 1659 1452 45
8326 1659 3138 15
8327 1660 3132 44
8328 1660 2892 81
8329 1661 1263 58
8330 1661 3665 5
8331 1661 2710 26
8332 1661 2565 34
8333 1661 1787 26
8334 1661 1802 37
8335 1662 3587 74
8336 1662 3047 12
8337 1662 171 57
8338 1662 251 10
8339 1662 889 85
8340 1662 690 7
8341 1663 2533 7
8342 1663 3069 30
8343 1663 1596 84
8344 1663 1618 81
8345 1663 139 44
8346 1663 775 64
8347 1663 3261 81
8348 1664 2994 6
8349 1664 3665 43
8350 1664 379 69
8351 1664 3590 30
8352 1664 2078 84
8353 1664 3511 29
8354 1664 1387 83
8355 1665 2529 40
8356 1666 2613 76
8357 1667 2867 36
8358 1667 2748 32
8359 1667 2273 81
8360 1667 277 63
8361 1667 803 37
8362 1667 1312 63
8363 1667 793 48
8364 1667 1409 8
8365 1667 1531 55
8366 1667 825 27
8367 1667 2895 52
8368 1668 103 72
8369 1668 436 44
8370 1668 1120 27
8371 1668 2283 73
8372 1668 108 80
8373 1668 1783 89
8374 1669 2282 24
8375 1669 159 65
8376 1669 3184 52
8377 1669 3421 93
8378 1669 1141 27
8379 1670 3404 49
8380 1670 1509 75
8381 1670 112 84
8382 1671 3301 88
8383 1671 210 30
8384 1671 3598 33
8385 1671 2371 87
8386 1671 3010 11
8387 1671 3790 9
8388 1672 2714 47
8389 1672 3943 18
8390 1672 2179 46
8391 1672 3029 54
8392 1672 2482 35
8393 1672 2265 13
8394 1673 1780 84
8395 1673 1628 52
8396 1673 2403 46
8397 1673 832 7
8398 1673 1210 56
8399 1673 3042 38
8400 1674 887 28
8401 1674 181 91
8402 1674 3089 30
8403 1674 2854 4
8404 1675 160 45
8405 1675 2245 38
8406 1675 388 8
8407 1675 3768 97
8408 1676 1381 93
8409 1676 2388 52
8410 1676 2451 73
8411 1676 3477 55
8412 1676 2697 48
8413 1676 750 13
8414 1677 758 36
8415 1677 3980 66
8416 1677 216 19
8417 1678 2733 50
8418 1679 1845 72
8419 1679 531 23
8420 1679 1409 59
8421 1680 2230 19
8422 1681 596 44
8423 1681 2716 53
8424 1682 752 98
8425 1682 2072 32
8426 1682 3839 80
8427 1682 1663 32
8428 1683 1704 5
8429 1683 853 8
8430 1683 3073 75
8431 1683 3797 82
8432 1683 2932 19
8433 1683 2012 88
8434 1683 2971 20
8435 1684 1863 36
8436 1684 2782 100
8437 1684 3331 10
8438 1684 1158 12
8439 1684 1292 61
8440 1685 3322 61
8441 1685 537 16
8442 1685 2148 48
8443 1685 3088 46
8444 1685 2374 91
8445 1685 1429 25
8446 1685 3540 55
8447 1686 823 63
8448 1686 1131 31
8449 1686 1045 15
8450 1686 482 91
8451 1686 1573 62
8452 1687 261 38
8453 1687 945 21
8454 1687 1241 9
8455 1687 2928 14
8456 1688 3659 44
8457 1688 2427 17
8458 1688 2771 14
8459 1688 3155 99
8460 1689 3529 89
8461 1689 1815 75
8462 1689 1044 81
8463 1689 2782 21
8464 1689 3046 56
8465 1689 204 96
8466 1690 813 77
8467 1690 2577 31
8468 1690 2060 54
8469 1690 905 1
8470 1690 1447 74
8471 1691 2925 76
8472 1691 2574 64
8473 1691 2036 6
8474 1691 2869 61
8475 1691 3263 25
8476 1692 2062 79
8477 1692 3181 80
8478 1692 1498 48
8479 1692 3252 47
8480 1692 1334 13
8481 1692 625 30
8482 1693 3188 12
8483 1693 2283 4
8484 1694 378 31
8485 1694 3741 81
8486 1694 2283 73
8487 1694 2569 69
8488 1694 1861 55
8489 1694 1383 99
8490 1695 3438 70
8491 1695 1386 67
8492 1695 2162 99
8493 1695 2094 55
8494 1695 301 25
8495 1695 2143 43
8496 1695 1415 77
8497 1695 466 38
8498 1696 399 13
8499 1696 1759 19
8500 1696 3558 29
8501 1696 2598 2
8502 1696 1184 86
8503 1696 1908 61
8504 1696 3824 46
8505 1696 1477 49
8506 1696 1746 98
8507 1697 2210 58
8508 1697 3495 39
8509 1697 895 41
8510 1697 406 32
8511 1697 2501 60
8512 1697 3493 93
8513 1697 2022 63
8514 1697 545 5
8515 1698 2223 78
8516 1698 325 51
8517 1698 1896 33
8518 1698 727 20
8519 1698 3730 18
8520 1699 3897 47
8521 1699 393 53
8522 1699 1219 27
8523 1699 1382 66
8524 1699 3722 100
8525 1699 3454 47
8526 1699 1037 9
8527 1699 358 56
8528 1700 2712 4
8529 1700 8 26
8530 1700 3867 15
8531 1700 3651 20
8532 1700 1539 9
8533 1701 3551 100
8534 1701 2029 80
8535 1701 3607 11
8536 1701 1841 39
8537 1701 2546 34
8538 1702 3687 17
8539 1702 2112 95
8540 1702 1336 25
8541 1702 1551 70
8542 1702 2934 11
8543 1703 316 40
8544 1703 3431 43
8545 1703 3463 36
8546 1703 1323 8
8547 1703 1598 32
8548 1703 854 18
8549 1704 2563 62
8550 1704 982 92
8551 1704 3284 35
8552 1704 3384 14
8553 1705 3686 44
8554 1705 1298 33
8555 1705 73 56
8556 1705 3712 33
8557 1705 3531 24
8558 1705 2684 20
8559 1706 870 47
8560 1706 1235 48
8561 1706 3036 73
8562 1706 274 18
8563 1708 1375 18
8564 1708 3017 64
8565 1708 1616 10
8566 1708 2729 80
8567 1710 2918 24
8568 1710 1023 81
8569 1710 1794 2
8570 1710 3534 61
8571 1710 2442 39
8572 1710 3823 36
8573 1710 112 11
8574 1710 2667 86
8575 1711 610 14
8576 1711 269 38
8577 1711 268 87
8578 1711 1892 67
8579 1711 2985 50
8580 1712 3431 21
8581 1712 588 78
8582 1712 429 86
8583 1712 3352 92
8584 1712 2087 63
8585 1712 3967 66
8586 1712 1635 25
8587 1713 24 17
8588 1713 1982 82
8589 1713 1198 65
8590 1713 1387 37
8591 1713 3103 42
8592 1713 3478 25
8593 1713 1700 67
8594 1713 1384 15
8595 1714 3900 97
8596 1714 1179 22
8597 1714 2660 98
8598 1714 403 74
8599 1715 1765 95
8600 1716 3023 16
8601 1716 2981 81
8602 1717 3290 56
8603 1717 1081 56
8604 1717 2591 8
8605 1717 192 35
8606 1717 2109 90
8607 1717 3187 2
8608 1717 567 89
8609 1718 644 99
8610 1718 1279 97
8611 1718 5 4
8612 1718 2735 95
8613 1718 2935 75
8614 1719 1983 72
8615 1719 524 75
8616 1719 81 29
8617 1719 2863 95
8618 1719 427 55
8619 1719 2154 70
8620 1719 286 94
8621 1719 3782 58
8622 1720 1934 6
8623 1720 3207 9
8624 1721 1124 61
8625 1721 3874 19
8626 1722 3080 10
8627 1722 3690 48
8628 1722 3719 89
8629 1722 3893 12
8630 1722 1014 69
8631 1722 2382 34
8632 1723 2260 83
8633 1723 1031 60
8634 1723 753 97
8635 1723 2707 37
8636 1723 2100 34
8637 1723 242 6
8638 1723 2564 8
8639 1723 1601 8
8640 1724 1659 41
8641 1724 3350 33
8642 1724 320 88
8643 1724 1430 32
8644 1724 3807 83
8645 1725 540 12
8646 1725 2612 86
8647 1726 2666 21
8648 1726 3436 17
8649 1726 2378 21
8650 1727 791 92
8651 1727 1931 54
8652 1727 3131 39
8653 1727 3325 75
8654 1727 1375 24
8655 1728 247 29
8656 1728 726 20
8657 1728 3806 57
8658 1728 2395 22
8659 1729 1480 39
8660 1729 3471 82
8661 1729 804 40
8662 1730 3713 100
8663 1730 1530 88
8664 1730 2945 82
8665 1730 3066 86
8666 1730 1669 46
8667 1730 2240 5
8668 1730 590 29
8669 1730 1498 65
8670 1731 3906 74
8671 1731 3301 27
8672 1731 2009 39
8673 1731 3626 62
8674 1731 2060 55
8675 1732 3069 84
8676 1732 1924 36
8677 1732 1268 80
8678 1732 1251 75
8679 1732 1682 42
8680 1733 2669 24
8681 1733 3178 91
8682 1734 2347 25
8683 1734 1421 20
8684 1734 728 41
8685 1735 2230 26
8686 1735 1456 94
8687 1735 1802 61
8688 1735 3484 61
8689 1735 3678 83
8690 1735 526 38
8691 1735 966 100
8692 1735 3438 24
8693 1735 3609 21
8694 1735 3073 82
8695 1736 2564 53
8696 1736 1509 98
8697 1736 3173 57
8698 1737 3341 9
8699 1737 1260 49
8700 1737 2339 37
8701 1737 2111 71
8702 1737 1048 33
8703 1738 1899 31
8704 1738 3350 98
8705 1738 2030 45
8706 1738 3219 16
8707 1738 646 37
8708 1738 2850 46
8709 1738 1578 37
8710 1738 343 93
8711 1739 716 87
8712 1739 3870 52
8713 1739 3732 18
8714 1739 509 50
8715 1739 1568 6
8716 1739 3943 42
8717 1740 551 44
8718 1740 2725 30
8719 1740 2250 65
8720 1740 1752 47
8721 1741 1745 46
8722 1741 422 45
8723 1741 803 70
8724 1742 1076 65
8725 1742 1397 44
8726 1742 3406 74
8727 1742 3668 76
8728 1742 2254 13
8729 1743 2343 94
8730 1743 3571 82
8731 1743 267 68
8732 1743 3267 73
8733 1743 3717 98
8734 1744 3849 8
8735 1744 3920 29
8736 1744 322 35
8737 1744 3460 61
8738 1744 2913 59
8739 1744 688 88
8740 1744 2287 33
8741 1745 2018 36
8742 1745 1828 96
8743 1745 1661 79
8744 1745 1915 74
8745 1745 3486 45
8746 1746 3346 72
8747 1746 3795 43
8748 1746 3445 28
8749 1746 3154 91
8750 1746 3487 78
8751 1746 2575 98
8752 1747 2056 99
8753 1747 829 14
8754 1747 3567 16
8755 1747 1473 97
8756 1747 182 9
8757 1747 335 29
8758 1747 3277 7
8759 1747 2511 69
8760 1747 1669 27
8761 1747 1434 19
8762 1748 1832 95
8763 1749 1068 11
8764 1749 1289 24
8765 1749 3457 14
8766 1750 1404 99
8767 1750 2471 55
8768 1750 3994 13
8769 1750 2711 98
8770 1750 2492 83
8771 1750 2559 58
8772 1751 1433 54
8773 1751 2249 18
8774 1751 1991 46
8775 1751 3465 12
8776 1751 3196 98
8777 1752 3772 74
8778 1752 3590 59
8779 1752 52 27
8780 1752 3069 87
8781 1752 1831 13
8782 1752 3919 82
8783 1752 2866 4
8784 1752 741 19
8785 1752 952 82
8786 1752 1922 85
8787 1753 35 77
8788 1753 1350 67
8789 1753 2196 82
8790 1753 166 32
8791 1753 3033 28
8792 1753 827 13
8793 1754 3726 19
8794 1754 3743 56
8795 1755 3885 42
8796 1755 3031 19
8797 1755 2761 84
8798 1755 9 65
8799 1755 1479 13
8800 1755 3721 1
8801 1756 504 8
8802 1756 3990 57
8803 1756 3845 37
8804 1756 3401 98
8805 1756 2732 79
8806 1757 3983 70
8807 1757 2255 71
8808 1757 2495 85
8809 1757 1711 84
8810 1757 3717 69
8811 1758 3606 62
8812 1758 1810 10
8813 1758 1259 2
8814 1758 3629 46
8815 1758 3566 33
8816 1758 1678 67
8817 1759 3062 38
8818 1759 1164 5
8819 1759 3190 36
8820 1759 479 32
8821 1759 2381 72
8822 1759 1780 7
8823 1760 1606 8
8824 1760 513 70
8825 1760 2086 49
8826 1761 695 53
8827 1761 667 53
8828 1761 1762 43
8829 1762 1594 67
8830 1762 1448 84
8831 1762 2138 10
8832 1762 831 41
8833 1763 253 27
8834 1763 2723 80
8835 1763 1822 32
8836 1763 1044 49
8837 1763 1936 20
8838 1763 675 19
8839 1764 1218 31
8840 1764 355 99
8841 1764 724 31
8842 1764 2610 79
8843 1764 445 27
8844 1764 2466 50
8845 1764 1246 36
8846 1765 2759 100
8847 1765 3801 55
8848 1765 3716 74
8849 1765 465 45
8850 1766 320 35
8851 1766 448 73
8852 1766 1663 88
8853 1766 3235 40
8854 1766 86 56
8855 1767 2289 47
8856 1767 3517 90
8857 1767 428 73
8858 1767 3949 19
8859 1767 1964 2
8860 1767 959 47
8861 1768 3275 39
8862 1768 2954 67
8863 1768 686 72
8864 1768 2985 68
8865 1768 891 47
8866 1768 3488 7
8867 1769 970 60
8868 1769 3415 28
8869 1769 3794 20
8870 1770 1453 48
8871 1770 2785 60
8872 1770 3005 77
8873 1770 268 12
8874 1770 3332 53
8875 1770 680 24
8876 1770 3395 85
8877 1770 441 83
8878 1771 1741 80
8879 1771 56 88
8880 1771 2335 8
8881 1771 2465 62
8882 1771 943 62
8883 1771 2060 22
8884 1771 3831 54
8885 1772 2800 78
8886 1772 2647 17
8887 1772 1827 47
8888 1772 3425 24
8889 1772 3314 27
8890 1772 1363 17
8891 1772 819 6
8892 1772 343 78
8893 1773 1630 79
8894 1774 1122 84
8895 1774 1125 52
8896 1774 341 54
8897 1774 1097 19
8898 1775 1752 58
8899 1775 3470 18
8900 1775 40 44
8901 1775 2561 5
8902 1775 963 63
8903 1775 3190 2
8904 1775 1476 9
8905 1775 2084 18
8906 1775 1961 99
8907 1775 3854 5
8908 1776 454 2
8909 1776 3683 71
8910 1776 1681 37
8911 1776 633 6
8912 1776 3070 61
8913 1777 309 47
8914 1777 3234 67
8915 1777 3418 66
8916 1777 3105 21
8917 1778 3297 17
8918 1778 1596 19
8919 1778 217 62
8920 1778 3745 17
8921 1779 3008 87
8922 1779 459 40
8923 1779 2054 66
8924 1779 3523 42
8925 1780 3423 76
8926 1780 1868 79
8927 1780 2288 29
8928 1780 3926 9
8929 1780 3997 64
8930 1780 1577 66
8931 1780 403 43
8932 1780 1222 65
8933 1780 3301 61
8934 1780 464 65
8935 1781 1795 85
8936 1781 3630 62
8937 1781 2112 27
8938 1781 1791 35
8939 1781 2199 7
8940 1782 2160 45
8941 1782 2512 30
8942 1782 563 70
8943 1783 1337 51
8944 1783 3804 62
8945 1783 1797 89
8946 1783 2448 52
8947 1784 1066 57
8948 1784 190 59
8949 1784 2469 2
8950 1784 2876 87
8951 1784 916 25
8952 1784 3516 62
8953 1785 1773 81
8954 1785 2131 25
8955 1786 3005 57
8956 1786 395 73
8957 1787 2523 52
8958 1787 1380 61
8959 1788 1702 19
8960 1788 3200 72
8961 1788 712 6
8962 1788 287 26
8963 1788 2717 53
8964 1789 420 57
8965 1789 2945 16
8966 1789 2050 91
8967 1789 3422 74
8968 1789 1710 74
8969 1789 1737 74
8970 1789 3018 33
8971 1789 2433 88
8972 1789 3415 52
8973 1789 689 95
8974 1790 1708 48
8975 1790 679 5
8976 1790 2502 12
8977 1790 1519 24
8978 1790 2616 25
8979 1790 3248 44
8980 1791 3662 62
8981 1791 2815 68
8982 1792 3636 19
8983 1792 600 23
8984 1792 1596 26
8985 1792 3999 82
8986 1792 657 79
8987 1793 3840 35
8988 1793 1084 79
8989 1793 549 95
8990 1793 3439 60
8991 1793 3344 5
8992 1793 2875 70
8993 1793 774 29
8994 1793 900 40
8995 1793 2640 7
8996 1794 3682 56
8997 1794 2952 20
8998 1794 2248 49
8999 1794 137 19
9000 1794 2446 80
9001 1794 1868 48
9002 1794 2734 87
9003 1795 2937 30
9004 1795 1390 51
9005 1795 3600 40
9006 1796 685 40
9007 1796 406 10
9008 1796 594 35
9009 1796 2451 69
9010 1796 1888 61
9011 1796 656 63
9012 1797 437 57
9013 1797 2028 82
9014 1797 228 38
9015 1797 3334 44
9016 1797 2787 73
9017 1798 2290 94
9018 1798 3298 73
9019 1798 2139 36
9020 1798 3359 16
9021 1798 578 65
9022 1798 3101 69
9023 1798 3738 30
9024 1799 1057 49
9025 1800 820 66
9026 1800 1210 97
9027 1800 3009 93
9028 1800 1064 1
9029 1800 3944 70
9030 1800 3527 75
9031 1801 2173 68
9032 1801 3236 68
9033 1801 507 91
9034 1801 1897 96
9035 1801 2125 8
9036 1802 2433 76
9037 1802 2289 98
9038 1803 1634 25
9039 1803 2408 22
9040 1803 1173 3
9041 1803 1950 57
9042 1804 2133 77
9043 1804 1572 50
9044 1804 100 37
9045 1804 3501 38
9046 1804 2022 93
9047 1805 1266 68
9048 1805 1681 98
9049 1805 3642 9
9050 1805 1909 61
9051 1806 2475 46
9052 1806 396 46
9053 1806 3013 17
9054 1806 3338 43
9055 1807 3702 91
9056 1807 1051 30
9057 1807 3022 77
9058 1807 1231 9
9059 1807 1357 81
9060 1807 3297 24
9061 1807 3294 98
9062 1808 1782 45
9063 1808 2855 42
9064 1808 2488 18
9065 1808 2215 42
9066 1808 707 4
9067 1808 2760 4
9068 1809 2095 98
9069 1809 2731 25
9070 1810 2858 7
9071 1810 2629 70
9072 1810 2115 74
9073 1810 450 89
9074 1810 3080 60
9075 1811 1839 26
9076 1811 2289 94
9077 1811 3992 61
9078 1811 51 53
9079 1811 2718 7
9080 1811 3443 85
9081 1811 3984 23
9082 1812 678 61
9083 1812 2237 67
9084 1812 2006 61
9085 1812 1927 8
9086 1812 2071 26
9087 1812 2072 32
9088 1812 1106 18
9089 1813 1607 15
9090 1813 1737 83
9091 1813 563 44
9092 1814 1554 65
9093 1814 3765 99
9094 1814 1353 27
9095 1814 712 81
9096 1814 1434 52
9097 1815 831 27
9098 1815 2082 6
9099 1815 376 26
9100 1815 415 91
9101 1815 14 80
9102 1816 2528 17
9103 1816 951 66
9104 1816 511 45
9105 1816 3808 68
9106 1817 835 95
9107 1817 3611 55
9108 1817 1308 60
9109 1817 3090 35
9110 1817 393 29
9111 1818 2591 81
9112 1818 1575 50
9113 1818 541 3
9114 1819 2613 38
9115 1819 2496 65
9116 1819 1153 88
9117 1819 3303 80
9118 1819 858 68
9119 1820 1331 67
9120 1820 1218 31
9121 1820 2536 31
9122 1821 2546 51
9123 1821 3150 18
9124 1821 3180 95
9125 1822 1065 71
9126 1822 2240 88
9127 1822 3853 84
9128 1822 2276 15
9129 1823 2146 57
9130 1823 438 94
9131 1823 2167 41
9132 1823 3311 1
9133 1823 3270 56
9134 1824 10 6
9135 1824 2252 89
9136 1824 250 76
9137 1824 1899 38
9138 1824 1170 92
9139 1825 2123 60
9140 1825 1723 9
9141 1825 2014 69
9142 1825 722 66
9143 1825 2699 67
9144 1826 2351 2
9145 1826 1717 87
9146 1826 610 86
9147 1826 2568 50
9148 1827 3161 87
9149 1827 2468 80
9150 1827 2131 83
9151 1827 2573 89
9152 1827 1315 45
9153 1828 276 10
9154 1828 1255 30
9155 1828 3490 11
9156 1828 1259 75
9157 1828 1316 16
9158 1828 3551 99
9159 1828 2634 36
9160 1828 3838 21
9161 1828 2724 73
9162 1829 3047 53
9163 1829 3855 58
9164 1829 1110 26
9165 1829 2929 100
9166 1829 1007 2
9167 1829 537 58
9168 1830 1038 33
9169 1830 2082 51
9170 1830 1075 71
9171 1830 3122 94
9172 1830 477 50
9173 1830 1421 95
9174 1830 2794 27
9175 1831 3429 69
9176 1831 2894 49
9177 1831 2141 38
9178 1831 3192 50
9179 1832 1423 10
9180 1832 407 8
9181 1832 861 96
9182 1832 2091 59
9183 1832 451 71
9184 1832 710 89
9185 1832 3414 97
9186 1833 1100 13
9187 1833 307 22
9188 1833 2825 58
9189 1833 3720 59
9190 1834 2828 77
9191 1834 1428 33
9192 1834 1820 80
9193 1834 2330 16
9194 1834 2776 61
9195 1835 2647 55
9196 1835 1338 42
9197 1835 2147 41
9198 1836 1782 66
9199 1836 3703 79
9200 1836 1528 71
9201 1836 2910 66
9202 1836 1185 17
9203 1836 2495 29
9204 1837 2230 77
9205 1837 1684 9
9206 1837 2787 53
9207 1838 3988 92
9208 1838 3737 19
9209 1838 3911 62
9210 1838 1479 5
9211 1838 2352 38
9212 1838 1022 80
9213 1838 213 13
9214 1838 253 37
9215 1838 639 83
9216 1838 248 16
9217 1839 3450 67
9218 1839 2817 98
9219 1839 2515 47
9220 1839 3103 54
9221 1840 3060 17
9222 1840 1474 31
9223 1840 2551 31
9224 1840 3016 27
9225 1840 1893 69
9226 1841 2444 87
9227 1841 925 31
9228 1841 3679 15
9229 1841 3945 52
9230 1842 2211 64
9231 1842 1812 23
9232 1842 2850 75
9233 1842 2180 7
9234 1842 2059 5
9235 1842 2935 31
9236 1842 3251 58
9237 1843 1725 18
9238 1843 2508 88
9239 1843 310 40
9240 1844 650 83
9241 1844 3464 63
9242 1844 3913 8
9243 1844 2730 95
9244 1844 455 85
9245 1844 816 75
9246 1844 3808 85
9247 1845 3496 33
9248 1845 3542 16
9249 1845 3099 93
9250 1845 3698 79
9251 1845 113 46
9252 1845 3138 12
9253 1846 3023 26
9254 1846 2119 7
9255 1846 1610 63
9256 1847 1472 39
9257 1847 3550 42
9258 1847 1341 47
9259 1847 3979 19
9260 1847 1307 77
9261 1847 2539 5
9262 1848 3893 82
9263 1848 3413 2
9264 1849 3731 26
9265 1849 1344 45
9266 1849 2627 79
9267 1850 3430 22
9268 1850 3856 82
9269 1850 1116 3
9270 1850 3116 47
9271 1850 3550 62
9272 1850 2161 83
9273 1850 1496 5
9274 1850 1252 71
9275 1850 3849 26
9276 1851 3697 75
9277 1851 3369 88
9278 1851 1868 17
9279 1851 2725 85
9280 1851 325 20
9281 1851 2841 54
9282 1852 3479 31
9283 1852 1284 93
9284 1852 3685 1
9285 1852 555 27
9286 1852 3250 7
9287 1852 3956 64
9288 1852 1404 65
9289 1853 3899 97
9290 1853 124 30
9291 1853 3283 81
9292 1853 227 64
9293 1853 3770 9
9294 1853 2084 83
9295 1853 2986 53
9296 1854 564 34
9297 1854 2793 19
9298 1854 3233 94
9299 1854 2899 78
9300 1854 160 36
9301 1854 1533 100
9302 1855 534 94
9303 1855 1972 52
9304 1855 3991 13
9305 1855 863 19
9306 1855 389 81
9307 1855 2760 46
9308 1855 3566 83
9309 1855 2361 63
9310 1855 2799 79
9311 1855 1120 69
9312 1856 2164 85
9313 1856 239 85
9314 1856 3655 16
9315 1856 3326 89
9316 1856 2930 22
9317 1856 3127 25
9318 1857 685 25
9319 1857 3389 16
9320 1857 1159 88
9321 1857 2415 54
9322 1857 351 4
9323 1858 610 26
9324 1858 2917 7
9325 1858 167 70
9326 1859 2357 92
9327 1859 454 79
9328 1859 705 77
9329 1859 2213 24
9330 1859 2543 87
9331 1859 1181 97
9332 1859 3960 87
9333 1859 2760 48
9334 1859 3614 52
9335 1860 895 31
9336 1860 3929 87
9337 1860 119 11
9338 1860 288 12
9339 1860 1048 38
9340 1861 3097 3
9341 1861 2360 22
9342 1861 2758 94
9343 1861 3451 13
9344 1861 806 45
9345 1862 3256 27
9346 1862 2374 7
9347 1863 800 66
9348 1863 1013 2
9349 1863 3100 37
9350 1863 3569 8
9351 1863 3228 21
9352 1864 3742 59
9353 1864 731 53
9354 1865 1606 10
9355 1866 212 60
9356 1866 2251 63
9357 1866 3801 70
9358 1866 351 13
9359 1866 1336 22
9360 1866 2242 89
9361 1867 419 66
9362 1867 859 76
9363 1867 3060 32
9364 1867 2883 32
9365 1868 1339 17
9366 1868 792 29
9367 1868 2198 36
9368 1868 317 48
9369 1868 3401 33
9370 1868 2588 18
9371 1868 3296 85
9372 1869 11 19
9373 1869 2945 98
9374 1869 583 94
9375 1869 23 27
9376 1869 2450 86
9377 1869 3806 85
9378 1869 2451 11
9379 1869 1627 96
9380 1870 2151 62
9381 1870 1020 88
9382 1870 2608 64
9383 1870 1724 67
9384 1870 361 15
9385 1870 3959 50
9386 1870 1139 23
9387 1871 1973 15
9388 1871 3035 94
9389 1871 750 36
9390 1871 925 21
9391 1872 1424 61
9392 1872 3439 54
9393 1872 1796 47
9394 1873 891 84
9395 1873 689 56
9396 1873 1021 44
9397 1873 1253 57
9398 1873 3689 3
9399 1873 259 62
9400 1873 768 55
9401 1873 2361 20
9402 1874 255 9
9403 1874 663 89
9404 1874 3816 33
9405 1874 2464 16
9406 1874 389 53
9407 1874 1303 28
9408 1874 3560 41
9409 1874 2659 8
9410 1875 3751 87
9411 1875 2887 18
9412 1875 3288 9
9413 1875 1514 37
9414 1876 1361 24
9415 1876 218 11
9416 1876 3458 3
9417 1876 2235 49
9418 1876 3737 84
9419 1876 3757 16
9420 1876 2344 16
9421 1876 1421 34
9422 1876 3125 9
9423 1876 2698 6
9424 1877 3326 96
9425 1877 2375 50
9426 1877 3787 37
9427 1877 640 42
9428 1877 1455 44
9429 1878 478 65
9430 1878 1252 24
9431 1878 1555 1
9432 1878 493 4
9433 1878 172 88
9434 1879 2079 74
9435 1879 3880 33
9436 1879 705 97
9437 1879 1391 9
9438 1879 2207 89
9439 1879 1368 17
9440 1880 3208 35
9441 1880 2811 33
9442 1880 3968 46
9443 1880 284 16
9444 1880 559 49
9445 1881 1819 13
9446 1881 3164 77
9447 1881 936 40
9448 1881 1299 53
9449 1881 2936 43
9450 1882 2568 32
9451 1882 921 60
9452 1882 1109 1
9453 1882 119 80
9454 1882 490 20
9455 1882 3573 28
9456 1883 3552 96
9457 1884 1528 66
9458 1884 3388 86
9459 1884 1259 61
9460 1884 2147 78
9461 1884 1117 67
9462 1884 1508 31
9463 1884 2301 24
9464 1884 362 81
9465 1884 3451 29
9466 1884 122 22
9467 1884 1633 97
9468 1885 3836 95
9469 1885 2160 32
9470 1885 2497 92
9471 1885 3175 49
9472 1885 2947 57
9473 1886 3707 57
9474 1886 1518 4
9475 1886 3285 77
9476 1886 3969 71
9477 1887 3689 73
9478 1887 1390 48
9479 1888 1353 27
9480 1888 3012 39
9481 1889 3122 19
9482 1889 1110 46
9483 1889 2206 89
9484 1889 2600 100
9485 1889 700 9
9486 1889 2119 64
9487 1889 2480 8
9488 1889 1168 16
9489 1889 298 25
9490 1889 916 91
9491 1890 622 41
9492 1890 2204 65
9493 1891 2559 69
9494 1891 1765 12
9495 1892 2455 87
9496 1892 3789 21
9497 1892 2936 16
9498 1892 95 48
9499 1892 3585 48
9500 1893 1733 98
9501 1893 3913 45
9502 1893 1162 18
9503 1893 469 34
9504 1894 1021 72
9505 1894 3451 74
9506 1894 395 80
9507 1894 2495 32
9508 1894 651 1
9509 1894 935 97
9510 1894 2998 65
9511 1894 2170 61
9512 1895 900 16
9513 1895 1309 27
9514 1896 3356 2
9515 1896 2965 98
9516 1896 2876 14
9517 1896 3476 52
9518 1896 3019 12
9519 1896 2577 72
9520 1896 2935 67
9521 1896 2420 4
9522 1897 663 40
9523 1897 2816 99
9524 1897 2165 97
9525 1897 1861 9
9526 1897 1865 14
9527 1898 252 90
9528 1898 2019 24
9529 1898 575 9
9530 1898 2687 85
9531 1899 630 17
9532 1899 586 50
9533 1900 1288 16
9534 1900 231 7
9535 1900 2453 76
9536 1900 1079 86
9537 1900 89 90
9538 1901 2047 82
9539 1901 1325 1
9540 1901 2644 55
9541 1901 957 89
9542 1901 2086 16
9543 1901 3025 7
9544 1902 287 91
9545 1902 1801 18
9546 1903 1782 93
9547 1903 1554 74
9548 1903 1352 100
9549 1903 455 50
9550 1903 1978 61
9551 1903 1153 35
9552 1903 3745 54
9553 1904 2612 91
9554 1904 1611 77
9555 1904 162 61
9556 1904 3883 57
9557 1904 2042 66
9558 1905 3803 4
9559 1905 2241 25
9560 1905 2869 37
9561 1905 486 74
9562 1906 3429 25
9563 1906 424 14
9564 1906 2022 56
9565 1906 3464 30
9566 1907 2056 93
9567 1907 3376 77
9568 1907 1159 28
9569 1907 2241 90
9570 1907 979 39
9571 1908 588 70
9572 1909 2825 31
9573 1909 3680 47
9574 1909 1676 47
9575 1909 57 57
9576 1909 218 40
9577 1909 3648 74
9578 1910 1636 4
9579 1910 2891 70
9580 1910 2870 44
9581 1910 1040 57
9582 1910 3474 39
9583 1911 2805 63
9584 1911 1195 11
9585 1911 2699 63
9586 1911 3881 57
9587 1911 2616 14
9588 1912 2154 41
9589 1912 1624 43
9590 1912 819 53
9591 1912 2811 38
9592 1913 2398 67
9593 1913 1045 74
9594 1913 353 89
9595 1914 164 49
9596 1914 2833 33
9597 1914 840 31
9598 1914 1550 20
9599 1914 84 20
9600 1914 1678 92
9601 1914 298 34
9602 1915 14 100
9603 1915 3163 51
9604 1915 361 76
9605 1916 2319 50
9606 1916 1891 30
9607 1916 1284 14
9608 1916 2663 69
9609 1917 3639 82
9610 1917 2404 13
9611 1917 3225 42
9612 1917 2506 69
9613 1918 3143 77
9614 1918 1780 79
9615 1918 1270 54
9616 1918 632 1
9617 1919 3615 76
9618 1919 2099 79
9619 1919 1807 26
9620 1919 3402 91
9621 1919 1289 83
9622 1920 205 81
9623 1920 2334 21
9624 1920 870 50
9625 1920 1334 26
9626 1920 2571 33
9627 1920 739 26
9628 1921 2206 7
9629 1921 471 77
9630 1921 1182 20
9631 1921 3694 56
9632 1921 2355 21
9633 1921 2446 3
9634 1922 1814 37
9635 1922 3432 66
9636 1922 3129 18
9637 1922 841 33
9638 1922 3828 3
9639 1922 2846 15
9640 1923 3615 45
9641 1924 3971 19
9642 1924 3529 9
9643 1924 2373 58
9644 1925 3789 99
9645 1925 535 27
9646 1925 3536 70
9647 1925 2190 15
9648 1925 3430 7
9649 1926 1527 9
9650 1926 3578 85
9651 1926 1198 67
9652 1926 3142 79
9653 1926 3778 57
9654 1927 2467 31
9655 1927 1481 95
9656 1927 801 27
9657 1927 629 89
9658 1927 2898 81
9659 1927 2191 24
9660 1928 3288 37
9661 1928 848 62
9662 1928 2038 13
9663 1928 2523 44
9664 1928 704 85
9665 1928 3134 21
9666 1928 104 44
9667 1928 3172 72
9668 1928 2228 75
9669 1928 658 79
9670 1929 3497 78
9671 1929 3120 90
9672 1929 2734 91
9673 1929 3007 52
9674 1929 1757 99
9675 1929 1924 61
9676 1929 931 30
9677 1930 173 79
9678 1930 2580 8
9679 1930 453 25
9680 1931 844 14
9681 1931 3526 97
9682 1932 1150 50
9683 1932 3344 73
9684 1932 2659 58
9685 1933 654 100
9686 1933 3897 23
9687 1933 2675 67
9688 1933 1971 14
9689 1933 2937 70
9690 1933 201 100
9691 1934 1433 100
9692 1934 631 66
9693 1934 145 48
9694 1934 2319 83
9695 1934 576 69
9696 1934 292 33
9697 1934 3413 5
9698 1934 2212 59
9699 1934 1211 31
9700 1935 857 38
9701 1935 747 30
9702 1935 1383 11
9703 1935 2891 74
9704 1936 3630 3
9705 1936 2417 88
9706 1936 1792 71
9707 1936 2418 46
9708 1936 1859 81
9709 1936 2101 58
9710 1936 2281 90
9711 1937 2822 28
9712 1937 456 36
9713 1937 2350 51
9714 1937 2365 80
9715 1937 3253 97
9716 1938 2267 67
9717 1938 2596 91
9718 1938 1490 56
9719 1938 1824 91
9720 1939 1598 60
9721 1939 224 44
9722 1939 3109 88
9723 1939 2671 71
9724 1939 1433 77
9725 1939 2628 61
9726 1939 3667 8
9727 1939 3914 12
9728 1940 2566 43
9729 1940 3007 92
9730 1940 674 89
9731 1940 3201 94
9732 1940 923 37
9733 1941 2754 20
9734 1941 2077 86
9735 1941 831 18
9736 1941 2438 85
9737 1941 933 81
9738 1941 6 64
9739 1941 2048 6
9740 1942 211 80
9741 1942 96 93
9742 1942 952 48
9743 1943 3625 48
9744 1943 1063 61
9745 1944 1593 59
9746 1944 1900 84
9747 1944 300 21
9748 1944 768 5
9749 1944 435 7
9750 1944 2182 93
9751 1944 984 42
9752 1944 3984 89
9753 1944 2623 30
9754 1944 3064 54
9755 1944 799 100
9756 1944 864 71
9757 1945 3237 68
9758 1945 3626 93
9759 1945 1309 100
9760 1945 962 77
9761 1945 2329 7
9762 1945 691 71
9763 1945 3406 74
9764 1945 2109 56
9765 1945 740 35
9766 1946 977 29
9767 1946 1785 41
9768 1946 1196 92
9769 1947 759 97
9770 1947 2599 32
9771 1947 3798 70
9772 1947 1434 23
9773 1948 1299 5
9774 1948 3036 14
9775 1948 885 70
9776 1948 321 61
9777 1948 286 63
9778 1948 2287 53
9779 1948 3135 58
9780 1949 675 90
9781 1949 840 11
9782 1950 3659 21
9783 1950 3275 74
9784 1950 553 35
9785 1951 1790 84
9786 1951 6 33
9787 1951 2856 94
9788 1952 3005 10
9789 1952 1964 9
9790 1952 3788 48
9791 1952 3710 29
9792 1952 1518 81
9793 1952 1468 1
9794 1952 332 79
9795 1952 620 14
9796 1952 2618 20
9797 1952 61 90
9798 1953 589 64
9799 1953 3109 93
9800 1953 528 8
9801 1953 3453 57
9802 1953 1422 25
9803 1953 2207 50
9804 1953 3960 52
9805 1953 850 23
9806 1954 840 7
9807 1954 1660 53
9808 1954 2225 83
9809 1955 1712 99
9810 1955 3956 20
9811 1956 964 64
9812 1956 1960 17
9813 1956 1541 34
9814 1957 141 36
9815 1957 3585 59
9816 1958 998 2
9817 1958 2743 73
9818 1958 2832 75
9819 1958 97 98
9820 1958 2903 55
9821 1958 307 61
9822 1958 59 34
9823 1959 1627 47
9824 1959 3409 2
9825 1959 3955 59
9826 1959 3959 9
9827 1959 2470 56
9828 1959 2648 19
9829 1959 2688 30
9830 1961 456 76
9831 1961 860 20
9832 1961 269 46
9833 1961 435 18
9834 1961 3983 56
9835 1961 2675 87
9836 1962 3185 45
9837 1962 2578 87
9838 1962 1984 47
9839 1962 2448 43
9840 1963 567 89
9841 1963 3623 81
9842 1963 945 57
9843 1963 3449 44
9844 1963 1444 57
9845 1964 1984 53
9846 1964 1540 86
9847 1964 3795 66
9848 1964 3726 16
9849 1964 2220 15
9850 1964 1213 21
9851 1965 2225 1
9852 1965 1988 5
9853 1965 3298 46
9854 1965 453 54
9855 1966 48 42
9856 1966 1053 88
9857 1966 1548 41
9858 1966 7 45
9859 1966 2059 32
9860 1966 3140 7
9861 1966 3556 96
9862 1967 2559 86
9863 1967 1227 33
9864 1967 2296 3
9865 1967 1880 62
9866 1967 1839 93
9867 1967 3029 36
9868 1967 3203 26
9869 1967 3209 81
9870 1967 3079 77
9871 1967 3064 27
9872 1967 665 68
9873 1967 1046 59
9874 1968 2172 21
9875 1968 3099 85
9876 1969 615 58
9877 1969 2199 2
9878 1969 927 61
9879 1969 1517 84
9880 1969 1054 47
9881 1969 770 78
9882 1970 3323 92
9883 1970 949 28
9884 1970 2151 30
9885 1970 1182 46
9886 1970 3574 80
9887 1970 325 84
9888 1971 3754 23
9889 1971 2102 37
9890 1971 3939 22
9891 1972 1463 25
9892 1972 3628 72
9893 1972 3754 39
9894 1972 1709 33
9895 1973 1663 71
9896 1973 1596 17
9897 1973 2850 32
9898 1973 2993 89
9899 1973 3263 20
9900 1974 2470 70
9901 1974 18 76
9902 1974 3480 2
9903 1974 1984 13
9904 1975 859 96
9905 1975 274 61
9906 1975 737 9
9907 1975 3322 5
9908 1975 165 51
9909 1975 340 26
9910 1975 290 63
9911 1975 3568 68
9912 1975 876 10
9913 1975 3879 89
9914 1976 3127 16
9915 1976 1141 70
9916 1976 2802 56
9917 1977 2916 67
9918 1977 1303 76
9919 1977 1488 32
9920 1977 2088 70
9921 1978 2167 28
9922 1978 99 75
9923 1978 1064 88
9924 1979 1975 91
9925 1979 3909 94
9926 1979 3491 44
9927 1979 3317 99
9928 1980 271 34
9929 1980 886 25
9930 1980 3336 36
9931 1980 445 81
9932 1981 1107 43
9933 1981 3174 99
9934 1982 812 64
9935 1982 3028 89
9936 1982 2888 89
9937 1982 2530 10
9938 1983 3509 18
9939 1983 3258 72
9940 1983 2553 37
9941 1984 3676 8
9942 1984 1588 28
9943 1984 114 98
9944 1984 499 65
9945 1985 2486 34
9946 1985 1259 97
9947 1985 1703 8
9948 1985 3280 48
9949 1985 2202 71
9950 1985 2831 68
9951 1985 2780 60
9952 1985 1371 1
9953 1986 190 33
9954 1986 802 79
9955 1986 1981 95
9956 1986 1843 12
9957 1986 2415 73
9958 1986 334 26
9959 1986 2130 15
9960 1986 2632 71
9961 1986 2255 84
9962 1987 2190 60
9963 1987 2606 29
9964 1987 1000 17
9965 1987 537 30
9966 1987 3884 95
9967 1987 2791 25
9968 1987 2478 42
9969 1987 2796 14
9970 1987 1631 73
9971 1988 792 43
9972 1988 503 7
9973 1989 2343 79
9974 1989 1865 54
9975 1989 1398 18
9976 1989 2350 25
9977 1990 2041 32
9978 1990 902 40
9979 1990 486 35
9980 1990 1437 4
9981 1990 1149 87
9982 1990 1460 47
9983 1990 275 96
9984 1991 3015 94
9985 1991 329 73
9986 1991 3169 98
9987 1991 2298 96
9988 1991 3187 96
9989 1991 1038 93
9990 1992 2408 86
9991 1992 2854 32
9992 1992 3578 71
9993 1992 1475 94
9994 1992 1962 79
9995 1992 898 70
9996 1993 2213 31
9997 1993 259 32
9998 1993 1807 26
9999 1994 3636 27
10000 1994 1703 58
10001 1994 1256 87
10002 1995 593 67
10003 1995 1736 63
10004 1995 3189 27
10005 1995 728 86
10006 1996 3317 85
10007 1996 2334 30
10008 1996 3380 42
10009 1996 2045 96
10010 1996 996 68
10011 1996 3044 8
10012 1997 2018 42
10013 1997 238 71
10014 1997 367 21
10015 1997 3730 79
10016 1997 2835 81
10017 1997 694 75
10018 1997 906 68
10019 1997 3737 78
10020 1998 1542 89
10021 1998 3337 44
10022 1999 537 73
10023 1999 770 96
10024 1999 3335 65
10025 1999 922 9
10026 1999 2604 37
10027 1999 2718 67
10028 1999 610 69
10029 1999 11 2
10030 2000 3726 42
10031 2000 2914 79
10032 2000 2323 43
10033 2000 3088 9
10034 2001 2682 45
10035 2001 1920 44
10036 2001 518 53
10037 2001 32 63
10038 2001 1021 36
10039 2002 898 52
10040 2002 1217 39
10041 2002 2501 18
10042 2003 3096 24
10043 2003 3816 60
10044 2003 2271 26
10045 2003 229 7
10046 2003 1930 5
10047 2004 2161 54
10048 2004 1904 31
10049 2004 2608 51
10050 2004 1076 38
10051 2004 861 60
10052 2004 716 5
10053 2005 3842 36
10054 2005 3058 68
10055 2005 948 62
10056 2006 3544 8
10057 2006 421 38
10058 2006 1855 18
10059 2006 817 68
10060 2007 3534 81
10061 2007 841 6
10062 2007 172 35
10063 2007 2216 86
10064 2007 1225 70
10065 2007 2635 79
10066 2007 694 14
10067 2007 951 78
10068 2008 3232 19
10069 2008 2801 80
10070 2008 1670 38
10071 2008 1776 81
10072 2008 304 35
10073 2008 3317 57
10074 2008 2771 55
10075 2009 1058 28
10076 2009 2669 26
10077 2009 973 82
10078 2009 2243 85
10079 2009 2592 59
10080 2009 3091 63
10081 2009 3387 99
10082 2010 3374 78
10083 2010 808 74
10084 2010 574 31
10085 2010 1543 66
10086 2010 3887 3
10087 2010 151 33
10088 2011 164 100
10089 2011 3310 58
10090 2011 222 6
10091 2011 1523 15
10092 2011 1918 32
10093 2012 153 2
10094 2012 3718 26
10095 2012 2938 59
10096 2012 618 56
10097 2012 2435 2
10098 2012 1795 35
10099 2012 3570 76
10100 2013 2024 14
10101 2013 1949 76
10102 2013 3085 13
10103 2013 1410 95
10104 2013 2623 64
10105 2013 1387 77
10106 2014 1515 73
10107 2014 1651 60
10108 2014 1732 3
10109 2014 3166 43
10110 2015 1971 59
10111 2015 320 75
10112 2015 3581 87
10113 2015 642 58
10114 2015 816 28
10115 2015 2764 13
10116 2016 1209 3
10117 2016 2768 65
10118 2016 566 7
10119 2016 3285 94
10120 2016 2120 23
10121 2016 1503 63
10122 2016 3326 96
10123 2017 2210 9
10124 2017 2743 30
10125 2017 232 55
10126 2017 3713 22
10127 2018 850 24
10128 2019 3823 41
10129 2019 1268 48
10130 2019 1343 63
10131 2019 2613 67
10132 2019 1459 37
10133 2019 1934 10
10134 2019 520 73
10135 2020 2690 2
10136 2020 12 32
10137 2020 2137 20
10138 2020 1147 17
10139 2021 249 18
10140 2021 171 10
10141 2021 1843 15
10142 2021 831 29
10143 2021 704 90
10144 2021 193 65
10145 2021 960 66
10146 2022 1165 55
10147 2022 1658 79
10148 2022 37 83
10149 2022 2309 96
10150 2022 1397 9
10151 2022 3812 72
10152 2023 3922 52
10153 2023 2232 56
10154 2023 1232 4
10155 2023 2608 61
10156 2024 2294 2
10157 2024 3598 79
10158 2024 481 40
10159 2024 2904 11
10160 2024 2845 89
10161 2025 2292 97
10162 2025 3473 75
10163 2025 1955 42
10164 2025 234 64
10165 2026 381 21
10166 2026 481 99
10167 2026 418 33
10168 2027 1349 12
10169 2027 778 53
10170 2027 3545 72
10171 2027 556 44
10172 2027 588 95
10173 2027 430 65
10174 2027 3005 85
10175 2028 585 82
10176 2028 1739 33
10177 2028 154 45
10178 2028 808 90
10179 2028 3386 27
10180 2028 3346 93
10181 2029 2194 50
10182 2029 3842 73
10183 2029 459 66
10184 2029 511 85
10185 2030 3566 10
10186 2030 66 81
10187 2030 3992 5
10188 2030 3496 45
10189 2030 3655 26
10190 2031 2483 94
10191 2031 3418 40
10192 2031 2052 2
10193 2031 3906 47
10194 2031 1544 29
10195 2032 3463 38
10196 2032 3302 64
10197 2032 1743 37
10198 2032 360 73
10199 2032 0 24
10200 2032 828 82
10201 2032 243 28
10202 2033 3635 6
10203 2033 2623 88
10204 2033 4 70
10205 2033 1110 9
10206 2033 368 99
10207 2034 2673 7
10208 2034 3997 61
10209 2034 819 93
10210 2034 1991 80
10211 2034 2387 75
10212 2034 3736 30
10213 2034 3327 35
10214 2034 810 46
10215 2035 1418 52
10216 2035 1527 46
10217 2035 378 10
10218 2035 98 29
10219 2036 1051 76
10220 2036 291 86
10221 2036 3125 4
10222 2037 1916 61
10223 2037 397 86
10224 2038 1804 22
10225 2038 2165 50
10226 2038 3862 59
10227 2038 876 39
10228 2039 246 85
10229 2039 3229 42
10230 2039 1175 32
10231 2039 914 94
10232 2039 3133 29
10233 2039 1400 79
10234 2039 2037 49
10235 2039 3335 17
10236 2039 2992 41
10237 2040 2870 94
10238 2040 769 74
10239 2040 1950 76
10240 2040 3406 73
10241 2040 3163 11
10242 2040 3334 57
10243 2040 176 71
10244 2040 3858 4
10245 2041 1406 84
10246 2041 2263 92
10247 2041 1492 24
10248 2041 3096 62
10249 2042 3183 13
10250 2042 2026 41
10251 2042 2164 24
10252 2042 1814 18
10253 2042 3371 58
10254 2042 2742 31
10255 2042 2303 62
10256 2042 2874 90
10257 2042 1545 21
10258 2042 3892 94
10259 2043 447 18
10260 2043 2839 53
10261 2043 765 26
10262 2043 3390 98
10263 2043 2587 68
10264 2043 2451 55
10265 2043 1184 15
10266 2043 3136 60
10267 2044 3672 15
10268 2044 1286 49
10269 2044 1393 72
10270 2044 245 9
10271 2044 2557 25
10272 2045 844 97
10273 2046 955 71
10274 2046 2528 25
10275 2046 2627 44
10276 2046 2491 68
10277 2046 790 14
10278 2046 1363 64
10279 2046 90 65
10280 2046 2140 13
10281 2047 317 4
10282 2047 1631 100
10283 2048 1699 46
10284 2048 100 20
10285 2048 1160 39
10286 2048 1656 83
10287 2048 2542 42
10288 2048 3873 2
10289 2049 1242 25
10290 2049 314 41
10291 2049 3879 59
10292 2050 3456 83
10293 2050 2609 69
10294 2050 2678 28
10295 2050 231 47
10296 2051 1953 40
10297 2051 668 23
10298 2051 3461 10
10299 2051 1146 97
10300 2051 484 15
10301 2052 2474 91
10302 2052 1724 26
10303 2052 1821 84
10304 2052 3709 100
10305 2053 3477 81
10306 2053 860 44
10307 2053 3889 61
10308 2053 1236 80
10309 2053 1325 51
10310 2054 3817 12
10311 2054 2706 40
10312 2054 867 34
10313 2054 3281 38
10314 2055 1384 3
10315 2055 2008 8
10316 2055 1877 43
10317 2055 2512 59
10318 2055 323 75
10319 2056 84 73
10320 2056 2775 63
10321 2056 2776 78
10322 2056 3476 71
10323 2056 3668 39
10324 2056 1114 29
10325 2056 2100 11
10326 2057 429 44
10327 2057 2876 22
10328 2057 243 21
10329 2057 1366 63
10330 2057 107 91
10331 2057 2893 80
10332 2057 3631 11
10333 2057 2815 15
10334 2058 639 2
10335 2058 1966 87
10336 2058 3125 60
10337 2058 3188 40
10338 2058 2654 56
10339 2058 1495 45
10340 2058 2975 44
10341 2058 1160 6
10342 2059 518 52
10343 2059 225 48
10344 2059 1216 98
10345 2059 1154 31
10346 2059 1795 2
10347 2059 3729 23
10348 2060 3561 84
10349 2060 3382 1
10350 2060 928 4
10351 2060 837 55
10352 2060 1234 69
10353 2061 2548 96
10354 2061 1987 52
10355 2061 1813 45
10356 2062 3804 84
10357 2062 2916 21
10358 2062 2651 25
10359 2063 1350 21
10360 2063 2706 7
10361 2063 2018 39
10362 2063 349 18
10363 2064 769 3
10364 2064 1765 83
10365 2064 2005 37
10366 2065 2789 21
10367 2065 2816 19
10368 2065 79 36
10369 2065 3589 60
10370 2065 827 2
10371 2065 2853 34
10372 2065 3672 21
10373 2066 2082 67
10374 2067 627 38
10375 2067 3175 65
10376 2067 1372 41
10377 2068 957 7
10378 2068 1235 10
10379 2068 3168 26
10380 2068 58 52
10381 2068 3397 62
10382 2068 1259 18
10383 2068 1806 38
10384 2068 275 44
10385 2068 2104 3
10386 2069 203 72
10387 2069 92 79
10388 2069 3049 31
10389 2069 2360 19
10390 2070 1172 93
10391 2070 801 7
10392 2070 1776 3
10393 2070 2485 68
10394 2070 3392 41
10395 2071 1711 95
10396 2071 3627 89
10397 2071 3332 71
10398 2071 2879 88
10399 2072 1428 57
10400 2072 3818 42
10401 2072 754 19
10402 2072 2426 9
10403 2072 153 73
10404 2072 425 29
10405 2072 1251 21
10406 2072 2482 50
10407 2073 2482 78
10408 2073 705 39
10409 2073 2475 36
10410 2073 3789 85
10411 2073 3012 49
10412 2073 3005 40
10413 2073 3572 29
10414 2073 2089 13
10415 2073 1143 3
10416 2073 2259 17
10417 2074 1997 76
10418 2074 3825 15
10419 2074 3356 95
10420 2074 2014 18
10421 2075 3898 4
10422 2075 1162 73
10423 2075 2320 63
10424 2075 2360 56
10425 2075 1185 84
10426 2075 3679 44
10427 2075 281 67
10428 2076 1163 28
10429 2076 2704 81
10430 2076 3745 46
10431 2076 1528 64
10432 2076 671 15
10433 2076 2585 83
10434 2076 875 90
10435 2077 459 61
10436 2077 1115 67
10437 2077 2560 98
10438 2077 900 55
10439 2078 1498 18
10440 2078 107 2
10441 2078 3743 67
10442 2078 1785 95
10443 2078 3543 77
10444 2078 2267 23
10445 2078 1921 59
10446 2079 669 75
10447 2079 1831 74
10448 2079 1449 64
10449 2079 3324 79
10450 2079 1537 25
10451 2079 2425 33
10452 2079 2696 72
10453 2080 3173 28
10454 2080 676 23
10455 2080 3356 73
10456 2081 1865 33
10457 2081 3885 67
10458 2081 2041 3
10459 2081 2655 64
10460 2081 3983 34
10461 2081 2938 19
10462 2082 1531 52
10463 2082 3712 65
10464 2082 3608 80
10465 2082 2896 2
10466 2083 1172 16
10467 2083 2864 58
10468 2083 1379 46
10469 2083 1393 8
10470 2083 3852 13
10471 2083 3238 60
10472 2083 1931 62
10473 2084 290 45
10474 2084 356 36
10475 2084 3062 58
10476 2084 2467 45
10477 2084 3706 5
10478 2084 3805 29
10479 2084 3966 83
10480 2084 1638 10
10481 2085 1518 54
10482 2085 1975 81
10483 2085 1059 89
10484 2085 3201 97
10485 2086 2853 66
10486 2086 1352 16
10487 2086 667 46
10488 2086 585 59
10489 2087 581 25
10490 2087 1430 55
10491 2087 3863 55
10492 2087 2479 40
10493 2087 758 93
10494 2088 1040 2
10495 2088 1032 86
10496 2088 1862 78
10497 2088 1987 95
10498 2089 3603 54
10499 2089 3096 72
10500 2089 2225 1
10501 2089 2425 15
10502 2089 1706 23
10503 2089 434 4
10504 2089 3442 3
10505 2089 3796 27
10506 2090 346 73
10507 2090 2111 3
10508 2090 3053 68
10509 2090 947 84
10510 2090 422 16
10511 2091 2182 90
10512 2091 2831 77
10513 2091 705 59
10514 2091 1216 94
10515 2091 1595 8
10516 2091 3022 86
10517 2092 322 40
10518 2092 2935 57
10519 2092 3236 52
10520 2092 877 44
10521 2092 2187 80
10522 2092 1756 43
10523 2092 3151 38
10524 2093 112 37
10525 2093 2712 5
10526 2093 1206 72
10527 2093 1184 70
10528 2093 707 72
10529 2093 2599 65
10530 2093 1329 43
10531 2093 493 2
10532 2094 896 26
10533 2094 2212 63
10534 2094 893 21
10535 2094 878 9
10536 2094 3379 74
10537 2094 2020 27
10538 2095 618 4
10539 2095 3097 40
10540 2095 342 12
10541 2095 2703 72
10542 2095 3398 3
10543 2095 683 67
10544 2096 885 84
10545 2096 2846 39
10546 2096 986 72
10547 2096 432 17
10548 2096 638 76
10549 2097 1348 99
10550 2097 919 53
10551 2097 440 3
10552 2097 2140 92
10553 2097 292 92
10554 2097 3505 37
10555 2098 867 54
10556 2098 3056 21
10557 2099 3653 8
10558 2099 2932 71
10559 2099 2968 64
10560 2099 3215 30
10561 2100 2646 71
10562 2100 100 40
10563 2100 1376 29
10564 2101 2637 18
10565 2101 844 22
10566 2102 1145 13
10567 2102 379 47
10568 2102 8 98
10569 2103 1889 51
10570 2103 882 30
10571 2103 2788 38
10572 2103 1999 26
10573 2103 2946 78
10574 2103 1016 92
10575 2103 1432 63
10576 2104 205 54
10577 2104 1909 65
10578 2104 765 19
10579 2104 3924 81
10580 2104 1672 45
10581 2104 13 17
10582 2105 2824 32
10583 2105 3238 65
10584 2105 560 13
10585 2105 324 44
10586 2105 3269 99
10587 2105 2998 37
10588 2105 3726 61
10589 2105 661 40
10590 2106 3365 27
10591 2106 3980 91
10592 2106 3215 22
10593 2106 490 83
10594 2107 1769 78
10595 2107 3676 77
10596 2108 3313 46
10597 2108 1727 42
10598 2108 1286 58
10599 2109 1241 46
10600 2109 3179 41
10601 2109 1047 31
10602 2109 1814 68
10603 2109 3091 30
10604 2109 2174 47
10605 2109 718 4
10606 2109 881 56
10607 2110 1176 45
10608 2110 1889 89
10609 2110 2157 33
10610 2111 2922 10
10611 2111 2660 25
10612 2111 3607 74
10613 2111 2192 4
10614 2112 26 61
10615 2112 2425 82
10616 2112 1725 36
10617 2112 3342 33
10618 2112 3086 32
10619 2112 362 17
10620 2112 2684 74
10621 2112 877 63
10622 2112 446 73
10623 2113 3269 17
10624 2113 1232 89
10625 2113 3986 99
10626 2113 3329 1
10627 2113 472 24
10628 2113 1498 97
10629 2114 2992 18
10630 2114 360 24
10631 2114 3133 16
10632 2114 2137 99
10633 2114 1278 19
10634 2114 2433 31
10635 2114 503 87
10636 2114 466 96
10637 2114 1058 58
10638 2115 432 85
10639 2115 1740 2
10640 2115 1047 85
10641 2115 1086 30
10642 2115 713 20
10643 2115 385 82
10644 2115 834 84
10645 2116 670 89
10646 2116 957 18
10647 2116 714 68
10648 2116 2463 65
10649 2117 1273 69
10650 2117 300 78
10651 2117 3829 93
10652 2117 1650 61
10653 2118 1709 8
10654 2118 3958 87
10655 2118 2245 24
10656 2118 51 87
10657 2119 1318 95
10658 2119 2277 56
10659 2119 203 4
10660 2119 600 8
10661 2119 1569 82
10662 2120 232 46
10663 2120 1221 18
10664 2120 955 8
10665 2120 96 55
10666 2120 1425 98
10667 2120 2995 15
10668 2120 3924 4
10669 2120 3785 97
10670 2121 3622 68
10671 2121 1350 37
10672 2121 169 14
10673 2121 1511 4
10674 2121 1134 50
10675 2121 1043 98
10676 2121 2819 75
10677 2122 652 85
10678 2122 1736 89
10679 2122 428 64
10680 2122 3836 61
10681 2122 3690 88
10682 2122 1896 83
10683 2122 2942 60
10684 2123 990 44
10685 2123 3406 25
10686 2123 2842 18
10687 2123 1510 32
10688 2124 533 71
10689 2124 2950 51
10690 2124 1651 25
10691 2124 3742 86
10692 2125 3560 82
10693 2125 3833 62
10694 2125 2726 61
10695 2125 1809 27
10696 2126 3486 52
10697 2126 1054 94
10698 2126 2168 38
10699 2126 2744 19
10700 2126 3113 15
10701 2126 1624 57
10702 2127 1552 70
10703 2127 987 43
10704 2127 1846 92
10705 2127 1453 85
10706 2127 3670 61
10707 2127 3035 21
10708 2128 1328 22
10709 2128 1359 66
10710 2128 3568 93
10711 2128 3115 86
10712 2128 800 3
10713 2128 274 93
10714 2129 3542 35
10715 2129 1038 91
10716 2129 851 90
10717 2129 1765 29
10718 2130 3049 51
10719 2130 1150 78
10720 2130 2534 12
10721 2130 2331 57
10722 2131 3533 95
10723 2131 2124 38
10724 2132 1366 24
10725 2132 471 95
10726 2132 825 28
10727 2132 1109 71
10728 2132 293 7
10729 2132 1180 98
10730 2133 1832 84
10731 2133 69 69
10732 2133 1912 56
10733 2133 3153 78
10734 2133 1068 12
10735 2134 1863 75
10736 2134 3665 11
10737 2134 2522 67
10738 2134 3722 7
10739 2134 2824 74
10740 2134 3837 69
10741 2134 1086 14
10742 2134 1992 61
10743 2135 1226 39
10744 2135 3163 41
10745 2135 2009 43
10746 2135 2747 90
10747 2135 1952 17
10748 2136 1805 92
10749 2136 476 58
10750 2136 1720 99
10751 2136 1717 41
10752 2137 2745 82
10753 2137 3961 26
10754 2137 3112 64
10755 2138 882 2
10756 2138 2952 4
10757 2138 2103 33
10758 2138 3637 15
10759 2138 3574 5
10760 2138 1085 23
10761 2139 2725 95
10762 2139 933 26
10763 2139 1662 29
10764 2139 2237 50
10765 2139 2821 99
10766 2140 297 21
10767 2140 427 72
10768 2140 3530 49
10769 2140 1120 37
10770 2141 102 11
10771 2141 3343 9
10772 2142 1766 51
10773 2143 181 78
10774 2143 2937 17
10775 2143 2661 63
10776 2143 1600 61
10777 2143 1419 84
10778 2143 2654 7
10779 2143 1405 32
10780 2143 1899 71
10781 2143 2721 77
10782 2143 1881 30
10783 2144 2836 87
10784 2145 3082 93
10785 2145 259 10
10786 2145 3015 86
10787 2145 2641 29
10788 2145 2452 90
10789 2145 2784 85
10790 2145 3394 55
10791 2145 274 84
10792 2145 687 34
10793 2146 311 75
10794 2146 3498 3
10795 2146 2192 32
10796 2146 326 56
10797 2147 3655 92
10798 2147 1112 42
10799 2148 3224 58
10800 2148 1746 10
10801 2148 2065 55
10802 2148 3846 68
10803 2148 1964 67
10804 2148 3894 77
10805 2148 812 63
10806 2148 35 19
10807 2149 906 76
10808 2149 58 84
10809 2149 3045 29
10810 2149 2625 10
10811 2149 206 77
10812 2149 3912 4
10813 2149 3598 10
10814 2149 3528 5
10815 2150 687 11
10816 2150 2834 70
10817 2150 1933 45
10818 2150 1935 46
10819 2150 2483 35
10820 2150 3986 2
10821 2151 2586 48
10822 2151 215 97
10823 2151 1577 63
10824 2151 1133 97
10825 2151 3634 34
10826 2151 494 37
10827 2152 3474 67
10828 2152 1076 63
10829 2152 3164 3
10830 2152 1889 29
10831 2152 2024 72
10832 2153 3147 11
10833 2153 332 89
10834 2153 1187 64
10835 2153 3755 13
10836 2154 2230 62
10837 2154 2641 35
10838 2154 691 62
10839 2154 1955 38
10840 2154 3683 77
10841 2155 3234 3
10842 2155 1164 99
10843 2155 2025 61
10844 2156 3843 79
10845 2156 2917 24
10846 2156 1433 32
10847 2156 2350 19
10848 2157 3993 68
10849 2157 1168 48
10850 2157 3729 26
10851 2157 1317 31
10852 2157 105 62
10853 2157 1606 32
10854 2157 2471 51
10855 2158 1827 19
10856 2159 2979 26
10857 2159 2615 4
10858 2160 2033 89
10859 2160 1684 43
10860 2160 663 98
10861 2160 2959 57
10862 2160 2472 52
10863 2161 1832 20
10864 2161 1912 89
10865 2162 2560 7
10866 2162 1265 90
10867 2162 1342 60
10868 2162 2667 22
10869 2162 264 50
10870 2163 2772 53
10871 2163 2561 78
10872 2163 2806 32
10873 2163 2211 16
10874 2164 566 69
10875 2164 1174 92
10876 2164 2365 47
10877 2165 3044 65
10878 2165 2237 100
10879 2165 2769 44
10880 2165 1709 23
10881 2165 2039 91
10882 2165 3169 84
10883 2165 2227 13
10884 2166 1780 67
10885 2166 859 56
10886 2166 1236 19
10887 2167 3781 48
10888 2167 817 29
10889 2167 144 77
10890 2167 2235 46
10891 2168 2560 50
10892 2168 3021 28
10893 2168 3851 75
10894 2168 612 34
10895 2168 1933 87
10896 2168 573 69
10897 2168 942 63
10898 2168 329 37
10899 2169 2363 24
10900 2169 911 18
10901 2170 2051 33
10902 2170 237 27
10903 2170 23 94
10904 2170 823 38
10905 2170 3441 75
10906 2171 3725 8
10907 2171 253 76
10908 2171 3498 26
10909 2171 686 33
10910 2172 2407 19
10911 2172 824 50
10912 2172 1560 97
10913 2173 2601 99
10914 2173 1867 75
10915 2173 3903 100
10916 2173 3089 21
10917 2173 2421 53
10918 2173 370 29
10919 2174 3686 40
10920 2174 3738 33
10921 2174 1398 39
10922 2174 2946 72
10923 2174 1267 27
10924 2174 826 1
10925 2175 185 33
10926 2175 868 15
10927 2175 2042 3
10928 2175 2091 48
10929 2175 2522 40
10930 2175 1602 44
10931 2175 2404 84
10932 2175 3295 68
10933 2175 3634 79
10934 2175 2875 50
10935 2176 1779 2
10936 2176 870 9
10937 2176 1507 77
10938 2176 1594 29
10939 2176 2954 82
10940 2176 73 59
10941 2177 1340 63
10942 2177 3627 22
10943 2178 3776 71
10944 2178 354 50
10945 2179 885 64
10946 2179 2780 41
10947 2179 461 83
10948 2179 2615 97
10949 2181 37 56
10950 2181 2551 52
10951 2181 2567 95
10952 2181 2904 69
10953 2181 3683 4
10954 2181 295 63
10955 2181 3632 25
10956 2182 2694 40
10957 2182 61 44
10958 2183 1300 90
10959 2183 2949 89
10960 2183 1511 96
10961 2183 801 59
10962 2183 933 16
10963 2183 3914 3
10964 2184 2385 60
10965 2185 2495 14
10966 2185 1013 59
10967 2185 2708 66
10968 2185 2678 3
10969 2186 1338 53
10970 2186 1942 46
10971 2187 1833 42
10972 2187 1010 5
10973 2187 185 23
10974 2187 1681 55
10975 2187 3773 39
10976 2187 861 61
10977 2187 638 18
10978 2187 2962 18
10979 2187 3909 26
10980 2187 383 10
10981 2187 3533 34
10982 2188 2299 53
10983 2188 329 88
10984 2189 1594 38
10985 2189 3848 20
10986 2190 318 6
10987 2190 747 20
10988 2190 1882 2
10989 2190 3822 58
10990 2190 3303 51
10991 2190 2839 46
10992 2190 3320 63
10993 2190 3794 74
10994 2191 1148 56
10995 2191 1020 51
10996 2191 2026 97
10997 2191 1117 59
10998 2191 237 45
10999 2191 1053 67
11000 2191 817 11
11001 2191 1351 89
11002 2192 3334 27
11003 2192 2717 39
11004 2192 581 30
11005 2193 193 99
11006 2193 2914 38
11007 2193 1091 89
11008 2193 1331 35
11009 2193 3623 60
11010 2194 3746 57
11011 2194 3985 95
11012 2194 3623 49
11013 2195 3025 96
11014 2196 1477 22
11015 2196 35 30
11016 2196 1458 51
11017 2196 2989 91
11018 2196 3570 90
11019 2197 2470 73
11020 2197 1121 50
11021 2197 3374 53
11022 2197 742 87
11023 2197 3355 32
11024 2198 2010 58
11025 2198 1222 71
11026 2198 2182 55
11027 2199 1797 16
11028 2199 3820 24
11029 2199 2996 1
11030 2199 3713 34
11031 2200 1935 46
11032 2200 3837 80
11033 2200 1077 64
11034 2200 996 64
11035 2200 1826 100
11036 2200 2755 53
11037 2200 472 62
11038 2201 2152 93
11039 2201 2953 83
11040 2201 3086 33
11041 2201 1428 8
11042 2201 2833 33
11043 2201 3852 80
11044 2201 3520 45
11045 2201 3571 4
11046 2201 1150 51
11047 2201 881 83
11048 2201 2027 77
11049 2201 3246 22
11050 2202 2954 45
11051 2202 2333 11
11052 2202 3091 96
11053 2202 917 78
11054 2202 332 86
11055 2202 2941 16
11056 2203 1861 12
11057 2203 2812 45
11058 2203 3603 85
11059 2203 18 48
11060 2203 629 55
11061 2203 465 44
11062 2203 712 23
11063 2204 2341 79
11064 2204 1313 19
11065 2204 3226 59
11066 2204 2887 86
11067 2204 1691 72
11068 2204 3970 16
11069 2204 2791 81
11070 2204 709 25
11071 2205 1571 52
11072 2205 2387 19
11073 2205 1014 34
11074 2205 550 88
11075 2206 3194 71
11076 2206 248 2
11077 2206 2470 99
11078 2206 2732 91
11079 2207 2015 35
11080 2207 583 56
11081 2207 3523 62
11082 2207 1726 61
11083 2207 631 78
11084 2207 1037 29
11085 2207 3801 26
11086 2207 2495 72
11087 2208 1544 31
11088 2208 3781 75
11089 2209 3074 44
11090 2209 2070 94
11091 2209 218 7
11092 2210 156 20
11093 2210 3829 81
11094 2210 1199 60
11095 2210 3860 72
11096 2210 1187 50
11097 2210 342 85
11098 2210 3611 21
11099 2211 1199 87
11100 2211 1590 50
11101 2211 2229 26
11102 2211 232 87
11103 2211 2502 14
11104 2212 1347 34
11105 2212 3441 12
11106 2212 2743 30
11107 2212 1441 41
11108 2212 1530 96
11109 2213 127 5
11110 2213 968 25
11111 2213 3011 89
11112 2213 3917 78
11113 2214 722 58
11114 2214 1996 68
11115 2214 1474 41
11116 2214 2327 11
11117 2214 178 39
11118 2214 2120 10
11119 2214 1259 23
11120 2214 2099 3
11121 2215 706 9
11122 2215 2671 10
11123 2215 2077 99
11124 2215 1273 75
11125 2215 2528 4
11126 2215 768 50
11127 2215 382 64
11128 2215 147 63
11129 2215 2127 30
11130 2216 652 54
11131 2216 2198 70
11132 2216 1616 41
11133 2216 3041 23
11134 2216 2946 87
11135 2217 921 31
11136 2217 3588 59
11137 2217 2673 99
11138 2217 331 83
11139 2217 3685 40
11140 2217 1147 60
11141 2217 1987 54
11142 2217 3043 16
11143 2218 3951 15
11144 2218 3118 43
11145 2218 358 44
11146 2219 1075 69
11147 2219 2516 94
11148 2219 2402 37
11149 2219 1909 75
11150 2219 3790 86
11151 2219 3250 98
11152 2220 3868 62
11153 2220 3977 99
11154 2220 1342 25
11155 2220 649 65
11156 2221 933 39
11157 2221 256 2
11158 2222 1992 1
11159 2222 570 67
11160 2222 1685 15
11161 2223 2499 10
11162 2223 1819 8
11163 2223 3824 46
11164 2223 1571 19
11165 2223 3067 12
11166 2223 2881 22
11167 2224 670 34
11168 2224 731 3
11169 2224 976 86
11170 2224 3366 62
11171 2224 1818 55
11172 2224 865 93
11173 2224 1540 53
11174 2225 1235 62
11175 2225 2671 67
11176 2225 947 49
11177 2225 3516 90
11178 2225 3515 13
11179 2225 2392 79
11180 2226 2819 69
11181 2226 3530 50
11182 2226 3042 98
11183 2226 18 49
11184 2226 2151 38
11185 2226 2977 46
11186 2227 105 26
11187 2227 2974 32
11188 2227 3212 67
11189 2227 3727 26
11190 2227 376 59
11191 2228 3140 30
11192 2228 1159 27
11193 2228 2315 16
11194 2228 2788 6
11195 2228 1071 57
11196 2228 2894 81
11197 2228 3220 39
11198 2229 1044 57
11199 2229 466 52
11200 2229 3550 4
11201 2229 2231 25
11202 2230 651 12
11203 2230 713 6
11204 2230 2700 61
11205 2230 474 57
11206 2230 3705 59
11207 2230 1822 25
11208 2230 3327 83
11209 2230 3314 48
11210 2231 1159 32
11211 2231 3816 31
11212 2231 2237 74
11213 2231 3548 53
11214 2231 2364 34
11215 2232 2035 11
11216 2232 1234 35
11217 2232 502 40
11218 2232 1960 12
11219 2232 435 22
11220 2232 3410 62
11221 2233 2343 98
11222 2233 2568 48
11223 2233 1895 62
11224 2233 314 73
11225 2233 3048 69
11226 2233 2728 71
11227 2234 3799 2
11228 2234 3556 23
11229 2234 2729 59
11230 2234 2554 97
11231 2234 2141 18
11232 2234 192 8
11233 2234 190 79
11234 2234 3251 78
11235 2234 608 88
11236 2234 1769 26
11237 2234 120 43
11238 2234 494 21
11239 2235 3124 47
11240 2235 1400 10
11241 2235 2368 20
11242 2235 1437 1
11243 2235 353 80
11244 2236 3179 68
11245 2236 115 59
11246 2236 2133 46
11247 2236 689 44
11248 2236 3655 40
11249 2236 3979 96
11250 2236 2573 52
11251 2236 546 64
11252 2237 3755 92
11253 2237 3981 8
11254 2237 1053 2
11255 2237 1449 37
11256 2237 645 61
11257 2237 2117 46
11258 2238 644 88
11259 2238 1557 71
11260 2238 1285 59
11261 2238 1536 6
11262 2239 3039 13
11263 2239 1103 17
11264 2239 1475 96
11265 2239 3604 67
11266 2240 2947 3
11267 2240 294 72
11268 2241 351 59
11269 2241 1099 5
11270 2241 127 25
11271 2241 465 36
11272 2241 2710 13
11273 2242 3814 16
11274 2242 2411 51
11275 2242 3835 26
11276 2242 423 69
11277 2244 109 54
11278 2244 3986 10
11279 2244 1568 5
11280 2244 1404 12
11281 2244 3793 2
11282 2245 1774 68
11283 2245 2000 26
11284 2245 3448 7
11285 2245 2799 14
11286 2245 1919 48
11287 2245 106 25
11288 2246 2977 44
11289 2247 3328 97
11290 2247 796 87
11291 2247 2119 82
11292 2247 1106 18
11293 2247 300 58
11294 2247 491 72
11295 2247 56 3
11296 2247 2781 6
11297 2248 3841 94
11298 2249 1302 42
11299 2249 2097 53
11300 2249 1522 5
11301 2249 3922 66
11302 2250 1913 69
11303 2251 1946 53
11304 2251 475 25
11305 2251 3199 72
11306 2251 845 85
11307 2252 2337 37
11308 2252 1547 11
11309 2252 1774 77
11310 2252 1796 50
11311 2253 2930 18
11312 2254 1635 70
11313 2254 2048 40
11314 2254 1887 14
11315 2254 2982 77
11316 2254 3824 34
11317 2255 1426 34
11318 2255 1912 57
11319 2255 2364 37
11320 2255 957 50
11321 2255 1009 80
11322 2256 2349 4
11323 2256 1505 93
11324 2257 318 47
11325 2257 2817 64
11326 2257 1767 75
11327 2258 376 22
11328 2258 1096 32
11329 2258 3618 22
11330 2258 498 85
11331 2258 1916 94
11332 2258 2925 9
11333 2258 3878 99
11334 2258 1450 70
11335 2259 2525 26
11336 2259 26 74
11337 2259 2094 42
11338 2259 324 62
11339 2259 278 54
11340 2259 182 91
11341 2259 556 70
11342 2259 770 45
11343 2259 2115 26
11344 2260 2963 68
11345 2260 775 78
11346 2260 3236 30
11347 2260 1277 25
11348 2260 3791 42
11349 2260 1905 49
11350 2260 3182 17
11351 2260 2733 90
11352 2260 2671 35
11353 2260 2318 15
11354 2260 452 78
11355 2260 3174 45
11356 2261 15 11
11357 2261 3566 60
11358 2261 2703 98
11359 2261 2920 72
11360 2261 3971 52
11361 2262 2635 31
11362 2262 2624 13
11363 2263 1222 70
11364 2263 3732 84
11365 2264 2089 75
11366 2264 1138 23
11367 2264 2662 60
11368 2264 3541 67
11369 2264 1450 49
11370 2265 1507 80
11371 2265 2029 99
11372 2265 1235 72
11373 2265 1735 83
11374 2265 2625 47
11375 2265 1127 53
11376 2266 3128 66
11377 2266 3111 61
11378 2266 1482 93
11379 2266 2046 73
11380 2266 123 50
11381 2266 2489 89
11382 2267 2069 59
11383 2267 804 90
11384 2267 413 26
11385 2267 2805 60
11386 2267 1890 89
11387 2268 761 77
11388 2268 2098 94
11389 2268 166 79
11390 2269 2265 47
11391 2269 1545 50
11392 2269 2321 69
11393 2269 3677 67
11394 2270 629 5
11395 2270 33 94
11396 2270 396 67
11397 2271 3364 42
11398 2271 212 95
11399 2271 2144 89
11400 2271 430 77
11401 2272 2277 85
11402 2272 125 53
11403 2272 2359 56
11404 2272 2161 45
11405 2272 402 19
11406 2273 3344 16
11407 2273 1071 49
11408 2273 1854 28
11409 2273 1999 89
11410 2273 1677 82
11411 2274 2380 81
11412 2274 497 39
11413 2274 2238 68
11414 2274 291 61
11415 2274 3172 71
11416 2274 457 49
11417 2274 509 96
11418 2274 2694 35
11419 2275 3715 67
11420 2275 3697 4
11421 2275 3611 16
11422 2275 2383 7
11423 2275 2332 43
11424 2276 2158 15
11425 2276 2906 84
11426 2276 1407 12
11427 2277 3109 65
11428 2277 765 37
11429 2277 3101 18
11430 2277 3623 85
11431 2278 86 96
11432 2278 1915 49
11433 2278 3656 39
11434 2278 1743 16
11435 2278 3511 95
11436 2278 2969 1
11437 2278 2150 21
11438 2278 2103 19
11439 2278 2819 7
11440 2278 1882 47
11441 2279 780 69
11442 2279 1278 31
11443 2279 1067 42
11444 2279 839 75
11445 2279 3424 42
11446 2279 2320 82
11447 2279 724 61
11448 2280 697 99
11449 2280 3350 71
11450 2280 1940 67
11451 2280 1710 3
11452 2280 2143 90
11453 2280 3814 69
11454 2280 2909 29
11455 2281 3969 45
11456 2281 987 18
11457 2282 3565 49
11458 2283 255 23
11459 2283 2612 93
11460 2284 1982 58
11461 2284 2767 32
11462 2284 2701 86
11463 2284 1496 69
11464 2285 3388 24
11465 2285 2228 57
11466 2285 3698 51
11467 2285 3576 3
11468 2285 647 56
11469 2286 307 91
11470 2286 399 89
11471 2286 231 59
11472 2286 714 5
11473 2286 3167 51
11474 2287 2943 19
11475 2287 2712 47
11476 2287 422 1
11477 2287 1428 80
11478 2287 3540 11
11479 2288 1031 86
11480 2289 2039 61
11481 2289 2776 94
11482 2289 3852 84
11483 2289 2993 79
11484 2289 1129 22
11485 2289 1742 52
11486 2289 2463 13
11487 2290 3222 13
11488 2290 564 80
11489 2290 1618 91
11490 2290 3728 69
11491 2290 3053 91
11492 2291 3743 8
11493 2291 2386 78
11494 2291 1725 42
11495 2291 3470 56
11496 2292 3832 90
11497 2292 2722 8
11498 2292 3503 49
11499 2292 472 83
11500 2292 295 74
11501 2292 2836 79
11502 2293 3936 31
11503 2293 2671 93
11504 2293 3666 24
11505 2293 410 32
11506 2294 2033 18
11507 2294 2906 95
11508 2294 2133 25
11509 2294 381 56
11510 2295 3733 63
11511 2295 739 89
11512 2295 2391 31
11513 2295 1201 52
11514 2295 3812 90
11515 2296 1666 44
11516 2296 1788 88
11517 2296 53 33
11518 2296 1937 93
11519 2296 786 7
11520 2297 2021 11
11521 2297 3017 97
11522 2297 2348 73
11523 2297 401 94
11524 2297 2099 62
11525 2297 918 28
11526 2297 107 16
11527 2297 688 9
11528 2297 2157 12
11529 2297 1111 99
11530 2298 3001 22
11531 2299 3634 3
11532 2299 243 94
11533 2299 1975 19
11534 2299 1911 60
11535 2299 818 22
11536 2299 3786 23
11537 2299 1497 15
11538 2300 2475 51
11539 2300 108 31
11540 2301 738 9
11541 2301 401 63
11542 2301 2839 38
11543 2301 1990 86
11544 2302 455 87
11545 2302 3752 81
11546 2302 2984 13
11547 2302 1714 80
11548 2302 3313 77
11549 2302 1211 29
11550 2303 3900 71
11551 2303 3255 73
11552 2303 1417 17
11553 2303 2134 85
11554 2303 3759 58
11555 2303 2642 32
11556 2304 2890 29
11557 2304 617 36
11558 2304 2038 3
11559 2304 3764 78
11560 2305 1156 92
11561 2305 3842 43
11562 2306 2208 69
11563 2306 2588 51
11564 2306 3365 32
11565 2306 854 41
11566 2306 1511 38
11567 2307 204 56
11568 2307 338 75
11569 2307 1203 24
11570 2307 2517 32
11571 2307 301 18
11572 2308 1952 50
11573 2308 1222 100
11574 2308 173 55
11575 2308 1066 18
11576 2309 3817 33
11577 2309 2346 20
11578 2309 3603 75
11579 2309 2891 94
11580 2309 2773 76
11581 2309 2276 96
11582 2309 2074 55
11583 2309 3353 49
11584 2309 98 29
11585 2310 2220 76
11586 2310 3191 3
11587 2310 2293 58
11588 2311 1885 36
11589 2311 3014 17
11590 2311 3404 85
11591 2311 3814 50
11592 2311 2020 55
11593 2312 87 27
11594 2312 2670 27
11595 2312 3631 65
11596 2312 571 81
11597 2312 3749 80
11598 2312 553 11
11599 2313 335 23
11600 2313 382 19
11601 2314 2764 68
11602 2314 3161 4
11603 2314 1992 2
11604 2314 503 24
11605 2315 3567 29
11606 2315 3527 83
11607 2315 684 61
11608 2315 2514 8
11609 2315 885 81
11610 2315 2251 100
11611 2316 2132 97
11612 2316 3702 87
11613 2316 2872 94
11614 2316 3742 53
11615 2316 1024 3
11616 2317 2814 80
11617 2317 2673 100
11618 2317 1393 88
11619 2317 1364 26
11620 2317 3026 10
11621 2317 2872 37
11622 2317 1146 9
11623 2317 2635 59
11624 2318 2886 86
11625 2318 995 32
11626 2318 3003 89
11627 2319 2601 32
11628 2319 802 50
11629 2319 389 15
11630 2319 1283 21
11631 2319 2417 30
11632 2320 3715 76
11633 2320 2190 28
11634 2320 1386 26
11635 2320 2769 71
11636 2320 2828 12
11637 2321 282 71
11638 2321 1438 76
11639 2321 2631 33
11640 2321 3818 44
11641 2321 1576 81
11642 2321 358 36
11643 2321 2239 86
11644 2321 3313 84
11645 2322 2587 75
11646 2322 1992 57
11647 2322 3549 45
11648 2322 1902 11
11649 2322 2825 89
11650 2322 1821 88
11651 2322 898 44
11652 2323 914 21
11653 2323 903 31
11654 2323 674 99
11655 2323 1724 68
11656 2323 2709 88
11657 2323 2458 44
11658 2324 2044 72
11659 2324 1727 74
11660 2325 991 57
11661 2325 496 20
11662 2325 3210 45
11663 2326 362 3
11664 2326 2264 99
11665 2327 2625 49
11666 2327 2135 59
11667 2327 3197 92
11668 2327 2722 10
11669 2328 1647 29
11670 2328 2461 19
11671 2328 897 18
11672 2328 61 88
11673 2328 3886 98
11674 2328 3156 29
11675 2328 3475 58
11676 2329 3829 91
11677 2329 932 96
11678 2330 3521 3
11679 2330 527 75
11680 2330 675 3
11681 2330 1053 31
11682 2330 2060 14
11683 2330 1605 31
11684 2331 1374 40
11685 2331 2829 51
11686 2331 3949 40
11687 2331 1775 38
11688 2332 3408 30
11689 2332 3631 78
11690 2332 3988 2
11691 2332 2340 90
11692 2332 1554 11
11693 2332 2681 43
11694 2332 1612 87
11695 2334 1583 30
11696 2334 1672 29
11697 2334 708 74
11698 2334 111 43
11699 2334 1074 72
11700 2334 2004 29
11701 2335 912 25
11702 2335 2513 89
11703 2335 3314 18
11704 2336 3325 86
11705 2336 2387 55
11706 2336 2287 47
11707 2336 2894 6
11708 2336 47 79
11709 2336 365 2
11710 2337 1471 16
11711 2337 1342 23
11712 2337 3763 68
11713 2337 1679 10
11714 2337 662 65
11715 2337 70 40
11716 2337 735 84
11717 2337 2248 69
11718 2337 2128 79
11719 2338 1920 29
11720 2338 719 82
11721 2338 3795 50
11722 2339 3254 39
11723 2339 2864 43
11724 2339 471 77
11725 2339 2501 8
11726 2339 2164 32
11727 2339 1917 87
11728 2340 3948 7
11729 2340 2151 98
11730 2340 1731 8
11731 2340 3090 50
11732 2340 2277 60
11733 2340 1296 74
11734 2340 1474 76
11735 2341 3658 9
11736 2341 3317 84
11737 2341 1880 26
11738 2342 1339 37
11739 2342 969 53
11740 2342 1151 72
11741 2342 1443 95
11742 2342 2084 6
11743 2343 3865 49
11744 2343 2836 81
11745 2343 1577 4
11746 2343 3996 50
11747 2343 2104 45
11748 2344 2852 51
11749 2344 65 9
11750 2344 3680 19
11751 2344 3285 15
11752 2344 619 87
11753 2345 1531 64
11754 2345 59 40
11755 2345 2389 61
11756 2346 1402 18
11757 2346 3908 53
11758 2346 3017 63
11759 2346 2865 24
11760 2346 2541 28
11761 2346 1391 39
11762 2347 1231 5
11763 2347 1788 56
11764 2347 3311 70
11765 2348 3152 70
11766 2348 1697 92
11767 2348 3409 57
11768 2348 2721 64
11769 2348 3421 20
11770 2348 2498 62
11771 2348 3634 100
11772 2349 977 44
11773 2349 208 82
11774 2349 1065 26
11775 2349 889 71
11776 2350 3880 54
11777 2350 839 50
11778 2350 2478 71
11779 2350 3044 77
11780 2350 2131 89
11781 2350 476 63
11782 2350 284 91
11783 2350 1622 8
11784 2351 3524 57
11785 2351 2620 27
11786 2351 1981 94
11787 2351 430 39
11788 2351 1610 83
11789 2352 2705 17
11790 2352 3574 14
11791 2352 1524 69
11792 2353 1491 3
11793 2353 3978 94
11794 2353 3882 97
11795 2353 1530 66
11796 2353 2574 79
11797 2353 2321 87
11798 2353 479 27
11799 2354 1409 14
11800 2354 2884 51
11801 2354 3030 78
11802 2354 2974 65
11803 2355 2698 18
11804 2355 2926 26
11805 2356 1167 93
11806 2356 3445 64
11807 2356 2892 74
11808 2356 3738 99
11809 2356 643 76
11810 2356 2794 96
11811 2357 1246 48
11812 2357 3289 32
11813 2357 2624 92
11814 2357 1448 39
11815 2357 3890 18
11816 2358 2678 88
11817 2358 2371 82
11818 2358 654 4
11819 2358 3304 43
11820 2358 2693 53
11821 2358 3280 52
11822 2358 662 65
11823 2358 1745 3
11824 2358 2731 59
11825 2358 1002 29
11826 2359 3676 46
11827 2359 2848 22
11828 2360 240 51
11829 2360 3894 58
11830 2360 3110 41
11831 2361 775 50
11832 2361 895 46
11833 2361 816 23
11834 2362 1142 80
11835 2362 2694 97
11836 2362 1900 87
11837 2362 3177 91
11838 2362 1496 70
11839 2362 3034 1
11840 2363 3779 48
11841 2363 822 32
11842 2364 2616 84
11843 2364 1284 5
11844 2364 1253 25
11845 2364 2784 51
11846 2364 2376 16
11847 2364 5 2
11848 2365 3529 3
11849 2365 3201 35
11850 2366 3230 81
11851 2366 1149 56
11852 2366 3054 81
11853 2366 2292 3
11854 2366 264 94
11855 2366 2037 43
11856 2367 1951 14
11857 2367 335 1
11858 2367 3255 3
11859 2367 2883 13
11860 2367 2915 73
11861 2367 3847 92
11862 2368 1874 80
11863 2368 2793 44
11864 2368 3424 1
11865 2368 188 6
11866 2368 559 80
11867 2368 1813 72
11868 2368 2508 96
11869 2369 1176 61
11870 2369 1073 22
11871 2369 3745 51
11872 2369 869 35
11873 2369 2164 54
11874 2369 2367 19
11875 2369 395 58
11876 2370 829 14
11877 2370 1876 54
11878 2370 2686 59
11879 2370 718 45
11880 2370 539 17
11881 2371 1961 2
11882 2371 2334 47
11883 2372 1552 74
11884 2372 1265 32
11885 2372 2889 98
11886 2372 1995 94
11887 2372 1112 43
11888 2372 349 34
11889 2372 30 11
11890 2372 2620 48
11891 2373 75 64
11892 2373 2079 94
11893 2373 2916 21
11894 2374 1039 31
11895 2374 659 75
11896 2374 2799 64
11897 2374 1644 34
11898 2374 2472 24
11899 2374 872 33
11900 2375 633 60
11901 2375 2295 37
11902 2375 1353 20
11903 2375 3909 84
11904 2375 1336 42
11905 2375 613 70
11906 2375 3435 76
11907 2375 100 13
11908 2376 3290 80
11909 2376 2371 75
11910 2376 2846 91
11911 2376 1233 41
11912 2376 3325 79
11913 2376 484 63
11914 2376 46 97
11915 2377 2472 40
11916 2377 2313 55
11917 2377 3165 42
11918 2377 1206 12
11919 2377 616 74
11920 2377 308 69
11921 2377 837 38
11922 2377 2697 55
11923 2377 3656 88
11924 2377 765 48
11925 2378 561 49
11926 2378 2220 28
11927 2378 757 96
11928 2378 3484 15
11929 2378 2689 51
11930 2379 2478 4
11931 2379 85 27
11932 2379 3529 24
11933 2379 3346 83
11934 2379 1954 72
11935 2379 3239 85
11936 2379 201 71
11937 2379 861 66
11938 2380 1570 76
11939 2380 1693 34
11940 2380 1365 86
11941 2380 3623 69
11942 2380 1537 74
11943 2380 234 62
11944 2381 3763 72
11945 2381 1276 79
11946 2381 2998 39
11947 2381 2664 14
11948 2382 3543 89
11949 2382 168 64
11950 2382 2586 17
11951 2383 1366 56
11952 2383 3093 98
11953 2383 1269 29
11954 2383 3471 89
11955 2383 3730 91
11956 2383 951 46
11957 2383 2652 18
11958 2384 3832 67
11959 2384 201 71
11960 2384 1992 18
11961 2384 3898 65
11962 2384 1800 2
11963 2384 1517 87
11964 2385 858 88
11965 2385 1495 68
11966 2385 3804 21
11967 2385 1468 28
11968 2386 1360 13
11969 2386 484 40
11970 2386 1164 25
11971 2386 2653 85
11972 2386 1798 92
11973 2387 608 5
11974 2387 2539 85
11975 2387 245 20
11976 2387 2467 45
11977 2387 3301 20
11978 2387 3331 6
11979 2388 1600 2
11980 2388 3116 84
11981 2388 2439 17
11982 2388 3885 100
11983 2388 737 74
11984 2388 2508 97
11985 2389 2255 89
11986 2389 1695 67
11987 2389 3670 80
11988 2389 953 4
11989 2389 545 38
11990 2389 3716 21
11991 2390 1309 86
11992 2390 890 54
11993 2390 1466 74
11994 2390 394 89
11995 2390 3833 71
11996 2391 1878 6
11997 2391 686 70
11998 2391 1339 62
11999 2391 1222 70
12000 2392 284 23
12001 2392 3829 41
12002 2392 3131 31
12003 2392 2452 34
12004 2393 2498 49
12005 2393 2657 64
12006 2393 3841 85
12007 2394 343 1
12008 2394 739 76
12009 2394 1248 75
12010 2394 3811 57
12011 2395 472 85
12012 2395 3727 65
12013 2395 1455 96
12014 2396 1426 43
12015 2396 2350 84
12016 2396 1842 5
12017 2396 2026 97
12018 2396 3677 56
12019 2396 2019 10
12020 2396 833 50
12021 2396 2283 9
12022 2397 2292 32
12023 2397 1813 16
12024 2397 1394 84
12025 2397 958 20
12026 2397 1211 16
12027 2398 3274 59
12028 2398 3810 68
12029 2398 3189 69
12030 2398 1346 85
12031 2399 1006 93
12032 2399 2388 69
12033 2399 251 92
12034 2400 3424 67
12035 2401 3539 87
12036 2401 2233 92
12037 2401 2674 81
12038 2401 1226 12
12039 2401 381 56
12040 2401 2347 83
12041 2402 3419 24
12042 2402 1334 51
12043 2403 1054 55
12044 2403 7 52
12045 2403 1595 79
12046 2403 2211 66
12047 2404 1676 61
12048 2404 1128 35
12049 2404 613 97
12050 2404 2530 18
12051 2405 3736 21
12052 2405 1884 31
12053 2406 1779 30
12054 2406 2101 68
12055 2406 3919 37
12056 2406 2324 39
12057 2406 3665 40
12058 2406 28 52
12059 2407 718 9
12060 2407 3321 12
12061 2407 1408 59
12062 2407 2533 73
12063 2408 2633 94
12064 2408 1191 98
12065 2408 1830 41
12066 2408 1768 39
12067 2408 3562 77
12068 2408 2589 94
12069 2408 1895 48
12070 2409 493 96
12071 2409 3052 59
12072 2409 2737 9
12073 2410 1639 88
12074 2410 1149 11
12075 2410 3330 57
12076 2411 2738 100
12077 2411 1512 2
12078 2411 3739 38
12079 2411 1215 79
12080 2411 2630 33
12081 2411 156 83
12082 2411 755 90
12083 2412 2546 40
12084 2412 1195 84
12085 2412 3073 82
12086 2412 2589 10
12087 2412 2901 47
12088 2412 2112 25
12089 2412 3929 50
12090 2412 1952 16
12091 2413 3625 33
12092 2413 667 43
12093 2413 165 10
12094 2413 2431 88
12095 2414 3993 86
12096 2414 2287 83
12097 2414 1983 70
12098 2414 1005 97
12099 2414 2173 28
12100 2415 3324 10
12101 2415 1425 30
12102 2415 1134 20
12103 2416 2115 13
12104 2416 374 88
12105 2416 2272 68
12106 2417 1361 15
12107 2417 1429 90
12108 2417 2407 49
12109 2417 3493 61
12110 2418 1613 6
12111 2418 3119 39
12112 2418 1423 75
12113 2418 586 14
12114 2418 1359 47
12115 2419 3591 51
12116 2419 393 14
12117 2419 2035 2
12118 2419 1957 8
12119 2419 2337 63
12120 2419 680 17
12121 2419 1849 56
12122 2419 786 8
12123 2420 3008 60
12124 2420 1346 49
12125 2420 1714 66
12126 2420 233 88
12127 2420 1680 46
12128 2421 3865 10
12129 2421 69 54
12130 2422 1090 38
12131 2422 2503 96
12132 2422 3218 8
12133 2423 3994 83
12134 2423 1621 55
12135 2423 1786 37
12136 2423 3987 5
12137 2423 2980 7
12138 2423 1744 44
12139 2424 3258 71
12140 2424 3695 98
12141 2425 2837 96
12142 2425 3297 92
12143 2425 1796 37
12144 2425 3745 38
12145 2425 2928 45
12146 2426 582 14
12147 2426 721 93
12148 2426 1429 18
12149 2426 882 65
12150 2426 1900 22
12151 2426 2602 62
12152 2426 670 18
12153 2427 3266 80
12154 2427 87 34
12155 2427 2564 21
12156 2427 2469 69
12157 2427 2467 80
12158 2427 1868 70
12159 2427 1362 10
12160 2427 1470 15
12161 2428 2392 55
12162 2428 525 56
12163 2428 1463 98
12164 2428 3208 37
12165 2428 3692 77
12166 2428 1355 61
12167 2428 1180 21
12168 2428 40 86
12169 2429 128 35
12170 2430 1050 68
12171 2430 1121 96
12172 2431 1717 32
12173 2431 1297 20
12174 2431 2247 41
12175 2431 1894 77
12176 2431 679 42
12177 2431 2941 64
12178 2432 976 39
12179 2432 459 90
12180 2432 1798 71
12181 2432 1318 47
12182 2432 2054 80
12183 2432 770 14
12184 2432 3368 97
12185 2433 2466 29
12186 2433 655 27
12187 2433 3579 64
12188 2433 1935 46
12189 2433 1513 75
12190 2433 3368 75
12191 2434 1262 99
12192 2434 3722 26
12193 2434 3070 29
12194 2435 324 33
12195 2435 723 47
12196 2435 2699 71
12197 2436 1003 24
12198 2436 1239 100
12199 2436 1698 27
12200 2436 3931 71
12201 2437 3004 69
12202 2437 2503 12
12203 2437 2054 65
12204 2437 327 63
12205 2437 2562 15
12206 2438 3134 51
12207 2438 3498 76
12208 2438 1399 33
12209 2438 1071 50
12210 2438 1342 96
12211 2438 1775 57
12212 2439 3015 99
12213 2439 1920 45
12214 2440 3049 56
12215 2440 3197 72
12216 2440 282 100
12217 2440 2029 79
12218 2440 1821 86
12219 2440 942 97
12220 2441 856 18
12221 2441 3993 97
12222 2441 1259 78
12223 2441 2285 81
12224 2442 0 24
12225 2442 2603 40
12226 2443 2344 83
12227 2443 222 59
12228 2443 125 53
12229 2443 1109 67
12230 2443 1596 5
12231 2444 2783 61
12232 2444 1276 18
12233 2444 1192 43
12234 2444 2060 61
12235 2444 359 85
12236 2444 1654 74
12237 2444 3054 57
12238 2444 3111 46
12239 2445 514 81
12240 2445 1552 10
12241 2445 1842 25
12242 2445 8 12
12243 2445 3650 42
12244 2445 3592 96
12245 2446 435 36
12246 2446 2807 54
12247 2446 3882 25
12248 2446 1295 55
12249 2446 2905 64
12250 2446 1467 84
12251 2446 2223 55
12252 2447 220 20
12253 2447 3565 14
12254 2447 101 28
12255 2447 1526 88
12256 2447 1915 56
12257 2447 3384 2
12258 2448 87 56
12259 2448 58 19
12260 2448 1999 79
12261 2448 2356 37
12262 2448 1644 91
12263 2449 852 76
12264 2449 117 36
12265 2449 461 35
12266 2450 2738 60
12267 2450 134 81
12268 2450 984 24
12269 2450 1901 64
12270 2450 3870 18
12271 2451 2230 40
12272 2451 1072 46
12273 2451 650 42
12274 2452 161 86
12275 2452 354 63
12276 2452 75 50
12277 2452 411 77
12278 2453 2345 76
12279 2453 3435 75
12280 2453 188 69
12281 2453 2242 99
12282 2454 196 64
12283 2454 1978 41
12284 2454 2138 9
12285 2454 2550 14
12286 2454 3249 80
12287 2454 2830 37
12288 2454 2635 68
12289 2455 3746 76
12290 2455 357 32
12291 2455 226 87
12292 2455 3837 26
12293 2455 562 92
12294 2456 2985 29
12295 2456 815 51
12296 2456 2966 97
12297 2456 3425 27
12298 2456 2699 79
12299 2457 2516 73
12300 2457 2139 56
12301 2457 109 4
12302 2458 1837 9
12303 2458 1530 40
12304 2458 3327 35
12305 2459 3196 64
12306 2459 2681 15
12307 2459 3721 47
12308 2460 2125 88
12309 2460 2106 95
12310 2460 3858 74
12311 2461 1282 74
12312 2461 1070 88
12313 2461 1096 59
12314 2462 3209 64
12315 2462 938 85
12316 2462 1585 10
12317 2462 2730 74
12318 2463 3015 34
12319 2463 777 81
12320 2463 2741 35
12321 2463 114 43
12322 2463 7 80
12323 2464 2654 47
12324 2464 1974 90
12325 2464 2390 79
12326 2464 2188 51
12327 2465 1132 11
12328 2465 2698 34
12329 2465 2308 5
12330 2465 251 79
12331 2465 3850 59
12332 2465 3032 59
12333 2466 1338 40
12334 2466 3665 11
12335 2467 3570 66
12336 2467 2303 37
12337 2467 1541 14
12338 2467 3698 19
12339 2467 3931 49
12340 2467 2923 33
12341 2467 1181 4
12342 2467 3800 42
12343 2468 571 32
12344 2468 2622 47
12345 2468 3094 18
12346 2468 2634 77
12347 2468 75 29
12348 2469 1253 23
12349 2469 1517 18
12350 2469 3432 60
12351 2469 2194 52
12352 2469 860 76
12353 2470 340 90
12354 2470 3415 63
12355 2470 334 25
12356 2471 2963 90
12357 2471 509 85
12358 2471 3777 8
12359 2472 635 42
12360 2472 701 59
12361 2472 3964 24
12362 2472 2158 16
12363 2472 2010 66
12364 2472 2280 56
12365 2472 1841 36
12366 2473 28 44
12367 2473 526 87
12368 2473 636 29
12369 2474 2974 17
12370 2474 2945 85
12371 2474 1321 56
12372 2474 2281 12
12373 2474 128 52
12374 2475 3086 80
12375 2475 553 10
12376 2475 2542 60
12377 2475 572 33
12378 2475 2573 74
12379 2475 330 73
12380 2476 1813 29
12381 2476 1645 82
12382 2476 3357 91
12383 2476 455 79
12384 2477 1252 36
12385 2478 2452 45
12386 2478 2530 83
12387 2478 2912 21
12388 2478 800 22
12389 2478 3079 58
12390 2478 3226 91
12391 2479 92 76
12392 2479 1467 13
12393 2479 664 67
12394 2479 1119 2
12395 2480 2601 46
12396 2480 3083 41
12397 2480 1103 34
12398 2480 3496 63
12399 2480 2882 7
12400 2480 389 8
12401 2480 682 91
12402 2481 3621 54
12403 2481 2149 97
12404 2481 633 72
12405 2481 2363 68
12406 2482 2622 63
12407 2482 2161 31
12408 2482 1066 92
12409 2482 3081 1
12410 2483 302 81
12411 2483 596 18
12412 2483 1479 73
12413 2483 197 54
12414 2483 279 84
12415 2483 3621 17
12416 2484 2501 4
12417 2484 1172 45
12418 2484 3946 95
12419 2484 673 53
12420 2484 1897 83
12421 2484 1003 32
12422 2484 2563 30
12423 2485 916 51
12424 2485 1079 34
12425 2485 2350 7
12426 2485 954 99
12427 2485 2319 75
12428 2485 2813 58
12429 2486 3696 53
12430 2486 224 19
12431 2486 2039 97
12432 2486 424 70
12433 2486 320 21
12434 2487 720 57
12435 2487 1733 11
12436 2487 1997 85
12437 2487 1783 21
12438 2487 3269 96
12439 2487 2646 72
12440 2488 2000 71
12441 2488 691 23
12442 2488 603 97
12443 2489 3279 100
12444 2489 774 53
12445 2489 791 32
12446 2489 2561 16
12447 2489 2315 3
12448 2490 104 94
12449 2490 3615 73
12450 2490 3415 52
12451 2491 1288 97
12452 2491 2528 70
12453 2491 112 59
12454 2492 1226 23
12455 2492 883 48
12456 2493 1920 39
12457 2493 3265 6
12458 2493 1764 57
12459 2493 1782 64
12460 2493 2844 99
12461 2493 2479 95
12462 2493 1931 33
12463 2494 362 69
12464 2494 399 68
12465 2494 2569 93
12466 2494 926 97
12467 2494 3125 10
12468 2494 2242 54
12469 2495 1139 65
12470 2495 2823 20
12471 2495 3735 2
12472 2495 2209 36
12473 2496 1132 28
12474 2496 2941 21
12475 2496 1071 67
12476 2497 3462 12
12477 2497 2027 18
12478 2497 1219 60
12479 2497 3245 63
12480 2497 3538 28
12481 2497 727 15
12482 2497 1848 97
12483 2497 2164 59
12484 2497 8 97
12485 2498 216 60
12486 2498 1035 38
12487 2498 1334 87
12488 2498 2450 22
12489 2498 2300 87
12490 2498 2411 62
12491 2498 43 69
12492 2499 2656 78
12493 2499 101 83
12494 2499 2862 99
12495 2499 1190 34
12496 2500 939 25
12497 2500 2188 62
12498 2500 1836 70
12499 2500 72 88
12500 2500 2659 72
12501 2501 334 61
12502 2501 2511 21
12503 2501 3511 35
12504 2501 1009 18
12505 2501 3971 60
12506 2502 3325 45
12507 2502 3042 65
12508 2502 1642 11
12509 2502 3996 35
12510 2502 30 4
12511 2503 2497 89
12512 2503 713 49
12513 2503 3916 42
12514 2504 106 8
12515 2504 1926 93
12516 2504 3784 43
12517 2504 857 70
12518 2504 2506 2
12519 2504 1483 93
12520 2505 831 74
12521 2505 1598 82
12522 2506 3208 48
12523 2506 3810 28
12524 2506 3349 14
12525 2506 2596 55
12526 2506 3112 39
12527 2506 1051 57
12528 2506 2337 7
12529 2507 781 48
12530 2507 223 79
12531 2507 221 82
12532 2507 3711 34
12533 2507 3222 71
12534 2508 2309 72
12535 2508 2624 60
12536 2508 2327 44
12537 2508 107 25
12538 2509 2390 90
12539 2509 1718 35
12540 2509 3556 5
12541 2510 69 62
12542 2510 800 83
12543 2510 3136 81
12544 2510 391 81
12545 2510 3886 28
12546 2511 1951 24
12547 2511 2355 69
12548 2511 3932 82
12549 2511 3832 38
12550 2511 2308 45
12551 2512 1229 49
12552 2512 271 70
12553 2512 2797 66
12554 2512 2295 87
12555 2512 2421 74
12556 2513 3829 31
12557 2513 662 19
12558 2513 1560 18
12559 2514 687 68
12560 2514 2646 9
12561 2515 3397 82
12562 2515 171 62
12563 2515 3509 12
12564 2515 3070 5
12565 2515 515 71
12566 2515 2772 24
12567 2515 3461 19
12568 2516 1098 70
12569 2516 86 16
12570 2516 2385 73
12571 2516 2565 35
12572 2516 220 8
12573 2516 221 28
12574 2517 3381 26
12575 2517 1885 33
12576 2517 100 73
12577 2517 646 90
12578 2517 920 62
12579 2517 194 59
12580 2517 77 46
12581 2518 3126 82
12582 2518 253 81
12583 2518 2241 79
12584 2518 3500 32
12585 2518 120 28
12586 2518 3570 50
12587 2518 1701 57
12588 2519 1445 100
12589 2519 2794 70
12590 2519 2069 30
12591 2519 1266 46
12592 2519 3173 66
12593 2519 695 71
12594 2519 1870 37
12595 2519 2496 44
12596 2519 413 36
12597 2519 1838 75
12598 2520 1379 5
12599 2520 73 87
12600 2520 2203 70
12601 2521 1272 53
12602 2521 2576 63
12603 2521 965 82
12604 2521 1152 68
12605 2521 938 13
12606 2522 1111 27
12607 2522 1721 65
12608 2522 1294 87
12609 2522 826 19
12610 2522 2428 97
12611 2522 2187 30
12612 2522 1036 89
12613 2522 2055 89
12614 2522 2142 14
12615 2523 552 91
12616 2523 3925 94
12617 2523 2735 13
12618 2524 3407 79
12619 2524 1044 53
12620 2524 789 92
12621 2524 2645 64
12622 2524 1713 100
12623 2524 578 92
12624 2524 1678 51
12625 2524 117 86
12626 2524 3361 36
12627 2524 2216 58
12628 2524 290 41
12629 2525 1956 86
12630 2525 2770 67
12631 2525 1748 95
12632 2526 527 32
12633 2526 1426 32
12634 2526 2343 46
12635 2526 2430 49
12636 2526 2968 49
12637 2526 2880 32
12638 2527 3395 67
12639 2527 2010 67
12640 2527 1117 86
12641 2527 1017 98
12642 2527 2032 22
12643 2528 3316 66
12644 2528 2255 22
12645 2528 3677 24
12646 2528 1667 58
12647 2528 2967 2
12648 2528 311 52
12649 2528 3448 87
12650 2529 708 81
12651 2529 2116 75
12652 2529 2371 61
12653 2529 3884 64
12654 2529 85 59
12655 2529 2918 63
12656 2529 75 31
12657 2529 1807 5
12658 2530 1155 69
12659 2530 2236 40
12660 2530 2538 24
12661 2531 694 75
12662 2531 2933 65
12663 2531 387 41
12664 2531 173 8
12665 2531 2550 58
12666 2531 2749 57
12667 2531 3673 5
12668 2531 422 82
12669 2531 3918 18
12670 2532 3299 28
12671 2532 2455 56
12672 2532 2336 70
12673 2533 361 12
12674 2533 673 87
12675 2533 2680 7
12676 2533 2315 93
12677 2533 1740 86
12678 2533 3099 34
12679 2533 746 55
12680 2534 606 30
12681 2534 2391 50
12682 2534 1536 86
12683 2535 2833 32
12684 2535 1715 19
12685 2535 1883 96
12686 2535 585 3
12687 2535 633 12
12688 2535 819 45
12689 2536 3467 39
12690 2536 3000 49
12691 2537 3322 10
12692 2537 776 17
12693 2537 1163 10
12694 2537 1118 33
12695 2538 3994 94
12696 2538 2716 76
12697 2538 401 12
12698 2538 2304 94
12699 2538 2881 23
12700 2538 356 82
12701 2538 2597 24
12702 2539 2913 69
12703 2539 2534 84
12704 2539 2386 82
12705 2539 886 54
12706 2540 1620 87
12707 2540 1466 58
12708 2540 774 25
12709 2540 1107 14
12710 2540 2111 85
12711 2540 3316 76
12712 2540 1849 34
12713 2540 3942 94
12714 2540 546 16
12715 2540 449 82
12716 2541 3920 84
12717 2541 3969 74
12718 2541 1203 33
12719 2541 2076 74
12720 2541 2008 20
12721 2542 3317 83
12722 2542 2644 54
12723 2542 1319 94
12724 2542 3605 87
12725 2542 3043 41
12726 2542 3937 87
12727 2543 2834 14
12728 2543 2498 16
12729 2543 3781 69
12730 2543 531 43
12731 2545 3240 90
12732 2545 3603 65
12733 2545 3485 8
12734 2545 3069 23
12735 2545 3776 1
12736 2545 1704 24
12737 2546 1825 84
12738 2547 765 28
12739 2547 3325 12
12740 2547 3283 42
12741 2547 2403 81
12742 2547 1187 100
12743 2547 1049 83
12744 2547 1127 22
12745 2548 2764 13
12746 2548 3157 86
12747 2548 2894 90
12748 2548 3379 95
12749 2549 1245 83
12750 2549 1989 70
12751 2549 3687 2
12752 2549 496 73
12753 2550 316 53
12754 2550 3420 9
12755 2550 651 20
12756 2550 3878 40
12757 2550 1823 79
12758 2550 317 20
12759 2551 3596 8
12760 2551 3829 15
12761 2551 1684 71
12762 2551 589 93
12763 2551 308 39
12764 2552 1892 96
12765 2552 2652 30
12766 2552 1168 42
12767 2552 3510 94
12768 2552 881 93
12769 2552 2943 77
12770 2553 532 61
12771 2553 1474 29
12772 2553 3406 2
12773 2553 1396 99
12774 2554 3987 80
12775 2554 2119 67
12776 2554 628 7
12777 2554 3521 53
12778 2555 3263 41
12779 2555 3124 61
12780 2555 605 19
12781 2555 1539 62
12782 2555 1726 25
12783 2555 1657 67
12784 2555 2312 7
12785 2555 3696 14
12786 2556 3067 54
12787 2556 1576 90
12788 2556 608 44
12789 2556 1683 71
12790 2557 2603 40
12791 2557 3552 47
12792 2558 949 54
12793 2558 3618 25
12794 2558 3667 24
12795 2558 3596 88
12796 2558 1893 33
12797 2558 1742 45
12798 2558 312 37
12799 2559 595 96
12800 2559 110 1
12801 2559 851 95
12802 2559 3376 47
12803 2559 2760 29
12804 2559 3146 56
12805 2559 3646 1
12806 2559 3111 52
12807 2560 642 42
12808 2560 1374 55
12809 2560 588 65
12810 2560 2354 13
12811 2560 2175 97
12812 2561 3589 42
12813 2561 795 34
12814 2562 3125 81
12815 2562 1598 2
12816 2562 2885 77
12817 2562 1382 67
12818 2562 3909 100
12819 2562 2439 47
12820 2563 163 88
12821 2563 423 21
12822 2563 760 13
12823 2563 2437 58
12824 2563 3886 91
12825 2564 1602 61
12826 2564 2156 24
12827 2564 471 82
12828 2564 2094 73
12829 2565 662 56
12830 2565 2270 17
12831 2565 3317 20
12832 2566 3688 75
12833 2566 3996 24
12834 2566 3131 30
12835 2566 2076 93
12836 2566 2735 87
12837 2566 1469 37
12838 2566 2091 96
12839 2567 1497 53
12840 2567 783 62
12841 2567 3046 14
12842 2567 3515 70
12843 2567 2959 39
12844 2567 3415 35
12845 2567 3211 54
12846 2568 1664 10
12847 2568 3957 85
12848 2568 2445 57
12849 2568 155 25
12850 2568 2750 18
12851 2568 2656 58
12852 2568 2649 39
12853 2569 3874 32
12854 2569 2640 4
12855 2569 292 85
12856 2569 1494 57
12857 2570 3155 51
12858 2570 2327 93
12859 2570 3180 86
12860 2570 1313 81
12861 2571 2252 85
12862 2571 3677 91
12863 2571 710 50
12864 2571 1133 58
12865 2571 545 84
12866 2571 3715 33
12867 2571 2013 81
12868 2572 3597 1
12869 2572 2699 2
12870 2572 1596 13
12871 2572 3598 82
12872 2572 2102 67
12873 2573 1535 93
12874 2573 464 92
12875 2573 2298 39
12876 2574 1888 60
12877 2574 3336 86
12878 2574 1625 83
12879 2574 2080 55
12880 2574 3068 50
12881 2575 3665 75
12882 2575 946 77
12883 2576 2207 96
12884 2576 3516 47
12885 2576 2266 25
12886 2576 1883 45
12887 2577 693 74
12888 2577 2580 49
12889 2577 2012 4
12890 2577 1117 57
12891 2577 3924 12
12892 2577 1507 19
12893 2578 2928 36
12894 2578 3707 7
12895 2578 3504 71
12896 2578 2980 33
12897 2578 2423 86
12898 2578 3256 61
12899 2578 685 49
12900 2578 724 46
12901 2578 2521 90
12902 2578 2697 20
12903 2579 1517 4
12904 2579 1590 99
12905 2579 3209 87
12906 2579 2767 45
12907 2579 1929 49
12908 2579 2745 23
12909 2580 1960 24
12910 2580 886 88
12911 2580 3186 39
12912 2580 2620 98
12913 2580 817 59
12914 2580 1560 16
12915 2580 2405 69
12916 2581 1034 8
12917 2581 2067 25
12918 2581 3037 82
12919 2581 712 67
12920 2581 1443 68
12921 2581 2250 10
12922 2582 3256 81
12923 2582 3701 38
12924 2582 173 81
12925 2582 3347 31
12926 2582 1051 59
12927 2582 1710 14
12928 2583 3991 8
12929 2583 3727 37
12930 2583 479 92
12931 2583 1371 41
12932 2583 2350 83
12933 2584 2671 67
12934 2584 589 24
12935 2585 1169 49
12936 2585 512 8
12937 2585 3020 76
12938 2585 3494 52
12939 2585 82 96
12940 2585 1777 5
12941 2585 2415 4
12942 2585 1295 94
12943 2585 245 59
12944 2585 608 41
12945 2586 3027 8
12946 2586 1185 59
12947 2586 1851 89
12948 2586 1178 100
12949 2587 3006 74
12950 2587 1474 59
12951 2587 1218 44
12952 2587 3181 100
12953 2587 3634 19
12954 2588 3020 21
12955 2588 763 10
12956 2588 2379 59
12957 2588 1641 65
12958 2588 2197 2
12959 2589 887 53
12960 2589 2956 53
12961 2589 1109 64
12962 2590 1230 57
12963 2590 2515 39
12964 2590 2778 65
12965 2590 812 9
12966 2591 3043 66
12967 2591 1633 75
12968 2591 3957 26
12969 2591 641 2
12970 2591 2784 91
12971 2591 3708 81
12972 2592 1076 9
12973 2592 1441 52
12974 2592 2155 26
12975 2592 1794 89
12976 2592 1304 86
12977 2593 3702 56
12978 2593 1306 65
12979 2593 1737 35
12980 2594 3619 17
12981 2594 1555 55
12982 2594 1437 31
12983 2594 2562 28
12984 2594 2155 56
12985 2595 1250 11
12986 2595 2699 71
12987 2595 2357 76
12988 2595 17 13
12989 2595 1300 31
12990 2595 906 41
12991 2595 111 44
12992 2595 2072 77
12993 2595 1413 97
12994 2595 2301 93
12995 2595 90 56
12996 2595 2184 47
12997 2595 2352 59
12998 2596 2994 21
12999 2596 275 60
13000 2596 586 19
13001 2596 3967 71
13002 2596 290 64
13003 2596 615 71
13004 2597 3964 15
13005 2597 3700 85
13006 2597 1497 93
13007 2597 2505 65
13008 2598 835 33
13009 2598 2360 87
13010 2598 85 15
13011 2598 3896 93
13012 2598 2346 39
13013 2598 2735 60
13014 2598 3890 49
13015 2599 2522 24
13016 2599 608 87
13017 2599 1753 31
13018 2599 2178 66
13019 2599 3937 5
13020 2599 3223 21
13021 2599 2888 51
13022 2599 987 98
13023 2599 1666 63
13024 2599 1265 8
13025 2600 176 77
13026 2600 729 38
13027 2601 2833 53
13028 2601 3290 9
13029 2601 1759 72
13030 2601 2184 55
13031 2602 388 60
13032 2602 2800 87
13033 2602 414 62
13034 2602 3018 12
13035 2603 3979 96
13036 2603 3546 53
13037 2603 460 98
13038 2603 202 36
13039 2603 2115 10
13040 2603 3044 67
13041 2603 568 16
13042 2603 1232 34
13043 2603 1498 54
13044 2604 1480 7
13045 2604 3854 33
13046 2604 1252 85
13047 2604 785 87
13048 2604 1223 74
13049 2605 1177 75
13050 2605 1821 12
13051 2605 3387 20
13052 2606 3396 76
13053 2606 2285 85
13054 2606 2664 29
13055 2606 612 55
13056 2606 1727 26
13057 2606 2546 99
13058 2607 512 19
13059 2607 2829 19
13060 2607 2605 67
13061 2607 705 4
13062 2607 251 95
13063 2607 2916 85
13064 2608 3358 22
13065 2608 1107 78
13066 2609 412 58
13067 2609 2974 77
13068 2609 3757 66
13069 2609 2589 1
13070 2609 2997 10
13071 2609 2532 28
13072 2609 1150 98
13073 2610 695 39
13074 2610 2612 63
13075 2610 3283 20
13076 2610 170 96
13077 2610 3499 6
13078 2610 500 73
13079 2611 1259 56
13080 2611 1211 63
13081 2612 3450 32
13082 2612 1096 69
13083 2612 3255 93
13084 2613 3158 55
13085 2613 663 50
13086 2613 73 62
13087 2613 1352 45
13088 2614 1489 9
13089 2614 690 80
13090 2614 1360 56
13091 2614 3712 48
13092 2614 122 27
13093 2614 3734 57
13094 2615 3950 50
13095 2615 3656 59
13096 2615 3525 4
13097 2615 320 32
13098 2616 965 80
13099 2616 3048 93
13100 2616 3346 23
13101 2616 1445 62
13102 2616 555 39
13103 2616 2164 80
13104 2616 1060 77
13105 2617 2044 11
13106 2617 3049 39
13107 2617 1244 30
13108 2617 372 70
13109 2617 3589 31
13110 2617 184 79
13111 2618 3687 57
13112 2618 1800 87
13113 2618 3203 41
13114 2618 666 1
13115 2618 2994 44
13116 2618 1905 29
13117 2618 1111 2
13118 2618 3475 71
13119 2619 80 81
13120 2619 3159 25
13121 2620 686 28
13122 2620 3918 49
13123 2620 882 98
13124 2620 916 5
13125 2620 1874 14
13126 2621 2845 38
13127 2621 1306 55
13128 2621 419 63
13129 2621 1528 15
13130 2621 1993 45
13131 2621 3117 10
13132 2621 3094 11
13133 2621 2847 82
13134 2622 99 70
13135 2622 2317 87
13136 2622 1884 72
13137 2622 2314 67
13138 2622 2701 72
13139 2623 1731 91
13140 2623 271 24
13141 2623 698 63
13142 2623 2988 7
13143 2623 2115 31
13144 2623 1403 21
13145 2623 863 95
13146 2623 3288 22
13147 2623 3410 38
13148 2624 989 93
13149 2624 859 65
13150 2624 2360 79
13151 2624 2997 9
13152 2624 588 31
13153 2624 3087 49
13154 2624 1688 5
13155 2625 3304 40
13156 2625 2593 25
13157 2625 3579 58
13158 2625 594 35
13159 2625 3117 45
13160 2625 3182 48
13161 2625 3891 58
13162 2625 3989 83
13163 2625 3799 51
13164 2625 2133 56
13165 2626 1127 100
13166 2626 21 93
13167 2626 411 32
13168 2626 40 73
13169 2626 2442 39
13170 2626 983 3
13171 2626 3768 69
13172 2626 793 11
13173 2627 3704 74
13174 2627 2355 17
13175 2627 935 64
13176 2627 2057 43
13177 2628 3447 65
13178 2628 1798 36
13179 2628 478 91
13180 2628 472 67
13181 2629 3240 21
13182 2630 1995 63
13183 2630 3117 57
13184 2630 1958 48
13185 2630 2596 76
13186 2630 3251 39
13187 2630 889 58
13188 2631 3399 78
13189 2631 2492 24
13190 2631 8 22
13191 2631 2304 60
13192 2631 2548 86
13193 2631 418 7
13194 2631 1410 11
13195 2632 1357 76
13196 2632 2020 20
13197 2632 96 33
13198 2632 2438 84
13199 2632 3963 49
13200 2632 1561 60
13201 2633 2999 46
13202 2633 969 79
13203 2634 410 41
13204 2634 836 62
13205 2634 536 79
13206 2634 1578 81
13207 2635 3172 50
13208 2635 2996 27
13209 2635 2410 32
13210 2635 3805 61
13211 2636 2068 16
13212 2636 826 89
13213 2636 3221 10
13214 2636 2403 77
13215 2637 970 26
13216 2637 3863 41
13217 2637 3988 16
13218 2637 1526 60
13219 2637 3113 4
13220 2637 1240 71
13221 2638 73 59
13222 2638 1427 15
13223 2638 2455 54
13224 2638 2886 41
13225 2638 1218 7
13226 2638 2660 68
13227 2638 1372 15
13228 2638 2023 60
13229 2639 3066 7
13230 2639 2368 27
13231 2640 3646 88
13232 2640 3136 57
13233 2640 902 51
13234 2640 3354 9
13235 2641 2843 28
13236 2641 2682 42
13237 2641 1805 21
13238 2641 3160 37
13239 2641 1544 20
13240 2641 3880 71
13241 2641 1231 14
13242 2641 3196 55
13243 2642 1281 75
13244 2642 1993 36
13245 2642 331 43
13246 2642 1999 31
13247 2643 2955 90
13248 2643 3930 91
13249 2643 2804 70
13250 2643 3404 34
13251 2643 3749 41
13252 2644 3747 44
13253 2644 108 39
13254 2644 3046 21
13255 2644 441 82
13256 2644 2924 82
13257 2644 3000 83
13258 2644 1057 60
13259 2644 1777 18
13260 2644 536 36
13261 2644 1182 35
13262 2645 2041 82
13263 2645 151 57
13264 2645 817 45
13265 2645 3556 98
13266 2646 2841 26
13267 2646 505 80
13268 2646 3523 81
13269 2646 2017 71
13270 2647 1255 58
13271 2647 1559 81
13272 2647 1319 83
13273 2647 2444 75
13274 2648 503 89
13275 2648 3994 96
13276 2648 2817 18
13277 2648 1796 85
13278 2648 1447 5
13279 2648 3360 12
13280 2649 3609 37
13281 2649 1524 67
13282 2649 3957 19
13283 2649 2258 79
13284 2649 2639 22
13285 2649 1616 26
13286 2650 1821 62
13287 2650 2140 79
13288 2650 3271 24
13289 2650 2857 47
13290 2650 3932 87
13291 2651 3553 74
13292 2651 3303 94
13293 2652 653 87
13294 2652 621 77
13295 2652 3202 49
13296 2652 2248 69
13297 2652 763 53
13298 2652 2738 86
13299 2653 2457 42
13300 2653 931 2
13301 2653 3868 49
13302 2653 776 54
13303 2653 535 4
13304 2654 1254 16
13305 2654 3973 11
13306 2654 3242 52
13307 2654 3193 45
13308 2654 236 44
13309 2654 2805 68
13310 2654 1706 52
13311 2654 1605 46
13312 2654 1906 13
13313 2654 1968 11
13314 2654 2436 45
13315 2654 3202 4
13316 2654 3576 31
13317 2655 496 42
13318 2655 494 47
13319 2655 3350 48
13320 2655 3782 71
13321 2655 3766 14
13322 2655 2106 70
13323 2656 2503 87
13324 2656 151 8
13325 2656 2904 87
13326 2656 1192 88
13327 2656 2944 87
13328 2657 2663 97
13329 2657 3550 7
13330 2657 433 54
13331 2657 3579 52
13332 2657 3940 84
13333 2657 413 4
13334 2657 1916 46
13335 2657 3712 55
13336 2657 3538 88
13337 2658 538 98
13338 2658 294 62
13339 2658 2434 62
13340 2658 1580 85
13341 2658 1114 24
13342 2658 1555 82
13343 2658 2603 14
13344 2659 3539 25
13345 2659 2052 56
13346 2659 1547 3
13347 2659 668 6
13348 2659 1502 69
13349 2659 3943 35
13350 2659 340 94
13351 2660 221 93
13352 2660 3531 28
13353 2661 3217 70
13354 2661 1378 5
13355 2661 1080 4
13356 2662 938 94
13357 2662 3952 55
13358 2662 2422 32
13359 2662 1905 93
13360 2662 501 78
13361 2663 1282 78
13362 2663 1366 30
13363 2663 2912 64
13364 2663 1746 68
13365 2663 476 18
13366 2664 2014 100
13367 2664 1257 32
13368 2664 3728 55
13369 2664 2564 75
13370 2664 2012 90
13371 2664 1903 15
13372 2664 1937 2
13373 2664 526 78
13374 2665 2829 87
13375 2665 603 80
13376 2665 3143 93
13377 2665 3216 64
13378 2665 1103 85
13379 2665 2662 68
13380 2665 3281 58
13381 2666 406 22
13382 2667 3841 9
13383 2667 2093 74
13384 2668 21 13
13385 2668 1471 50
13386 2668 319 26
13387 2668 1112 86
13388 2669 976 1
13389 2669 3337 89
13390 2670 3505 85
13391 2670 172 98
13392 2670 2360 79
13393 2670 3244 15
13394 2670 3347 56
13395 2670 2856 43
13396 2670 1725 12
13397 2671 2748 54
13398 2671 625 70
13399 2671 886 6
13400 2671 829 4
13401 2671 963 35
13402 2671 933 62
13403 2671 2694 24
13404 2672 3075 14
13405 2672 991 42
13406 2672 2526 26
13407 2672 1603 43
13408 2672 2073 61
13409 2673 1904 86
13410 2673 1672 5
13411 2673 1823 3
13412 2674 3508 79
13413 2674 349 27
13414 2675 2163 43
13415 2675 3495 66
13416 2676 594 58
13417 2676 43 11
13418 2676 1849 63
13419 2676 3396 8
13420 2677 1631 24
13421 2677 2653 2
13422 2677 2085 7
13423 2677 878 85
13424 2678 1523 94
13425 2678 1044 45
13426 2678 364 42
13427 2678 1146 85
13428 2678 3665 47
13429 2679 2493 2
13430 2679 408 84
13431 2679 2467 14
13432 2679 1597 96
13433 2679 3041 70
13434 2679 1472 58
13435 2679 3191 68
13436 2680 3398 75
13437 2680 3011 2
13438 2681 3206 8
13439 2681 2863 84
13440 2681 2669 42
13441 2681 2332 24
13442 2681 2883 76
13443 2681 3584 78
13444 2682 3040 99
13445 2682 783 34
13446 2682 3796 19
13447 2682 2034 29
13448 2683 2750 17
13449 2683 1918 46
13450 2683 1092 45
13451 2683 3050 85
13452 2683 2406 34
13453 2683 208 26
13454 2684 2791 83
13455 2684 2387 26
13456 2684 582 33
13457 2685 849 78
13458 2685 2648 22
13459 2685 3844 88
13460 2685 3570 100
13461 2685 2994 27
13462 2685 2550 23
13463 2685 3252 83
13464 2685 2729 11
13465 2686 3753 23
13466 2686 3658 87
13467 2686 349 39
13468 2686 3098 26
13469 2687 220 1
13470 2687 1770 19
13471 2687 3158 43
13472 2688 107 66
13473 2688 2839 85
13474 2688 452 82
13475 2688 2052 26
13476 2688 2195 32
13477 2689 3345 89
13478 2689 3229 3
13479 2689 1196 28
13480 2690 3440 52
13481 2690 3804 81
13482 2691 588 10
13483 2691 447 31
13484 2691 3920 18
13485 2691 72 18
13486 2691 544 63
13487 2691 2414 55
13488 2691 2263 94
13489 2692 526 75
13490 2692 3697 2
13491 2692 1613 33
13492 2692 1928 84
13493 2693 3717 87
13494 2693 2357 90
13495 2693 1037 62
13496 2693 1405 84
13497 2693 2458 34
13498 2693 242 39
13499 2693 1853 64
13500 2693 548 84
13501 2694 1527 30
13502 2694 1700 2
13503 2694 1254 78
13504 2694 1641 82
13505 2694 3968 93
13506 2694 234 66
13507 2694 2432 14
13508 2695 157 16
13509 2695 3477 4
13510 2695 563 95
13511 2695 3761 57
13512 2695 3830 82
13513 2695 3784 93
13514 2695 356 72
13515 2696 328 2
13516 2696 3925 94
13517 2697 642 72
13518 2697 2408 63
13519 2697 3124 54
13520 2697 1420 49
13521 2697 3861 62
13522 2697 2895 68
13523 2698 1008 40
13524 2698 3045 44
13525 2698 3596 27
13526 2698 3683 26
13527 2698 750 38
13528 2698 3404 82
13529 2698 1206 84
13530 2699 628 25
13531 2699 3558 94
13532 2699 2374 32
13533 2699 3335 45
13534 2699 733 87
13535 2699 1252 100
13536 2699 1550 59
13537 2699 420 66
13538 2700 1515 39
13539 2700 3363 29
13540 2700 2882 59
13541 2701 2207 6
13542 2701 1125 100
13543 2701 1729 9
13544 2702 1671 87
13545 2702 2617 10
13546 2702 2443 65
13547 2703 3081 98
13548 2703 1728 88
13549 2704 1697 6
13550 2704 2483 26
13551 2704 2643 26
13552 2705 2481 95
13553 2705 2787 52
13554 2705 1733 11
13555 2705 2606 27
13556 2706 433 51
13557 2706 2076 28
13558 2706 1355 62
13559 2707 2119 91
13560 2707 3996 42
13561 2707 1626 4
13562 2707 3967 54
13563 2707 2084 3
13564 2707 155 41
13565 2707 1910 8
13566 2708 529 29
13567 2709 3971 32
13568 2709 1241 93
13569 2709 880 48
13570 2709 2861 13
13571 2709 3142 15
13572 2709 807 51
13573 2709 3678 31
13574 2710 325 94
13575 2710 2644 85
13576 2710 3492 99
13577 2711 595 62
13578 2711 92 72
13579 2711 2990 97
13580 2711 641 37
13581 2711 2262 46
13582 2711 3291 88
13583 2712 2288 58
13584 2712 2820 81
13585 2712 1940 31
13586 2713 2859 53
13587 2713 2892 22
13588 2714 936 45
13589 2714 2355 31
13590 2714 322 2
13591 2715 2501 32
13592 2715 1157 35
13593 2715 2815 85
13594 2715 28 84
13595 2715 1689 17
13596 2715 3183 56
13597 2716 1969 1
13598 2716 1997 22
13599 2716 2246 57
13600 2716 1432 31
13601 2717 1346 24
13602 2717 963 17
13603 2717 774 52
13604 2717 3950 79
13605 2717 980 78
13606 2717 3781 17
13607 2718 1979 58
13608 2718 2639 18
13609 2718 2135 82
13610 2718 3130 67
13611 2718 2974 60
13612 2718 498 4
13613 2719 3318 17
13614 2719 3860 24
13615 2719 2568 78
13616 2719 3309 39
13617 2719 1353 96
13618 2720 2944 2
13619 2720 453 3
13620 2720 439 76
13621 2721 338 92
13622 2721 1318 63
13623 2721 1931 43
13624 2721 3513 11
13625 2721 3727 9
13626 2721 1291 1
13627 2722 2052 100
13628 2722 1205 24
13629 2722 3360 73
13630 2722 2367 31
13631 2722 2716 78
13632 2723 304 81
13633 2723 1618 90
13634 2724 2763 34
13635 2724 771 2
13636 2724 1869 74
13637 2724 1987 100
13638 2724 3450 74
13639 2724 947 53
13640 2725 2068 46
13641 2725 1968 54
13642 2725 1027 60
13643 2725 3544 72
13644 2725 3039 73
13645 2725 3663 46
13646 2726 2605 81
13647 2726 305 49
13648 2726 3709 36
13649 2727 1334 95
13650 2727 2156 46
13651 2727 2428 78
13652 2727 2134 87
13653 2728 2615 68
13654 2728 96 85
13655 2728 2498 12
13656 2728 2104 98
13657 2728 29 57
13658 2728 1012 9
13659 2728 3834 27
13660 2728 350 5
13661 2729 3074 29
13662 2729 2029 21
13663 2729 3052 76
13664 2729 3265 19
13665 2729 3394 72
13666 2730 2845 38
13667 2730 354 39
13668 2730 906 23
13669 2730 2460 93
13670 2730 3004 22
13671 2731 165 14
13672 2731 3166 28
13673 2731 2350 70
13674 2732 1705 38
13675 2732 2640 95
13676 2732 844 27
13677 2732 1362 28
13678 2732 891 17
13679 2732 3851 12
13680 2732 1787 99
13681 2733 2481 32
13682 2733 1236 30
13683 2733 3685 98
13684 2734 1559 5
13685 2734 2801 8
13686 2734 3262 83
13687 2734 333 7
13688 2734 3907 38
13689 2734 1318 94
13690 2734 1658 22
13691 2734 688 80
13692 2735 2274 43
13693 2735 1654 49
13694 2735 1498 1
13695 2735 2998 25
13696 2736 2665 4
13697 2736 2895 97
13698 2736 1561 17
13699 2736 3000 77
13700 2736 3057 26
13701 2736 3828 88
13702 2736 2330 1
13703 2737 3536 75
13704 2737 2291 44
13705 2737 91 65
13706 2737 154 63
13707 2738 1385 83
13708 2738 3869 24
13709 2738 3565 4
13710 2738 3733 22
13711 2738 1087 4
13712 2738 325 99
13713 2739 890 58
13714 2739 1949 46
13715 2740 2680 20
13716 2740 2096 7
13717 2740 829 3
13718 2740 3558 89
13719 2740 1905 23
13720 2740 2488 42
13721 2740 2831 46
13722 2741 996 51
13723 2741 1308 77
13724 2741 1556 28
13725 2741 1359 11
13726 2741 3169 66
13727 2741 338 56
13728 2741 2929 1
13729 2742 3075 56
13730 2742 3064 91
13731 2742 11 21
13732 2742 2949 29
13733 2742 3061 82
13734 2743 1066 15
13735 2743 1058 35
13736 2743 1564 31
13737 2743 781 68
13738 2744 97 62
13739 2744 702 37
13740 2744 3248 39
13741 2744 1191 30
13742 2744 3124 64
13743 2744 1700 32
13744 2745 3147 1
13745 2745 1560 45
13746 2745 399 30
13747 2745 3280 46
13748 2745 2125 79
13749 2745 2622 54
13750 2746 69 17
13751 2746 1735 63
13752 2746 2116 53
13753 2746 2859 31
13754 2746 2285 2
13755 2746 1634 5
13756 2747 1509 95
13757 2747 2916 76
13758 2747 1849 63
13759 2747 3463 49
13760 2747 3287 98
13761 2747 188 30
13762 2747 192 99
13763 2748 913 82
13764 2748 1567 24
13765 2749 3218 42
13766 2749 1494 18
13767 2749 3756 59
13768 2749 2842 85
13769 2750 3210 32
13770 2750 2892 78
13771 2750 2607 57
13772 2750 3561 50
13773 2750 2378 63
13774 2750 3976 99
13775 2750 353 34
13776 2751 3817 71
13777 2751 3264 71
13778 2751 1019 12
13779 2751 3959 30
13780 2751 3413 75
13781 2751 3516 13
13782 2751 235 36
13783 2752 1090 19
13784 2752 3480 2
13785 2752 691 30
13786 2752 659 64
13787 2752 2903 47
13788 2752 2954 100
13789 2753 2078 51
13790 2753 3955 79
13791 2753 2556 40
13792 2753 3112 9
13793 2753 2462 40
13794 2753 479 32
13795 2754 1191 9
13796 2754 3742 39
13797 2754 750 4
13798 2755 1119 14
13799 2755 69 31
13800 2755 1 76
13801 2755 2750 68
13802 2755 3754 72
13803 2755 3802 61
13804 2755 2166 90
13805 2756 2952 72
13806 2756 197 40
13807 2756 3772 21
13808 2757 1679 79
13809 2757 1410 48
13810 2757 243 31
13811 2757 1655 91
13812 2757 3189 100
13813 2757 3634 26
13814 2757 3230 93
13815 2757 2494 60
13816 2757 3283 14
13817 2757 1893 66
13818 2757 1695 76
13819 2758 3299 33
13820 2758 980 97
13821 2758 3374 24
13822 2758 2990 69
13823 2759 3111 37
13824 2759 919 2
13825 2759 2610 69
13826 2759 1390 90
13827 2759 1183 81
13828 2759 3947 69
13829 2759 1462 98
13830 2759 3128 100
13831 2759 169 65
13832 2760 449 47
13833 2760 1766 53
13834 2760 1972 87
13835 2760 3528 29
13836 2760 228 65
13837 2760 3521 2
13838 2760 602 24
13839 2761 405 85
13840 2761 3378 70
13841 2761 2499 100
13842 2761 1011 43
13843 2761 1955 20
13844 2762 1514 9
13845 2762 232 20
13846 2762 3082 98
13847 2762 3734 7
13848 2762 895 7
13849 2763 830 37
13850 2763 212 83
13851 2763 3185 12
13852 2763 2992 52
13853 2764 481 35
13854 2764 329 71
13855 2764 346 90
13856 2764 1892 47
13857 2765 3250 91
13858 2765 1591 12
13859 2765 3880 48
13860 2765 1592 46
13861 2765 3080 73
13862 2765 1136 52
13863 2766 3451 34
13864 2766 2974 70
13865 2766 1010 62
13866 2766 710 5
13867 2766 107 25
13868 2766 3126 18
13869 2766 2361 16
13870 2766 2356 67
13871 2767 3170 60
13872 2767 1726 2
13873 2767 575 31
13874 2767 1418 79
13875 2767 1471 47
13876 2767 3266 94
13877 2767 3896 6
13878 2768 3055 93
13879 2768 3454 86
13880 2768 3146 71
13881 2768 3176 71
13882 2768 2608 71
13883 2769 1929 67
13884 2769 3621 36
13885 2769 3987 22
13886 2769 2153 30
13887 2769 3860 86
13888 2770 2502 47
13889 2770 556 80
13890 2770 3529 34
13891 2770 2967 2
13892 2770 3515 18
13893 2770 2065 94
13894 2770 3891 9
13895 2770 1887 53
13896 2770 2991 74
13897 2770 2841 70
13898 2770 3788 89
13899 2771 2140 6
13900 2771 2322 55
13901 2772 2704 71
13902 2772 1268 9
13903 2772 2985 30
13904 2773 2296 44
13905 2773 2995 81
13906 2773 3774 50
13907 2773 1108 27
13908 2774 3957 88
13909 2774 2798 92
13910 2774 862 50
13911 2774 1847 19
13912 2774 3190 19
13913 2774 1061 35
13914 2774 1223 88
13915 2774 1705 37
13916 2774 280 56
13917 2775 3999 99
13918 2775 40 24
13919 2775 3857 55
13920 2775 2297 43
13921 2776 2360 47
13922 2776 630 53
13923 2776 2713 16
13924 2776 3389 47
13925 2776 1611 86
13926 2776 2764 63
13927 2777 2839 85
13928 2777 204 58
13929 2777 1475 17
13930 2778 327 30
13931 2778 152 44
13932 2778 1332 85
13933 2778 2377 45
13934 2779 1270 11
13935 2779 551 62
13936 2779 3611 17
13937 2779 138 60
13938 2780 3303 36
13939 2780 3467 89
13940 2780 3057 71
13941 2780 1801 38
13942 2780 2492 59
13943 2780 3262 77
13944 2780 1891 88
13945 2781 2359 24
13946 2781 3664 60
13947 2781 1930 6
13948 2781 510 46
13949 2781 1110 75
13950 2781 3406 77
13951 2781 2793 34
13952 2782 575 36
13953 2782 1412 49
13954 2782 1824 13
13955 2783 1984 58
13956 2783 1317 29
13957 2783 2114 41
13958 2783 2636 29
13959 2783 253 52
13960 2783 1162 8
13961 2784 1235 54
13962 2784 1491 91
13963 2784 975 65
13964 2784 2098 37
13965 2784 2291 38
13966 2784 2844 64
13967 2784 2872 94
13968 2784 1953 88
13969 2784 2907 1
13970 2785 3779 55
13971 2785 1994 93
13972 2786 1754 90
13973 2786 1718 63
13974 2786 2140 40
13975 2786 3959 1
13976 2786 3216 78
13977 2786 2725 95
13978 2786 3643 9
13979 2787 318 88
13980 2787 3398 21
13981 2787 166 50
13982 2787 1754 4
13983 2787 1646 20
13984 2787 1121 82
13985 2788 2152 65
13986 2788 782 59
13987 2788 358 82
13988 2788 3032 7
13989 2788 2029 3
13990 2789 3652 93
13991 2789 3804 58
13992 2789 1516 97
13993 2789 3974 9
13994 2789 1846 14
13995 2789 3503 4
13996 2789 3161 55
13997 2789 54 38
13998 2790 3584 66
13999 2790 1492 7
14000 2790 1869 98
14001 2790 1481 19
14002 2790 2496 100
14003 2790 767 25
14004 2790 493 19
14005 2791 3395 46
14006 2791 1860 87
14007 2791 1316 97
14008 2792 1646 66
14009 2792 1575 51
14010 2792 3223 73
14011 2793 3497 80
14012 2793 787 81
14013 2793 1116 66
14014 2793 2929 3
14015 2794 3756 8
14016 2794 2191 100
14017 2795 2360 70
14018 2795 2515 69
14019 2795 3804 13
14020 2795 926 37
14021 2795 1308 68
14022 2796 2788 39
14023 2796 3638 70
14024 2796 2713 82
14025 2797 1362 78
14026 2797 2068 40
14027 2797 66 50
14028 2797 2259 88
14029 2797 199 43
14030 2798 194 34
14031 2798 1003 10
14032 2799 3343 90
14033 2799 1169 9
14034 2799 1587 24
14035 2799 2527 36
14036 2800 687 92
14037 2800 2542 23
14038 2800 3449 19
14039 2800 130 77
14040 2800 968 53
14041 2801 2242 8
14042 2801 3602 55
14043 2801 331 99
14044 2801 912 80
14045 2801 2311 11
14046 2802 3620 32
14047 2802 1147 72
14048 2802 597 24
14049 2803 1702 94
14050 2803 1990 16
14051 2804 813 61
14052 2804 3585 92
14053 2804 3448 21
14054 2805 3963 95
14055 2805 185 99
14056 2805 1634 80
14057 2805 3871 41
14058 2805 2712 19
14059 2805 2778 89
14060 2805 112 10
14061 2806 1016 72
14062 2806 639 53
14063 2806 1669 56
14064 2806 494 57
14065 2806 2962 67
14066 2806 2220 19
14067 2806 2816 28
14068 2806 2516 85
14069 2807 3713 75
14070 2807 472 53
14071 2807 2322 62
14072 2808 3866 42
14073 2808 657 56
14074 2808 601 93
14075 2808 2592 59
14076 2808 3913 53
14077 2808 674 91
14078 2808 3263 48
14079 2809 1840 75
14080 2809 3745 38
14081 2809 2642 88
14082 2809 440 72
14083 2810 3714 51
14084 2810 2123 29
14085 2810 1655 58
14086 2810 1882 72
14087 2810 1645 61
14088 2810 304 83
14089 2811 3811 85
14090 2811 668 68
14091 2811 3291 45
14092 2811 3939 43
14093 2811 636 76
14094 2811 1303 93
14095 2811 1065 57
14096 2812 1359 15
14097 2812 2804 11
14098 2812 437 99
14099 2812 409 67
14100 2812 3820 80
14101 2812 2642 62
14102 2813 3155 89
14103 2813 1152 17
14104 2813 1539 37
14105 2813 886 92
14106 2814 108 67
14107 2814 3826 15
14108 2814 570 68
14109 2814 1838 94
14110 2815 1911 57
14111 2815 392 3
14112 2815 2668 56
14113 2815 3804 26
14114 2816 1371 28
14115 2816 78 62
14116 2816 1074 81
14117 2817 3062 69
14118 2817 1137 59
14119 2817 1252 34
14120 2817 3339 57
14121 2817 3324 20
14122 2818 378 91
14123 2818 222 53
14124 2818 1905 99
14125 2818 1644 100
14126 2818 1309 57
14127 2818 1602 93
14128 2818 667 28
14129 2819 2063 22
14130 2819 3359 50
14131 2819 1457 96
14132 2819 2602 67
14133 2819 2700 15
14134 2819 3350 30
14135 2820 1250 54
14136 2820 3956 9
14137 2820 2283 44
14138 2820 2408 85
14139 2821 1992 94
14140 2821 3416 79
14141 2822 1886 29
14142 2822 2712 52
14143 2822 2369 40
14144 2822 1892 7
14145 2822 3205 62
14146 2822 3933 89
14147 2822 1178 51
14148 2822 1719 18
14149 2823 2863 6
14150 2823 952 90
14151 2823 289 81
14152 2824 691 23
14153 2824 1186 87
14154 2824 965 69
14155 2824 1600 20
14156 2824 3268 92
14157 2824 563 4
14158 2824 1491 62
14159 2825 1112 40
14160 2825 2806 81
14161 2825 3051 76
14162 2825 13 42
14163 2825 913 91
14164 2825 1921 79
14165 2826 2901 53
14166 2826 2176 24
14167 2826 2205 95
14168 2826 566 36
14169 2826 453 12
14170 2826 71 83
14171 2826 2175 32
14172 2827 262 100
14173 2827 804 19
14174 2827 1692 36
14175 2827 965 44
14176 2828 3988 77
14177 2828 3670 94
14178 2828 2212 14
14179 2828 2649 93
14180 2829 3942 17
14181 2829 3397 31
14182 2830 2982 87
14183 2830 2808 10
14184 2830 1779 37
14185 2830 2626 85
14186 2830 1123 88
14187 2830 952 11
14188 2830 615 35
14189 2830 3587 22
14190 2830 3273 11
14191 2831 1231 45
14192 2831 3579 67
14193 2831 2678 19
14194 2831 2250 44
14195 2831 1317 33
14196 2831 3314 100
14197 2831 288 44
14198 2831 1650 95
14199 2831 2599 100
14200 2832 2122 88
14201 2832 899 16
14202 2832 774 33
14203 2832 992 29
14204 2832 2328 40
14205 2832 3811 28
14206 2833 3791 70
14207 2833 2906 19
14208 2833 1986 45
14209 2833 2725 8
14210 2833 2477 8
14211 2833 532 68
14212 2833 295 94
14213 2834 1675 49
14214 2834 177 87
14215 2834 1208 78
14216 2834 1099 99
14217 2835 1191 76
14218 2835 3267 17
14219 2835 540 5
14220 2836 2431 45
14221 2836 3899 9
14222 2836 1382 8
14223 2836 536 25
14224 2836 25 33
14225 2836 2178 89
14226 2836 2076 100
14227 2837 1222 10
14228 2837 980 47
14229 2837 3644 76
14230 2837 3598 39
14231 2837 1302 97
14232 2837 2236 80
14233 2838 1888 100
14234 2838 3969 85
14235 2838 673 98
14236 2838 2114 18
14237 2838 2735 92
14238 2838 180 70
14239 2838 2416 25
14240 2838 1934 37
14241 2838 1789 75
14242 2839 844 37
14243 2839 2688 20
14244 2839 1712 67
14245 2839 992 32
14246 2839 1629 46
14247 2839 3400 18
14248 2839 1780 57
14249 2840 2093 8
14250 2840 1545 54
14251 2840 1700 2
14252 2840 1433 58
14253 2840 524 62
14254 2840 3789 83
14255 2841 1534 94
14256 2841 3280 84
14257 2841 3674 10
14258 2841 2306 36
14259 2841 467 77
14260 2842 757 62
14261 2842 1180 51
14262 2842 2559 38
14263 2842 1454 19
14264 2843 3892 30
14265 2843 2531 51
14266 2843 3163 79
14267 2844 2347 14
14268 2844 2314 64
14269 2844 2675 83
14270 2844 1103 6
14271 2844 3761 31
14272 2844 118 100
14273 2844 1198 17
14274 2844 3408 40
14275 2844 1799 23
14276 2845 323 24
14277 2845 2649 30
14278 2845 1574 37
14279 2845 3584 9
14280 2845 3912 59
14281 2845 119 84
14282 2846 124 59
14283 2846 1592 76
14284 2846 2825 92
14285 2846 774 99
14286 2846 3288 20
14287 2846 2753 98
14288 2846 1189 89
14289 2846 1089 96
14290 2847 90 11
14291 2848 383 87
14292 2848 1841 14
14293 2848 2382 59
14294 2848 2903 8
14295 2849 3198 5
14296 2849 2986 47
14297 2849 2557 21
14298 2850 959 37
14299 2850 2032 41
14300 2850 93 80
14301 2850 2712 51
14302 2850 3192 2
14303 2850 1412 80
14304 2851 2820 4
14305 2851 1875 13
14306 2851 2791 21
14307 2851 661 97
14308 2851 1838 61
14309 2851 1818 16
14310 2852 3492 62
14311 2852 2127 22
14312 2852 3945 5
14313 2852 2740 73
14314 2852 3567 87
14315 2853 369 69
14316 2853 2242 37
14317 2853 3354 3
14318 2853 3371 21
14319 2853 3454 57
14320 2854 382 100
14321 2854 277 5
14322 2854 3464 83
14323 2854 1106 74
14324 2854 7 35
14325 2855 2946 26
14326 2855 1590 12
14327 2856 2932 45
14328 2856 3112 22
14329 2856 430 15
14330 2856 3110 12
14331 2856 3997 97
14332 2856 2904 78
14333 2857 3576 97
14334 2857 1342 80
14335 2858 1989 63
14336 2858 2231 16
14337 2858 2022 61
14338 2858 3553 67
14339 2858 1074 54
14340 2859 1691 93
14341 2859 1652 24
14342 2859 958 45
14343 2859 3395 84
14344 2859 299 52
14345 2859 1488 89
14346 2859 45 12
14347 2859 637 48
14348 2860 2668 53
14349 2860 606 31
14350 2860 2488 55
14351 2860 3051 72
14352 2861 592 70
14353 2861 554 52
14354 2861 2508 35
14355 2861 3214 86
14356 2861 770 50
14357 2862 3591 82
14358 2862 147 86
14359 2862 730 44
14360 2862 491 83
14361 2862 3284 3
14362 2862 1956 37
14363 2862 3389 98
14364 2863 1013 42
14365 2863 737 49
14366 2863 713 74
14367 2864 475 50
14368 2864 1905 1
14369 2864 1083 99
14370 2864 2798 96
14371 2864 3894 54
14372 2864 1423 21
14373 2865 1512 67
14374 2865 2143 45
14375 2865 1075 30
14376 2865 1017 50
14377 2866 3359 97
14378 2866 380 81
14379 2866 1072 85
14380 2867 1419 93
14381 2867 11 63
14382 2867 3398 40
14383 2867 2328 78
14384 2867 973 22
14385 2868 3481 72
14386 2868 1126 81
14387 2868 1761 9
14388 2868 1632 68
14389 2869 1287 61
14390 2869 89 10
14391 2869 3510 98
14392 2869 745 10
14393 2870 224 89
14394 2870 3462 26
14395 2870 3148 91
14396 2870 3411 53
14397 2870 3932 30
14398 2870 475 45
14399 2871 2347 99
14400 2871 2029 37
14401 2871 2896 25
14402 2871 1353 16
14403 2872 953 30
14404 2872 1067 32
14405 2873 884 16
14406 2873 621 12
14407 2873 2330 89
14408 2873 1047 19
14409 2874 1983 88
14410 2874 2988 63
14411 2874 3369 96
14412 2874 1600 7
14413 2875 3603 56
14414 2875 94 93
14415 2876 1981 37
14416 2876 1266 41
14417 2876 1320 40
14418 2876 1657 62
14419 2876 2816 68
14420 2876 1656 27
14421 2876 3153 74
14422 2876 1765 96
14423 2877 47 84
14424 2877 287 73
14425 2877 228 3
14426 2877 2615 36
14427 2877 2965 75
14428 2877 3788 61
14429 2877 670 78
14430 2878 866 92
14431 2878 3808 12
14432 2878 2899 3
14433 2878 430 31
14434 2879 2093 6
14435 2879 3296 94
14436 2879 2495 27
14437 2879 124 29
14438 2879 1928 61
14439 2880 1730 76
14440 2880 2563 78
14441 2880 3634 15
14442 2880 2245 52
14443 2880 1801 10
14444 2880 1336 66
14445 2880 2116 43
14446 2881 1703 92
14447 2881 3612 1
14448 2881 3280 21
14449 2881 3417 79
14450 2881 2539 60
14451 2881 3283 52
14452 2881 2787 57
14453 2882 317 7
14454 2882 2911 100
14455 2882 2149 55
14456 2882 3565 33
14457 2882 3481 37
14458 2883 3522 1
14459 2883 1639 77
14460 2883 616 27
14461 2883 2685 98
14462 2883 1068 4
14463 2883 2754 90
14464 2884 3200 97
14465 2884 2130 41
14466 2884 3203 62
14467 2885 3669 57
14468 2885 614 55
14469 2885 2411 92
14470 2885 2118 84
14471 2885 1122 12
14472 2886 2724 38
14473 2886 2714 2
14474 2887 3571 50
14475 2887 1483 75
14476 2887 3305 95
14477 2887 3902 20
14478 2888 1693 51
14479 2888 1411 3
14480 2888 1944 6
14481 2888 2060 45
14482 2889 2089 37
14483 2889 1193 20
14484 2889 2158 72
14485 2889 1243 54
14486 2889 670 28
14487 2890 3822 45
14488 2890 1775 63
14489 2891 3776 36
14490 2891 1250 5
14491 2891 983 72
14492 2891 62 65
14493 2891 801 85
14494 2891 3190 44
14495 2891 465 14
14496 2892 1983 57
14497 2892 1128 40
14498 2892 2810 34
14499 2892 431 39
14500 2892 281 38
14501 2893 2312 10
14502 2894 2848 32
14503 2895 1224 98
14504 2895 1281 68
14505 2895 3609 70
14506 2896 3304 17
14507 2896 3562 41
14508 2897 1996 70
14509 2897 220 84
14510 2897 453 24
14511 2897 2219 93
14512 2897 2212 32
14513 2897 1674 100
14514 2898 460 85
14515 2898 2417 45
14516 2898 197 44
14517 2898 2621 19
14518 2899 3498 51
14519 2899 2576 30
14520 2899 1670 59
14521 2901 2025 27
14522 2901 998 32
14523 2901 1259 69
14524 2901 3185 99
14525 2901 1200 8
14526 2901 3017 50
14527 2901 2572 98
14528 2901 1976 13
14529 2901 1763 64
14530 2901 2729 62
14531 2902 2860 80
14532 2902 885 77
14533 2902 1406 66
14534 2903 2524 73
14535 2903 3567 6
14536 2903 263 37
14537 2903 1036 98
14538 2904 988 27
14539 2904 2156 69
14540 2904 2493 89
14541 2904 964 12
14542 2904 1230 7
14543 2904 671 2
14544 2905 2163 51
14545 2905 1060 28
14546 2905 1779 14
14547 2905 2348 1
14548 2905 796 41
14549 2905 3464 77
14550 2905 1140 81
14551 2905 927 95
14552 2906 3212 99
14553 2907 357 46
14554 2907 2634 4
14555 2907 1624 60
14556 2908 33 52
14557 2908 2421 16
14558 2908 3370 33
14559 2908 2736 1
14560 2909 767 86
14561 2909 792 34
14562 2909 2541 66
14563 2909 1832 55
14564 2909 720 65
14565 2909 676 60
14566 2910 1654 15
14567 2911 2024 85
14568 2911 3134 56
14569 2911 2294 77
14570 2911 2773 8
14571 2911 2587 62
14572 2911 1784 31
14573 2911 816 29
14574 2911 3312 72
14575 2912 1054 19
14576 2912 2915 14
14577 2912 1462 8
14578 2913 3495 77
14579 2913 2849 24
14580 2913 366 7
14581 2913 701 6
14582 2913 2917 80
14583 2913 981 14
14584 2913 105 15
14585 2913 1543 36
14586 2913 2339 78
14587 2913 3953 93
14588 2914 2997 68
14589 2914 764 78
14590 2915 2802 18
14591 2915 2564 15
14592 2915 606 88
14593 2915 3089 49
14594 2915 2110 72
14595 2916 1921 45
14596 2916 3032 3
14597 2916 2582 74
14598 2916 2844 66
14599 2917 2439 78
14600 2917 1848 36
14601 2917 1391 60
14602 2917 1372 80
14603 2917 2135 25
14604 2917 3295 79
14605 2917 2011 67
14606 2918 2647 83
14607 2918 545 29
14608 2918 3277 86
14609 2918 2866 50
14610 2918 1954 33
14611 2919 1800 51
14612 2919 1029 78
14613 2920 1803 2
14614 2920 2340 81
14615 2920 3922 54
14616 2920 693 82
14617 2920 1191 15
14618 2920 3167 2
14619 2920 1644 79
14620 2921 1688 55
14621 2921 3547 5
14622 2921 1010 29
14623 2921 2 30
14624 2921 296 67
14625 2921 3793 94
14626 2921 1246 20
14627 2921 2930 100
14628 2922 1939 98
14629 2922 695 19
14630 2922 28 88
14631 2922 1919 27
14632 2923 2690 71
14633 2923 1091 81
14634 2923 1975 91
14635 2924 2860 22
14636 2924 2840 24
14637 2925 2068 31
14638 2925 3177 48
14639 2925 2806 28
14640 2925 3721 59
14641 2926 1696 41
14642 2926 318 42
14643 2926 2031 87
14644 2926 3206 64
14645 2926 1961 18
14646 2927 2018 60
14647 2927 3226 89
14648 2928 3159 5
14649 2928 745 43
14650 2928 3354 79
14651 2928 104 17
14652 2928 1588 97
14653 2928 3123 82
14654 2928 1886 41
14655 2929 2405 4
14656 2929 638 84
14657 2929 892 9
14658 2929 661 70
14659 2930 1475 81
14660 2930 3821 69
14661 2931 488 57
14662 2931 756 20
14663 2931 2139 6
14664 2931 1005 53
14665 2931 251 79
14666 2931 572 52
14667 2931 1507 47
14668 2931 2499 99
14669 2931 3870 57
14670 2931 1822 64
14671 2932 1949 52
14672 2932 2845 63
14673 2932 1211 94
14674 2932 342 99
14675 2933 719 60
14676 2933 3494 70
14677 2933 3470 65
14678 2933 3710 61
14679 2933 773 16
14680 2934 3649 25
14681 2934 1107 2
14682 2934 3647 66
14683 2934 3019 81
14684 2934 458 33
14685 2935 3560 65
14686 2935 1472 27
14687 2935 833 78
14688 2935 2439 64
14689 2935 1046 17
14690 2935 665 1
14691 2936 706 6
14692 2936 983 51
14693 2936 1804 91
14694 2936 3877 55
14695 2936 1212 28
14696 2937 1584 17
14697 2937 1851 80
14698 2938 902 43
14699 2938 3909 55
14700 2938 1550 66
14701 2938 3651 73
14702 2938 2878 70
14703 2939 3994 49
14704 2939 3726 46
14705 2939 2339 57
14706 2939 2279 40
14707 2940 394 65
14708 2940 2725 99
14709 2940 746 76
14710 2941 3992 98
14711 2941 1886 100
14712 2942 986 32
14713 2942 3065 52
14714 2942 1006 60
14715 2942 1471 82
14716 2942 707 3
14717 2942 3261 56
14718 2942 2907 96
14719 2942 191 9
14720 2943 1764 73
14721 2943 3893 90
14722 2943 602 96
14723 2943 3807 64
14724 2943 193 46
14725 2943 2750 2
14726 2944 2386 1
14727 2944 356 28
14728 2944 392 68
14729 2944 2253 10
14730 2944 1605 93
14731 2945 2580 39
14732 2945 249 83
14733 2945 110 8
14734 2946 1122 33
14735 2946 538 27
14736 2947 1963 72
14737 2947 1480 70
14738 2947 3900 1
14739 2947 1923 12
14740 2947 2396 46
14741 2947 3262 27
14742 2947 631 9
14743 2948 1776 46
14744 2948 3132 1
14745 2948 1980 2
14746 2949 909 97
14747 2949 2991 47
14748 2949 3817 89
14749 2949 1083 69
14750 2949 2539 27
14751 2950 557 48
14752 2951 1358 86
14753 2951 963 25
14754 2951 2000 39
14755 2951 2478 89
14756 2951 991 70
14757 2951 2491 42
14758 2952 1674 84
14759 2953 2964 72
14760 2953 2569 38
14761 2953 2957 24
14762 2953 1100 43
14763 2953 316 43
14764 2953 408 51
14765 2953 3868 9
14766 2953 2976 36
14767 2953 2780 9
14768 2954 863 95
14769 2954 2876 57
14770 2955 2567 67
14771 2955 1527 39
14772 2955 2391 28
14773 2955 3760 58
14774 2955 3569 50
14775 2955 481 4
14776 2955 2078 13
14777 2955 2355 100
14778 2955 1175 67
14779 2956 2708 96
14780 2956 169 26
14781 2956 669 24
14782 2956 2381 100
14783 2956 1113 46
14784 2956 2470 62
14785 2957 1428 87
14786 2957 952 74
14787 2958 3306 66
14788 2958 3576 16
14789 2958 2882 90
14790 2958 119 50
14791 2959 618 77
14792 2959 1032 46
14793 2959 1592 90
14794 2959 2669 86
14795 2959 1069 97
14796 2959 2058 30
14797 2960 601 83
14798 2960 3820 47
14799 2960 1016 20
14800 2960 1634 34
14801 2961 2364 87
14802 2961 2572 93
14803 2961 18 53
14804 2961 188 98
14805 2962 13 76
14806 2962 2425 25
14807 2962 724 97
14808 2962 1002 88
14809 2962 1312 55
14810 2964 285 7
14811 2964 3482 34
14812 2964 2881 98
14813 2964 255 92
14814 2964 1362 24
14815 2964 2535 42
14816 2964 509 74
14817 2964 2351 75
14818 2964 1133 3
14819 2964 2307 34
14820 2965 3442 95
14821 2965 1885 88
14822 2965 3664 87
14823 2965 3837 91
14824 2965 292 1
14825 2966 1562 9
14826 2966 1141 79
14827 2966 550 31
14828 2966 3384 74
14829 2966 3619 41
14830 2967 2685 94
14831 2967 1501 72
14832 2967 3062 74
14833 2967 3959 66
14834 2967 802 11
14835 2967 1941 91
14836 2967 2339 96
14837 2968 2276 66
14838 2968 3682 94
14839 2968 670 38
14840 2968 875 31
14841 2969 17 92
14842 2969 1928 24
14843 2969 915 36
14844 2969 478 40
14845 2970 570 47
14846 2970 2013 64
14847 2970 3286 92
14848 2970 2908 40
14849 2970 3294 30
14850 2971 1058 40
14851 2971 1954 84
14852 2971 515 24
14853 2971 1765 41
14854 2971 227 76
14855 2972 2307 46
14856 2972 275 81
14857 2972 246 10
14858 2972 280 21
14859 2972 3285 20
14860 2973 2774 72
14861 2973 3329 52
14862 2973 3559 98
14863 2973 1043 75
14864 2973 3376 43
14865 2973 2199 19
14866 2973 1119 75
14867 2973 3046 98
14868 2974 2923 92
14869 2974 3919 29
14870 2974 2408 95
14871 2974 2437 93
14872 2974 119 81
14873 2974 2313 65
14874 2975 467 21
14875 2975 616 14
14876 2975 171 7
14877 2975 319 56
14878 2975 1075 20
14879 2975 3603 69
14880 2975 3965 49
14881 2976 193 71
14882 2976 2947 45
14883 2976 3362 18
14884 2976 3960 13
14885 2977 3545 88
14886 2977 2694 6
14887 2977 1532 6
14888 2977 1423 91
14889 2978 1221 59
14890 2978 305 29
14891 2978 3881 44
14892 2978 1838 77
14893 2978 2086 5
14894 2978 1066 10
14895 2978 3004 26
14896 2979 932 24
14897 2979 3624 94
14898 2979 2448 82
14899 2979 2097 46
14900 2980 1463 60
14901 2980 1628 3
14902 2980 802 83
14903 2980 3166 98
14904 2980 1684 39
14905 2980 96 37
14906 2980 765 11
14907 2980 3226 34
14908 2981 3773 66
14909 2981 3373 19
14910 2981 2170 20
14911 2981 1972 36
14912 2982 1945 97
14913 2982 3911 27
14914 2982 1581 3
14915 2982 611 24
14916 2983 2733 44
14917 2983 2409 79
14918 2983 1422 42
14919 2983 1372 65
14920 2983 1792 67
14921 2984 946 72
14922 2984 2291 47
14923 2984 2937 42
14924 2984 769 57
14925 2984 28 27
14926 2985 2983 77
14927 2985 360 29
14928 2986 3730 78
14929 2986 1831 63
14930 2986 608 35
14931 2986 2166 22
14932 2986 762 82
14933 2986 3038 52
14934 2986 1980 1
14935 2986 2173 70
14936 2987 516 46
14937 2987 1612 46
14938 2987 3973 6
14939 2987 1370 18
14940 2987 3621 85
14941 2987 2380 51
14942 2988 3170 21
14943 2988 1922 98
14944 2989 627 48
14945 2989 3772 76
14946 2989 642 79
14947 2989 1257 15
14948 2990 3049 35
14949 2990 2513 98
14950 2990 2237 87
14951 2990 3162 98
14952 2990 3348 31
14953 2990 1086 99
14954 2990 1395 41
14955 2991 2340 28
14956 2991 2969 74
14957 2991 303 47
14958 2991 578 77
14959 2991 1998 41
14960 2992 2825 53
14961 2992 133 78
14962 2992 1906 16
14963 2993 1357 60
14964 2993 2551 21
14965 2994 734 2
14966 2994 1537 61
14967 2994 2351 8
14968 2994 1891 32
14969 2994 3420 56
14970 2994 2876 90
14971 2994 76 63
14972 2995 1697 80
14973 2995 72 72
14974 2995 3148 65
14975 2995 1185 77
14976 2995 3218 27
14977 2996 399 61
14978 2996 88 25
14979 2997 826 50
14980 2997 3800 29
14981 2997 1381 7
14982 2997 1761 13
14983 2997 1098 45
14984 2997 2384 84
14985 2997 3964 24
14986 2997 2060 61
14987 2998 3218 62
14988 2998 3822 26
14989 2998 2914 60
14990 2998 3366 37
14991 2998 3029 92
14992 2998 588 70
14993 2998 3980 12
14994 2998 3769 16
14995 2999 861 69
14996 2999 2214 39
14997 2999 3297 36
14998 2999 3338 70
14999 2999 3049 64
15000 2999 1109 69
15001 3000 921 75
15002 3000 2234 3
15003 3000 902 46
15004 3000 1216 20
15005 3001 362 74
15006 3001 2498 13
15007 3001 1133 70
15008 3001 1530 37
15009 3001 1634 38
15010 3002 2936 7
15011 3002 2110 73
15012 3003 2474 3
15013 3003 3785 8
15014 3003 1737 22
15015 3003 2462 44
15016 3003 561 42
15017 3004 479 67
15018 3004 2188 59
15019 3004 328 66
15020 3004 3809 20
15021 3005 2421 42
15022 3005 980 60
15023 3005 1583 26
15024 3005 549 15
15025 3005 1197 28
15026 3005 1096 3
15027 3005 892 23
15028 3005 195 21
15029 3005 741 4
15030 3006 1186 30
15031 3006 2747 58
15032 3006 2321 98
15033 3006 1551 32
15034 3006 2798 81
15035 3006 719 45
15036 3007 1814 39
15037 3007 801 6
15038 3007 206 47
15039 3007 5 82
15040 3008 917 30
15041 3008 71 26
15042 3008 3970 88
15043 3008 1446 88
15044 3008 291 33
15045 3008 3858 100
15046 3008 3843 1
15047 3008 1956 13
15048 3009 1422 54
15049 3009 3325 36
15050 3009 1882 88
15051 3010 3591 59
15052 3010 1617 70
15053 3010 1513 94
15054 3010 621 47
15055 3010 2095 86
15056 3011 997 8
15057 3011 1299 91
15058 3011 3129 54
15059 3011 1999 5
15060 3011 18 80
15061 3011 856 93
15062 3011 1271 30
15063 3012 2682 26
15064 3012 3614 64
15065 3012 3967 9
15066 3012 3892 80
15067 3012 1116 69
15068 3012 1939 49
15069 3012 3767 46
15070 3012 2462 65
15071 3012 2526 41
15072 3012 2967 10
15073 3012 281 3
15074 3013 3052 17
15075 3013 3450 91
15076 3013 3645 90
15077 3013 1005 96
15078 3013 2870 9
15079 3013 1 94
15080 3013 3309 37
15081 3014 3957 52
15082 3014 2802 42
15083 3014 3065 34
15084 3014 2266 69
15085 3014 3019 14
15086 3014 2067 73
15087 3014 248 99
15088 3015 2598 86
15089 3015 1311 27
15090 3015 1650 23
15091 3016 206 22
15092 3016 2633 3
15093 3016 3326 51
15094 3017 3428 9
15095 3017 2674 46
15096 3017 1672 22
15097 3017 3030 88
15098 3017 2387 41
15099 3018 1675 4
15100 3018 122 11
15101 3018 2348 77
15102 3018 1482 11
15103 3018 3521 57
15104 3018 730 62
15105 3019 429 78
15106 3019 1495 66
15107 3019 141 92
15108 3020 3648 57
15109 3020 2368 73
15110 3020 3742 41
15111 3021 2540 3
15112 3021 3522 39
15113 3021 3061 60
15114 3021 2442 82
15115 3022 2246 90
15116 3022 696 5
15117 3022 3581 2
15118 3022 848 52
15119 3022 2700 24
15120 3022 958 18
15121 3022 547 42
15122 3022 2459 6
15123 3023 656 10
15124 3023 825 58
15125 3023 2435 64
15126 3023 1916 43
15127 3023 1621 79
15128 3023 3870 10
15129 3023 2624 60
15130 3023 2868 88
15131 3024 941 37
15132 3024 1569 70
15133 3024 3176 83
15134 3024 3281 76
15135 3024 1879 5
15136 3025 308 77
15137 3025 3533 23
15138 3026 767 26
15139 3026 3132 73
15140 3026 3472 29
15141 3026 1681 53
15142 3026 1282 3
15143 3026 2734 90
15144 3026 2427 40
15145 3027 170 83
15146 3027 2733 36
15147 3027 1717 63
15148 3028 1032 3
15149 3028 1232 60
15150 3028 3345 93
15151 3028 3015 97
15152 3029 1998 81
15153 3029 1725 3
15154 3029 2497 54
15155 3029 1208 56
15156 3030 2006 7
15157 3030 1146 94
15158 3030 3784 46
15159 3030 1626 64
15160 3031 560 79
15161 3031 775 49
15162 3031 2024 42
15163 3032 3292 17
15164 3032 2125 61
15165 3032 3916 27
15166 3032 889 74
15167 3032 3199 72
15168 3033 2002 32
15169 3033 752 10
15170 3033 2935 94
15171 3033 1368 13
15172 3033 1918 21
15173 3034 1604 94
15174 3034 1194 42
15175 3034 118 76
15176 3034 3614 65
15177 3034 2045 21
15178 3035 2859 18
15179 3035 553 11
15180 3035 808 66
15181 3035 2155 91
15182 3035 1469 77
15183 3035 3522 69
15184 3036 3452 58
15185 3036 746 2
15186 3036 1069 15
15187 3036 1923 56
15188 3037 529 20
15189 3037 3323 88
15190 3037 3631 38
15191 3038 1528 88
15192 3038 415 33
15193 3038 1573 35
15194 3039 1976 45
15195 3039 1896 10
15196 3039 2816 51
15197 3039 1076 78
15198 3040 2476 53
15199 3040 3121 11
15200 3040 2326 28
15201 3040 2480 63
15202 3040 1638 2
15203 3041 2199 32
15204 3041 3472 34
15205 3041 781 4
15206 3042 3481 70
15207 3042 1959 86
15208 3042 1446 37
15209 3043 59 78
15210 3043 2369 61
15211 3043 382 67
15212 3043 1598 42
15213 3043 1647 29
15214 3043 2771 16
15215 3043 1146 41
15216 3043 2762 92
15217 3044 526 6
15218 3044 2824 18
15219 3044 2066 81
15220 3045 136 59
15221 3045 3565 82
15222 3045 1071 38
15223 3045 294 31
15224 3045 1500 73
15225 3045 720 32
15226 3045 1137 78
15227 3045 3783 92
15228 3046 1297 15
15229 3046 1248 73
15230 3046 3549 13
15231 3046 2002 88
15232 3046 3045 95
15233 3046 3486 49
15234 3047 1411 46
15235 3047 3565 36
15236 3047 1765 41
15237 3047 3727 76
15238 3047 3694 36
15239 3047 387 70
15240 3047 3551 4
15241 3048 3274 53
15242 3048 2163 18
15243 3048 2871 8
15244 3049 2029 74
15245 3049 2743 86
15246 3049 32 41
15247 3049 3772 17
15248 3049 2 95
15249 3049 879 97
15250 3050 891 64
15251 3051 3280 79
15252 3051 707 43
15253 3051 2839 65
15254 3051 1211 82
15255 3051 195 51
15256 3051 618 8
15257 3051 3733 58
15258 3052 1188 21
15259 3052 2711 46
15260 3052 32 8
15261 3052 1615 77
15262 3053 1518 25
15263 3053 447 25
15264 3055 951 82
15265 3055 1875 86
15266 3055 3819 92
15267 3055 2735 29
15268 3055 259 3
15269 3055 2751 19
15270 3055 1995 7
15271 3055 27 54
15272 3055 1539 99
15273 3055 2359 71
15274 3055 3975 24
15275 3055 1163 19
15276 3056 2251 2
15277 3056 2835 42
15278 3056 789 28
15279 3056 2832 66
15280 3056 2057 37
15281 3056 3296 44
15282 3056 182 21
15283 3057 992 72
15284 3057 3220 15
15285 3057 1767 27
15286 3057 2383 33
15287 3057 522 74
15288 3057 2635 60
15289 3057 2785 66
15290 3057 3310 41
15291 3058 2762 58
15292 3058 251 41
15293 3058 1138 20
15294 3058 2720 29
15295 3058 3254 19
15296 3058 1258 49
15297 3059 1935 49
15298 3059 3800 11
15299 3059 1175 5
15300 3059 1456 27
15301 3059 190 71
15302 3060 1537 20
15303 3060 3904 15
15304 3060 451 16
15305 3060 187 68
15306 3060 1843 53
15307 3060 3180 23
15308 3061 1077 1
15309 3061 2140 98
15310 3062 2978 41
15311 3062 915 97
15312 3063 2982 6
15313 3063 2648 87
15314 3063 3790 17
15315 3064 2936 48
15316 3064 2664 41
15317 3064 182 9
15318 3064 3673 32
15319 3064 3379 7
15320 3064 3149 73
15321 3064 167 97
15322 3065 736 81
15323 3065 3183 76
15324 3065 3453 80
15325 3066 1767 51
15326 3066 3760 23
15327 3066 2915 78
15328 3066 3403 39
15329 3066 3851 24
15330 3066 2045 86
15331 3066 3842 53
15332 3067 1210 38
15333 3067 1179 83
15334 3067 1104 79
15335 3067 2573 64
15336 3068 1850 98
15337 3068 741 63
15338 3068 823 3
15339 3068 2443 61
15340 3068 2405 3
15341 3069 243 28
15342 3069 1832 38
15343 3069 638 44
15344 3070 1261 49
15345 3070 3208 23
15346 3070 2300 10
15347 3070 35 46
15348 3071 1305 46
15349 3071 1993 43
15350 3071 1798 18
15351 3071 558 63
15352 3071 1666 33
15353 3072 2881 20
15354 3072 1674 15
15355 3072 2262 52
15356 3073 3580 73
15357 3073 1017 14
15358 3074 1222 75
15359 3074 279 46
15360 3074 64 98
15361 3075 2902 63
15362 3075 1837 46
15363 3075 189 73
15364 3075 3671 39
15365 3076 3717 15
15366 3076 580 85
15367 3076 2325 73
15368 3076 1943 94
15369 3076 2976 2
15370 3076 3625 33
15371 3077 1514 42
15372 3077 1319 34
15373 3077 1286 74
15374 3077 2357 7
15375 3078 3901 56
15376 3078 541 42
15377 3078 338 39
15378 3078 1373 93
15379 3078 258 64
15380 3078 1512 68
15381 3079 999 96
15382 3079 1991 19
15383 3079 303 78
15384 3079 3705 19
15385 3079 249 39
15386 3079 135 8
15387 3079 3739 84
15388 3080 1209 79
15389 3080 249 65
15390 3080 977 67
15391 3081 3408 50
15392 3081 2736 55
15393 3081 3369 52
15394 3081 162 10
15395 3081 2653 85
15396 3082 644 14
15397 3082 3807 68
15398 3082 977 57
15399 3082 2645 8
15400 3082 1435 2
15401 3083 3711 57
15402 3083 2469 35
15403 3084 1123 79
15404 3084 2333 99
15405 3084 3898 98
15406 3085 905 71
15407 3085 1433 78
15408 3085 3217 2
15409 3085 44 2
15410 3085 2585 54
15411 3085 859 12
15412 3085 1642 71
15413 3085 2287 6
15414 3086 3594 20
15415 3086 2253 5
15416 3086 1608 25
15417 3086 2474 15
15418 3087 2101 48
15419 3087 1197 48
15420 3087 885 56
15421 3087 881 60
15422 3087 2036 60
15423 3087 61 41
15424 3087 2799 24
15425 3087 423 15
15426 3088 2224 53
15427 3088 2355 26
15428 3088 3699 48
15429 3089 3481 80
15430 3089 863 21
15431 3089 3513 81
15432 3089 1861 33
15433 3090 13 94
15434 3090 2949 36
15435 3090 3211 39
15436 3090 345 100
15437 3090 3159 46
15438 3090 3759 4
15439 3091 229 58
15440 3091 163 56
15441 3091 309 42
15442 3091 1977 40
15443 3093 3313 59
15444 3093 3472 68
15445 3093 2093 66
15446 3093 2942 74
15447 3093 1472 13
15448 3093 2481 41
15449 3093 464 48
15450 3094 1700 80
15451 3094 1135 31
15452 3094 1913 80
15453 3094 1391 69
15454 3094 749 75
15455 3095 830 60
15456 3095 2281 63
15457 3095 1627 47
15458 3095 2141 88
15459 3095 3258 86
15460 3095 3908 16
15461 3096 3250 40
15462 3096 433 18
15463 3096 3410 41
15464 3096 3813 92
15465 3097 392 65
15466 3097 336 3
15467 3097 584 64
15468 3097 1326 96
15469 3097 1933 38
15470 3097 3387 19
15471 3097 1459 21
15472 3097 1246 15
15473 3097 3620 21
15474 3098 1839 1
15475 3098 2310 100
15476 3098 2851 25
15477 3098 1669 100
15478 3099 3653 61
15479 3099 2025 96
15480 3099 2203 28
15481 3099 3361 53
15482 3099 699 2
15483 3099 3486 2
15484 3099 2610 14
15485 3099 1640 39
15486 3099 1656 42
15487 3100 449 24
15488 3100 2867 31
15489 3100 310 23
15490 3101 802 32
15491 3101 1628 17
15492 3101 555 98
15493 3101 2046 80
15494 3101 2296 14
15495 3101 2753 98
15496 3101 2859 37
15497 3102 1687 18
15498 3102 1363 82
15499 3102 1776 5
15500 3102 3455 34
15501 3103 3938 97
15502 3103 1326 13
15503 3103 1311 63
15504 3103 3261 76
15505 3103 716 28
15506 3103 2377 92
15507 3103 3452 74
15508 3103 2727 42
15509 3103 2424 29
15510 3104 3195 66
15511 3104 233 38
15512 3104 142 25
15513 3104 2656 2
15514 3104 1755 62
15515 3104 1358 10
15516 3104 3472 89
15517 3104 348 66
15518 3105 883 39
15519 3105 520 53
15520 3105 3749 56
15521 3105 1229 2
15522 3106 689 78
15523 3107 2537 4
15524 3107 1016 32
15525 3107 2799 92
15526 3107 2148 43
15527 3107 2240 15
15528 3108 980 84
15529 3108 444 35
15530 3108 1112 77
15531 3108 991 7
15532 3108 662 84
15533 3108 140 27
15534 3108 3675 28
15535 3109 2469 30
15536 3109 737 13
15537 3109 1908 32
15538 3109 3507 73
15539 3110 2218 25
15540 3110 3601 49
15541 3110 3330 95
15542 3110 2095 5
15543 3110 1875 46
15544 3111 3126 90
15545 3111 813 61
15546 3111 561 19
15547 3111 2139 94
15548 3111 3879 98
15549 3112 3404 7
15550 3113 2015 87
15551 3113 3674 58
15552 3113 664 26
15553 3113 1210 12
15554 3113 3573 10
15555 3113 3853 47
15556 3113 1815 87
15557 3113 939 98
15558 3113 317 92
15559 3114 1495 53
15560 3114 12 63
15561 3114 2176 53
15562 3114 1488 88
15563 3115 3538 23
15564 3115 480 31
15565 3115 912 65
15566 3115 87 55
15567 3115 1030 46
15568 3116 3173 69
15569 3116 2878 17
15570 3116 3756 52
15571 3116 1009 30
15572 3116 2700 4
15573 3116 2522 13
15574 3116 2998 91
15575 3117 3884 49
15576 3117 3284 10
15577 3117 1210 65
15578 3117 1798 8
15579 3117 2913 25
15580 3117 1265 5
15581 3117 987 86
15582 3118 790 28
15583 3118 3745 68
15584 3118 731 57
15585 3119 3918 75
15586 3119 2480 98
15587 3119 3154 98
15588 3119 3851 36
15589 3119 3216 21
15590 3120 3076 51
15591 3120 276 28
15592 3120 2642 87
15593 3120 2020 37
15594 3120 2759 1
15595 3120 3449 94
15596 3120 2661 46
15597 3121 1574 38
15598 3121 3536 97
15599 3121 402 64
15600 3121 3792 46
15601 3121 1397 48
15602 3121 429 10
15603 3121 2893 43
15604 3122 914 97
15605 3122 3166 85
15606 3123 3950 52
15607 3123 470 80
15608 3123 2693 67
15609 3123 3967 29
15610 3123 2487 21
15611 3123 3675 24
15612 3123 298 78
15613 3123 645 75
15614 3124 2750 10
15615 3124 935 90
15616 3124 2669 71
15617 3124 597 9
15618 3124 3039 21
15619 3124 2356 65
15620 3124 3372 81
15621 3125 3491 1
15622 3125 2835 78
15623 3125 1300 9
15624 3125 3471 73
15625 3125 3565 11
15626 3126 1043 60
15627 3126 1354 61
15628 3126 1960 90
15629 3126 2037 4
15630 3127 2590 11
15631 3127 225 74
15632 3127 1029 89
15633 3127 617 68
15634 3128 2440 24
15635 3128 1593 63
15636 3128 623 60
15637 3129 2947 83
15638 3129 3311 15
15639 3129 662 59
15640 3129 2260 76
15641 3129 2725 44
15642 3129 3657 52
15643 3129 3180 64
15644 3129 1668 67
15645 3129 3625 43
15646 3131 1611 82
15647 3131 3392 72
15648 3131 662 57
15649 3131 2178 51
15650 3132 2997 56
15651 3132 26 16
15652 3132 30 20
15653 3132 1322 11
15654 3132 1388 92
15655 3132 345 58
15656 3133 2770 63
15657 3133 3895 92
15658 3134 3485 95
15659 3134 802 95
15660 3134 2078 37
15661 3134 1701 94
15662 3134 1051 34
15663 3134 391 40
15664 3135 3708 14
15665 3135 2300 45
15666 3135 2510 49
15667 3135 3789 47
15668 3136 1429 58
15669 3136 1569 37
15670 3136 1330 28
15671 3136 3707 62
15672 3136 3398 43
15673 3137 1961 77
15674 3137 1358 68
15675 3137 3905 24
15676 3137 1074 38
15677 3138 3975 69
15678 3138 259 10
15679 3138 3022 28
15680 3138 1980 19
15681 3139 3409 69
15682 3139 735 15
15683 3139 1532 65
15684 3140 1958 2
15685 3140 1353 13
15686 3141 2019 24
15687 3141 546 79
15688 3141 2199 88
15689 3141 3414 47
15690 3141 2299 46
15691 3142 1902 65
15692 3142 590 35
15693 3143 3581 86
15694 3143 1834 36
15695 3143 1146 41
15696 3143 2863 58
15697 3144 399 25
15698 3144 3292 42
15699 3144 1970 22
15700 3144 2325 50
15701 3144 2404 34
15702 3145 195 5
15703 3145 1375 58
15704 3145 2321 14
15705 3145 2015 90
15706 3145 2385 93
15707 3145 2880 39
15708 3146 3100 81
15709 3146 3257 74
15710 3146 3454 11
15711 3146 825 26
15712 3147 20 14
15713 3147 2433 6
15714 3147 2143 34
15715 3147 1565 56
15716 3147 1351 93
15717 3147 79 48
15718 3147 2403 19
15719 3147 2983 64
15720 3147 887 40
15721 3147 1438 8
15722 3148 2524 94
15723 3148 3642 34
15724 3149 1103 46
15725 3149 2904 56
15726 3149 3489 33
15727 3149 498 42
15728 3149 1680 36
15729 3149 359 28
15730 3149 1360 9
15731 3150 1919 82
15732 3150 3505 23
15733 3150 1639 74
15734 3151 3254 8
15735 3151 2824 31
15736 3151 266 68
15737 3151 3562 23
15738 3151 3687 55
15739 3151 653 41
15740 3152 1847 13
15741 3152 2080 20
15742 3152 880 97
15743 3152 1457 76
15744 3152 3743 33
15745 3153 1114 58
15746 3153 2541 24
15747 3154 1207 74
15748 3154 630 75
15749 3154 3780 17
15750 3154 2335 52
15751 3155 3412 99
15752 3155 2457 29
15753 3155 3272 25
15754 3155 1983 58
15755 3155 1569 5
15756 3155 3274 84
15757 3155 2166 5
15758 3156 913 77
15759 3156 3701 45
15760 3156 3808 16
15761 3156 950 9
15762 3157 3612 28
15763 3157 176 88
15764 3157 3954 78
15765 3157 3235 11
15766 3157 3137 87
15767 3157 2631 24
15768 3157 2391 19
15769 3158 2306 20
15770 3158 2421 57
15771 3158 2638 93
15772 3158 1408 56
15773 3159 1539 13
15774 3159 2250 45
15775 3159 3611 71
15776 3159 2424 33
15777 3159 3668 100
15778 3159 539 20
15779 3159 1645 45
15780 3159 37 90
15781 3159 2811 11
15782 3159 1116 12
15783 3159 2035 70
15784 3160 1247 97
15785 3160 1666 61
15786 3160 1123 89
15787 3160 2746 38
15788 3161 1475 24
15789 3161 1504 21
15790 3161 2464 31
15791 3161 3052 16
15792 3161 3177 72
15793 3161 1432 43
15794 3162 82 65
15795 3162 2164 28
15796 3162 3120 12
15797 3162 2187 90
15798 3162 2583 97
15799 3163 3039 28
15800 3163 1446 22
15801 3163 610 80
15802 3164 3293 62
15803 3164 1943 45
15804 3164 241 63
15805 3164 1859 4
15806 3164 589 26
15807 3165 1299 38
15808 3165 1255 4
15809 3165 867 80
15810 3166 962 57
15811 3166 2888 16
15812 3166 2961 94
15813 3166 553 69
15814 3166 3246 12
15815 3166 1772 35
15816 3167 1601 69
15817 3167 2770 48
15818 3167 356 40
15819 3167 2602 30
15820 3167 1229 52
15821 3167 1251 19
15822 3167 476 82
15823 3168 1064 100
15824 3168 1211 57
15825 3168 3734 84
15826 3168 2342 35
15827 3168 745 67
15828 3168 2844 94
15829 3169 3925 14
15830 3169 3057 72
15831 3169 2204 60
15832 3169 1405 25
15833 3169 964 15
15834 3169 2344 62
15835 3169 3773 93
15836 3169 646 71
15837 3169 1084 99
15838 3170 1727 41
15839 3170 1382 18
15840 3170 2937 76
15841 3170 529 62
15842 3170 3426 56
15843 3170 824 38
15844 3171 676 21
15845 3171 2316 66
15846 3171 3118 33
15847 3171 1619 84
15848 3172 585 97
15849 3172 2153 50
15850 3172 3785 71
15851 3172 3472 41
15852 3173 3420 16
15853 3173 206 76
15854 3173 767 20
15855 3173 276 52
15856 3173 2942 9
15857 3173 3576 63
15858 3173 775 89
15859 3173 2840 86
15860 3173 1312 99
15861 3174 3621 46
15862 3174 435 88
15863 3174 3928 70
15864 3174 2688 52
15865 3174 3871 77
15866 3175 802 20
15867 3175 2942 58
15868 3175 1046 90
15869 3175 708 92
15870 3176 3295 37
15871 3176 1965 21
15872 3176 3331 85
15873 3176 275 79
15874 3176 449 7
15875 3177 2523 83
15876 3177 1894 7
15877 3177 2258 29
15878 3177 3388 80
15879 3178 1369 16
15880 3178 3584 51
15881 3178 2372 16
15882 3178 713 6
15883 3178 2320 18
15884 3178 241 66
15885 3178 1593 11
15886 3180 913 14
15887 3180 3214 14
15888 3180 1878 13
15889 3180 253 63
15890 3180 2924 5
15891 3180 1140 39
15892 3181 1606 3
15893 3181 3681 38
15894 3181 2621 92
15895 3181 1922 64
15896 3182 3370 70
15897 3182 1789 84
15898 3182 1743 85
15899 3182 3696 61
15900 3182 759 30
15901 3183 1314 61
15902 3183 1808 39
15903 3183 394 66
15904 3183 3079 7
15905 3183 3723 48
15906 3184 1028 18
15907 3184 333 16
15908 3185 1281 93
15909 3185 2436 88
15910 3185 1525 60
15911 3186 1797 94
15912 3186 3139 1
15913 3186 1987 17
15914 3187 1091 6
15915 3187 2146 64
15916 3187 662 31
15917 3187 2536 73
15918 3187 457 62
15919 3187 3980 99
15920 3187 1692 8
15921 3187 3105 81
15922 3187 590 11
15923 3188 943 54
15924 3188 2379 87
15925 3188 305 30
15926 3189 408 16
15927 3189 2032 55
15928 3189 2624 17
15929 3189 120 75
15930 3189 2972 41
15931 3189 346 66
15932 3189 2378 9
15933 3189 3188 7
15934 3189 1821 58
15935 3189 3357 62
15936 3189 2466 15
15937 3190 1429 75
15938 3190 117 51
15939 3190 1101 85
15940 3190 1902 64
15941 3190 1439 56
15942 3191 2961 63
15943 3191 3618 96
15944 3191 1064 33
15945 3192 3870 9
15946 3192 1849 88
15947 3192 1314 52
15948 3192 1311 50
15949 3193 3004 7
15950 3193 2779 52
15951 3193 1957 35
15952 3193 135 71
15953 3194 3986 44
15954 3194 2116 71
15955 3194 2480 88
15956 3194 1409 96
15957 3195 2076 98
15958 3195 2755 68
15959 3196 40 70
15960 3196 2985 84
15961 3196 1848 37
15962 3196 947 81
15963 3197 1473 40
15964 3197 3200 35
15965 3197 2552 86
15966 3197 3888 18
15967 3197 3847 37
15968 3197 984 44
15969 3198 1912 8
15970 3198 3555 35
15971 3198 2729 94
15972 3198 2628 79
15973 3198 1856 96
15974 3198 2050 65
15975 3198 1167 66
15976 3199 934 52
15977 3199 3082 38
15978 3199 350 46
15979 3199 1740 29
15980 3199 3014 65
15981 3199 2035 55
15982 3200 3902 72
15983 3200 2130 96
15984 3200 3231 38
15985 3200 2103 41
15986 3200 2764 14
15987 3200 1446 23
15988 3201 72 54
15989 3201 1748 43
15990 3201 1114 23
15991 3201 2368 64
15992 3202 2123 54
15993 3202 698 54
15994 3202 3545 57
15995 3202 3697 31
15996 3202 1988 14
15997 3203 3921 44
15998 3203 2032 48
15999 3203 52 23
16000 3203 918 41
16001 3203 1349 35
16002 3204 1465 12
16003 3204 3298 89
16004 3204 3714 60
16005 3204 2255 70
16006 3205 887 28
16007 3205 1025 24
16008 3205 354 12
16009 3205 2193 11
16010 3205 3918 20
16011 3206 3874 49
16012 3206 1564 69
16013 3206 638 14
16014 3206 1589 71
16015 3206 1508 53
16016 3207 148 67
16017 3207 3273 48
16018 3207 3015 4
16019 3207 3181 51
16020 3207 2866 28
16021 3207 2623 39
16022 3207 2284 42
16023 3208 1159 68
16024 3208 3150 87
16025 3208 3230 44
16026 3208 858 54
16027 3208 3148 96
16028 3209 3362 89
16029 3209 1698 76
16030 3209 2283 63
16031 3210 1887 63
16032 3210 1284 9
16033 3210 2975 1
16034 3210 3087 37
16035 3211 2416 48
16036 3211 1689 84
16037 3211 1676 49
16038 3211 2573 65
16039 3212 1396 96
16040 3212 1367 71
16041 3212 852 24
16042 3212 2247 56
16043 3212 3365 90
16044 3213 3171 31
16045 3213 3442 39
16046 3213 3919 23
16047 3213 1108 39
16048 3213 3421 24
16049 3213 2975 27
16050 3214 3704 47
16051 3214 1980 79
16052 3214 1543 24
16053 3214 3880 68
16054 3215 1824 67
16055 3215 40 82
16056 3215 1800 61
16057 3215 434 2
16058 3215 3949 3
16059 3216 1021 43
16060 3216 1113 18
16061 3216 3607 45
16062 3216 3181 11
16063 3216 391 27
16064 3216 3217 51
16065 3216 3897 24
16066 3216 490 61
16067 3216 2984 23
16068 3217 2425 42
16069 3217 2905 69
16070 3218 38 52
16071 3218 3009 16
16072 3218 3795 65
16073 3218 317 24
16074 3219 2651 13
16075 3219 3516 9
16076 3219 861 81
16077 3219 1366 33
16078 3219 3220 2
16079 3220 870 91
16080 3220 1869 71
16081 3220 338 35
16082 3220 1629 94
16083 3220 1187 65
16084 3220 1771 60
16085 3220 1901 34
16086 3221 3076 20
16087 3221 777 53
16088 3222 2819 15
16089 3222 1914 45
16090 3222 913 81
16091 3222 3409 40
16092 3223 713 60
16093 3223 3554 15
16094 3223 1070 22
16095 3223 1649 9
16096 3224 905 99
16097 3224 2351 94
16098 3224 513 49
16099 3225 215 17
16100 3225 3161 61
16101 3225 244 48
16102 3225 3179 59
16103 3225 3820 81
16104 3226 2556 25
16105 3226 2211 31
16106 3226 442 91
16107 3226 2381 24
16108 3226 152 5
16109 3227 2691 4
16110 3227 2605 54
16111 3227 364 13
16112 3227 2867 15
16113 3227 3548 83
16114 3228 1728 87
16115 3228 113 79
16116 3228 3406 29
16117 3228 2644 56
16118 3228 3531 71
16119 3228 109 79
16120 3228 309 45
16121 3228 3454 20
16122 3229 918 79
16123 3230 282 89
16124 3230 397 86
16125 3230 477 61
16126 3230 648 100
16127 3230 1612 37
16128 3230 1222 100
16129 3231 1053 70
16130 3231 249 2
16131 3231 2508 22
16132 3231 1845 92
16133 3231 3294 25
16134 3231 359 30
16135 3232 3025 82
16136 3233 3950 46
16137 3233 3585 21
16138 3233 2532 31
16139 3233 1687 41
16140 3233 2165 67
16141 3233 838 81
16142 3233 2480 33
16143 3233 3413 88
16144 3233 3624 48
16145 3233 1409 77
16146 3234 2675 56
16147 3234 1100 31
16148 3234 2835 72
16149 3234 2203 28
16150 3234 2337 86
16151 3234 2568 84
16152 3234 2453 67
16153 3234 1224 40
16154 3235 1192 51
16155 3235 2761 8
16156 3235 2804 58
16157 3235 3556 37
16158 3235 3538 75
16159 3236 2308 10
16160 3236 2924 51
16161 3236 1595 96
16162 3236 166 79
16163 3236 1507 67
16164 3236 80 16
16165 3236 2081 41
16166 3236 3445 42
16167 3236 295 42
16168 3237 125 56
16169 3237 51 14
16170 3237 3953 25
16171 3237 2391 78
16172 3237 1188 55
16173 3237 1883 97
16174 3237 167 90
16175 3237 291 7
16176 3237 1050 86
16177 3238 846 40
16178 3238 1611 61
16179 3238 3526 83
16180 3238 3141 42
16181 3238 2250 98
16182 3239 2577 15
16183 3239 2814 82
16184 3239 2200 1
16185 3240 714 38
16186 3240 3072 24
16187 3240 2187 35
16188 3240 141 18
16189 3240 118 42
16190 3240 1372 72
16191 3240 1214 34
16192 3240 3571 51
16193 3240 408 48
16194 3241 2405 67
16195 3241 1770 76
16196 3241 1418 75
16197 3241 1528 27
16198 3242 2359 26
16199 3242 3499 32
16200 3242 1645 44
16201 3242 2583 62
16202 3242 3944 12
16203 3242 2099 58
16204 3242 527 56
16205 3243 864 71
16206 3243 450 92
16207 3243 217 47
16208 3244 286 25
16209 3244 1146 65
16210 3244 1335 35
16211 3244 3111 76
16212 3244 3866 79
16213 3244 2932 35
16214 3244 33 3
16215 3244 3372 67
16216 3244 419 95
16217 3244 583 35
16218 3244 799 95
16219 3245 2699 58
16220 3245 3081 60
16221 3245 30 19
16222 3245 2633 61
16223 3245 2504 79
16224 3245 254 58
16225 3245 3300 20
16226 3245 2262 66
16227 3245 2204 4
16228 3246 3335 80
16229 3246 732 18
16230 3246 2011 64
16231 3246 2184 59
16232 3247 324 96
16233 3247 613 10
16234 3247 2753 39
16235 3247 2108 1
16236 3247 581 4
16237 3247 3972 88
16238 3247 2709 37
16239 3247 2097 49
16240 3247 1357 33
16241 3248 2724 7
16242 3248 845 68
16243 3248 3271 64
16244 3248 1100 77
16245 3248 605 70
16246 3248 2369 13
16247 3248 2905 61
16248 3248 1749 31
16249 3249 474 56
16250 3249 1576 15
16251 3249 3285 66
16252 3249 3472 68
16253 3249 2843 44
16254 3249 2985 58
16255 3249 3211 96
16256 3249 2413 44
16257 3250 1351 20
16258 3250 1454 35
16259 3250 3069 47
16260 3250 1902 21
16261 3250 347 15
16262 3250 115 50
16263 3251 3965 38
16264 3251 3092 22
16265 3251 3727 84
16266 3251 222 5
16267 3251 2228 89
16268 3252 292 12
16269 3252 2418 15
16270 3252 373 95
16271 3252 1541 67
16272 3252 2384 7
16273 3252 3404 68
16274 3252 635 22
16275 3253 1560 100
16276 3253 3392 88
16277 3253 1503 84
16278 3253 1046 78
16279 3253 2699 42
16280 3253 1419 33
16281 3254 2374 81
16282 3254 200 72
16283 3254 2137 84
16284 3254 158 41
16285 3255 490 18
16286 3255 1331 11
16287 3255 1317 94
16288 3255 3896 11
16289 3255 3174 84
16290 3256 2308 18
16291 3256 41 15
16292 3256 3271 89
16293 3256 1821 47
16294 3256 1017 74
16295 3257 1688 40
16296 3257 3622 55
16297 3257 468 32
16298 3258 927 25
16299 3258 2828 32
16300 3258 1465 72
16301 3259 2147 14
16302 3259 6 97
16303 3259 757 96
16304 3259 1172 61
16305 3260 2687 73
16306 3260 1303 86
16307 3260 2646 69
16308 3260 452 33
16309 3260 1193 19
16310 3260 3415 57
16311 3260 3470 54
16312 3261 1400 76
16313 3261 1938 6
16314 3261 2723 13
16315 3261 855 60
16316 3261 2084 60
16317 3261 2398 4
16318 3261 2702 49
16319 3261 30 80
16320 3261 2964 83
16321 3262 3649 7
16322 3262 2024 89
16323 3262 3978 43
16324 3263 3796 30
16325 3263 1413 26
16326 3263 1448 60
16327 3263 740 8
16328 3263 2550 88
16329 3263 3625 16
16330 3263 572 77
16331 3264 3533 82
16332 3264 2086 31
16333 3264 3914 49
16334 3265 1955 30
16335 3265 660 78
16336 3265 3977 99
16337 3265 1047 95
16338 3266 1149 79
16339 3266 3590 67
16340 3266 543 89
16341 3266 1804 53
16342 3266 2513 95
16343 3266 2216 44
16344 3266 580 9
16345 3266 2546 34
16346 3267 1851 82
16347 3267 29 28
16348 3267 3330 53
16349 3267 3441 33
16350 3267 1178 56
16351 3268 720 24
16352 3268 427 73
16353 3268 557 49
16354 3269 2010 92
16355 3269 3948 90
16356 3269 3619 74
16357 3269 1186 8
16358 3270 1777 45
16359 3270 3255 40
16360 3270 1669 92
16361 3271 2579 44
16362 3271 3374 24
16363 3271 2422 10
16364 3271 1445 76
16365 3271 3751 6
16366 3271 2375 75
16367 3271 3520 22
16368 3272 824 51
16369 3272 1294 61
16370 3272 3256 16
16371 3272 485 24
16372 3273 187 41
16373 3273 4 69
16374 3273 1155 36
16375 3273 1597 2
16376 3274 2694 38
16377 3274 1230 64
16378 3274 2073 54
16379 3274 3491 8
16380 3274 913 65
16381 3275 2177 85
16382 3275 3412 32
16383 3275 13 95
16384 3275 2134 4
16385 3275 2317 57
16386 3276 1539 32
16387 3276 318 43
16388 3276 1714 36
16389 3277 252 54
16390 3277 1145 7
16391 3278 2156 2
16392 3278 1374 96
16393 3279 2060 63
16394 3279 3815 75
16395 3279 3199 59
16396 3280 1792 91
16397 3280 2225 33
16398 3280 1568 8
16399 3280 873 82
16400 3280 2448 61
16401 3281 3390 56
16402 3281 532 67
16403 3281 1191 45
16404 3281 3373 98
16405 3281 988 49
16406 3281 3451 35
16407 3282 702 34
16408 3282 2396 97
16409 3282 3923 77
16410 3282 1411 89
16411 3282 2869 20
16412 3283 595 41
16413 3283 3779 44
16414 3283 1611 74
16415 3283 3139 30
16416 3283 2124 32
16417 3283 2815 33
16418 3283 887 69
16419 3284 420 65
16420 3284 2975 49
16421 3284 2601 73
16422 3284 122 41
16423 3284 3726 40
16424 3284 2611 53
16425 3284 2099 70
16426 3284 3622 8
16427 3284 2053 1
16428 3284 556 17
16429 3285 3234 23
16430 3285 3160 2
16431 3285 84 86
16432 3285 3544 79
16433 3285 250 57
16434 3285 1971 55
16435 3285 2298 36
16436 3285 1854 50
16437 3285 1886 47
16438 3286 3883 26
16439 3286 1518 9
16440 3286 3866 91
16441 3286 736 94
16442 3287 2460 64
16443 3287 227 86
16444 3287 988 48
16445 3288 1043 89
16446 3288 1017 79
16447 3288 3331 44
16448 3288 372 73
16449 3288 1707 54
16450 3288 419 18
16451 3288 1645 88
16452 3289 1451 86
16453 3289 355 81
16454 3290 3850 61
16455 3290 1988 34
16456 3291 831 17
16457 3291 3100 28
16458 3291 2095 30
16459 3291 3698 39
16460 3291 1298 85
16461 3291 2840 16
16462 3291 542 20
16463 3292 773 70
16464 3292 3221 89
16465 3292 3828 31
16466 3292 1765 37
16467 3292 2445 31
16468 3292 365 82
16469 3293 1169 61
16470 3293 650 3
16471 3293 3883 31
16472 3293 224 60
16473 3294 3185 44
16474 3294 846 24
16475 3294 1950 51
16476 3294 1999 79
16477 3294 1211 54
16478 3295 2101 66
16479 3295 2375 48
16480 3295 1934 62
16481 3295 3991 46
16482 3295 1335 30
16483 3295 3596 77
16484 3295 3517 9
16485 3295 1776 49
16486 3295 55 83
16487 3295 1474 78
16488 3296 1791 14
16489 3296 2241 25
16490 3296 1671 80
16491 3296 1456 34
16492 3297 2251 49
16493 3297 1881 71
16494 3297 3576 78
16495 3297 3232 30
16496 3297 304 31
16497 3298 1943 17
16498 3298 3966 62
16499 3298 2237 51
16500 3298 2127 51
16501 3298 3086 12
16502 3298 142 49
16503 3299 2088 28
16504 3299 445 80
16505 3299 2996 65
16506 3299 3623 36
16507 3299 3375 68
16508 3299 2295 14
16509 3299 8 16
16510 3299 1544 59
16511 3300 418 20
16512 3300 3996 99
16513 3300 1384 100
16514 3300 3960 20
16515 3300 1299 44
16516 3300 60 16
16517 3302 1906 23
16518 3303 395 42
16519 3303 1180 62
16520 3303 846 40
16521 3303 913 67
16522 3303 750 16
16523 3303 3741 45
16524 3303 387 27
16525 3303 2076 23
16526 3304 3879 40
16527 3304 1874 56
16528 3304 195 82
16529 3304 130 7
16530 3304 3293 82
16531 3304 1613 49
16532 3305 3748 30
16533 3305 1017 78
16534 3305 2939 66
16535 3305 468 14
16536 3306 2616 81
16537 3306 1288 68
16538 3306 3949 1
16539 3306 122 68
16540 3307 1073 43
16541 3307 1172 45
16542 3307 495 35
16543 3307 2576 23
16544 3308 217 5
16545 3308 2407 100
16546 3308 3913 51
16547 3308 3407 1
16548 3308 3455 79
16549 3309 3468 81
16550 3309 1702 78
16551 3309 2561 92
16552 3309 519 32
16553 3309 1564 79
16554 3310 1173 81
16555 3310 1641 51
16556 3310 760 7
16557 3310 3091 8
16558 3310 2640 91
16559 3310 2182 63
16560 3311 1096 71
16561 3311 601 74
16562 3312 3447 96
16563 3312 2827 34
16564 3312 3939 74
16565 3312 3723 99
16566 3312 2861 98
16567 3313 541 28
16568 3313 732 44
16569 3313 1974 99
16570 3313 3715 1
16571 3314 2476 52
16572 3314 1429 13
16573 3314 2919 63
16574 3314 3388 59
16575 3314 1600 24
16576 3315 248 27
16577 3315 1305 66
16578 3315 2603 18
16579 3315 2517 5
16580 3315 2318 59
16581 3315 3369 45
16582 3315 2047 10
16583 3316 1805 15
16584 3316 1652 31
16585 3316 290 39
16586 3316 132 72
16587 3316 3573 100
16588 3316 2118 56
16589 3317 392 44
16590 3317 1615 58
16591 3317 1823 76
16592 3317 3929 54
16593 3317 321 91
16594 3318 2986 72
16595 3318 2935 15
16596 3318 2101 2
16597 3318 3719 32
16598 3318 2534 24
16599 3318 716 8
16600 3318 1449 18
16601 3319 3377 21
16602 3319 2361 34
16603 3319 142 1
16604 3319 2849 13
16605 3319 1107 63
16606 3319 411 29
16607 3320 2205 87
16608 3320 2126 21
16609 3320 2847 72
16610 3320 314 11
16611 3320 3985 41
16612 3320 728 79
16613 3321 2499 89
16614 3321 714 81
16615 3321 1514 42
16616 3321 575 98
16617 3322 733 90
16618 3322 3330 40
16619 3322 1122 27
16620 3322 584 9
16621 3323 274 19
16622 3324 2232 34
16623 3324 700 82
16624 3324 314 53
16625 3324 481 63
16626 3325 1282 33
16627 3325 2046 2
16628 3325 217 90
16629 3325 751 1
16630 3325 387 80
16631 3325 2597 37
16632 3325 3816 1
16633 3325 842 39
16634 3326 2117 32
16635 3326 3610 58
16636 3327 2826 71
16637 3327 2903 13
16638 3327 474 37
16639 3327 2610 9
16640 3327 1702 15
16641 3327 908 75
16642 3328 1181 48
16643 3328 961 68
16644 3328 3147 60
16645 3328 1338 92
16646 3328 3802 29
16647 3328 2869 54
16648 3329 909 7
16649 3329 2579 53
16650 3329 3590 90
16651 3329 793 30
16652 3330 3471 34
16653 3330 3879 6
16654 3330 273 48
16655 3331 1243 11
16656 3331 2955 26
16657 3331 1573 5
16658 3331 2590 6
16659 3331 2209 45
16660 3331 1119 60
16661 3331 2760 24
16662 3331 3590 30
16663 3332 3710 73
16664 3332 3287 48
16665 3332 3276 27
16666 3332 1053 24
16667 3333 1119 58
16668 3333 2881 73
16669 3333 3991 15
16670 3333 2050 65
16671 3334 3756 22
16672 3334 2933 30
16673 3334 479 29
16674 3334 3693 16
16675 3334 3111 53
16676 3335 2095 63
16677 3335 1746 16
16678 3335 2012 54
16679 3335 948 18
16680 3335 315 77
16681 3335 1310 75
16682 3335 3418 54
16683 3336 1002 95
16684 3336 741 90
16685 3336 2437 71
16686 3336 3005 9
16687 3336 1790 85
16688 3337 415 60
16689 3337 2876 100
16690 3337 2429 43
16691 3337 912 40
16692 3337 2128 72
16693 3338 3930 12
16694 3338 761 37
16695 3338 3351 38
16696 3339 2623 17
16697 3339 3137 84
16698 3339 447 92
16699 3340 424 32
16700 3340 2688 29
16701 3340 892 45
16702 3340 423 20
16703 3340 2765 86
16704 3341 1309 13
16705 3341 2324 41
16706 3341 2855 52
16707 3341 1637 7
16708 3342 1494 19
16709 3342 1383 28
16710 3342 2054 86
16711 3343 411 82
16712 3343 3118 22
16713 3343 1706 39
16714 3343 2800 64
16715 3343 3835 40
16716 3344 3365 51
16717 3344 1893 68
16718 3344 328 62
16719 3344 417 73
16720 3345 3094 17
16721 3345 2486 64
16722 3345 3178 11
16723 3345 3866 71
16724 3345 2761 45
16725 3345 1696 46
16726 3345 1370 95
16727 3346 2909 10
16728 3346 1051 30
16729 3346 3957 60
16730 3346 3299 7
16731 3346 2970 27
16732 3346 2038 90
16733 3346 3518 45
16734 3346 3084 91
16735 3347 3441 95
16736 3347 872 75
16737 3347 2594 58
16738 3347 3831 77
16739 3347 2037 59
16740 3348 765 70
16741 3348 3410 94
16742 3348 2784 3
16743 3348 2379 72
16744 3349 3227 64
16745 3349 622 65
16746 3350 793 82
16747 3350 3640 38
16748 3350 3806 13
16749 3351 2699 59
16750 3351 484 66
16751 3351 2986 54
16752 3351 1407 61
16753 3351 177 80
16754 3352 577 84
16755 3352 1825 29
16756 3352 1458 79
16757 3352 85 99
16758 3353 533 28
16759 3353 944 56
16760 3354 3327 77
16761 3354 3076 29
16762 3354 3394 74
16763 3354 1759 39
16764 3354 1491 95
16765 3354 1271 96
16766 3355 507 77
16767 3355 2518 76
16768 3355 3705 85
16769 3355 3461 43
16770 3355 1450 63
16771 3355 82 24
16772 3355 1715 4
16773 3355 1050 17
16774 3355 2213 7
16775 3355 1446 27
16776 3356 874 41
16777 3356 617 21
16778 3357 1465 16
16779 3357 2906 8
16780 3357 2585 39
16781 3358 3269 70
16782 3358 1081 13
16783 3358 1041 16
16784 3358 1387 34
16785 3359 2599 54
16786 3359 3560 68
16787 3359 2740 81
16788 3360 1295 12
16789 3360 2206 32
16790 3360 568 69
16791 3361 2142 76
16792 3361 589 93
16793 3361 1534 30
16794 3362 3170 32
16795 3362 1560 10
16796 3364 2924 28
16797 3364 1703 68
16798 3364 2844 56
16799 3364 1092 26
16800 3364 3447 88
16801 3364 2009 85
16802 3364 1759 37
16803 3365 482 74
16804 3365 640 18
16805 3365 1821 28
16806 3365 935 42
16807 3365 3279 89
16808 3366 1752 87
16809 3366 2959 89
16810 3366 3444 99
16811 3366 3072 18
16812 3367 17 96
16813 3367 3347 36
16814 3367 486 78
16815 3367 2297 26
16816 3367 1505 63
16817 3367 2366 96
16818 3367 947 15
16819 3368 1996 6
16820 3368 3015 36
16821 3368 667 13
16822 3369 2049 60
16823 3369 1511 51
16824 3370 6 24
16825 3370 76 72
16826 3370 106 43
16827 3370 3178 90
16828 3370 2216 14
16829 3371 1955 1
16830 3371 3419 32
16831 3371 2435 84
16832 3371 778 1
16833 3371 3006 10
16834 3371 343 53
16835 3372 2289 36
16836 3372 543 6
16837 3372 2757 95
16838 3373 3408 35
16839 3373 2709 4
16840 3373 3677 30
16841 3373 324 79
16842 3374 3829 90
16843 3374 253 60
16844 3374 2158 97
16845 3374 2979 85
16846 3374 2406 52
16847 3374 1625 17
16848 3374 1939 15
16849 3375 2642 15
16850 3375 2710 68
16851 3375 723 72
16852 3375 1546 3
16853 3375 1493 56
16854 3375 2153 79
16855 3376 1702 5
16856 3376 2690 36
16857 3376 1212 32
16858 3376 210 65
16859 3377 808 76
16860 3377 3670 11
16861 3377 3856 14
16862 3377 2129 39
16863 3377 1565 83
16864 3377 3247 66
16865 3377 1417 19
16866 3377 1912 9
16867 3378 454 78
16868 3378 3018 74
16869 3378 57 15
16870 3378 3949 22
16871 3378 1689 1
16872 3378 1807 49
16873 3378 3270 19
16874 3379 1133 33
16875 3379 2237 37
16876 3380 1479 9
16877 3381 3536 68
16878 3381 1562 41
16879 3381 3474 97
16880 3381 2883 3
16881 3381 1579 9
16882 3382 1063 86
16883 3382 2022 54
16884 3382 839 100
16885 3382 3442 54
16886 3382 3889 94
16887 3383 3607 38
16888 3383 3905 86
16889 3383 1772 11
16890 3383 44 44
16891 3383 369 3
16892 3383 2349 78
16893 3383 1079 79
16894 3383 2822 48
16895 3384 2938 64
16896 3384 575 95
16897 3384 3991 43
16898 3384 1611 50
16899 3384 3554 68
16900 3384 889 12
16901 3384 2179 10
16902 3385 1759 83
16903 3385 223 30
16904 3385 2929 33
16905 3385 3276 29
16906 3385 709 10
16907 3385 3869 44
16908 3385 2015 29
16909 3385 3878 24
16910 3385 3052 77
16911 3386 3777 29
16912 3386 459 13
16913 3386 1242 34
16914 3387 773 75
16915 3387 3272 30
16916 3387 3407 78
16917 3387 3675 18
16918 3387 3670 95
16919 3387 403 67
16920 3388 181 83
16921 3388 529 20
16922 3388 1716 100
16923 3388 1804 21
16924 3389 724 27
16925 3389 283 47
16926 3389 1086 91
16927 3389 2632 79
16928 3390 3989 52
16929 3390 1751 32
16930 3390 1294 36
16931 3391 1385 92
16932 3391 148 62
16933 3391 476 22
16934 3391 396 99
16935 3391 2566 55
16936 3391 2600 22
16937 3391 1585 94
16938 3392 1107 35
16939 3392 3242 57
16940 3392 2363 14
16941 3392 228 77
16942 3392 2355 98
16943 3392 2534 96
16944 3392 2099 30
16945 3392 448 74
16946 3393 931 13
16947 3393 2598 54
16948 3393 3211 41
16949 3393 803 22
16950 3393 2455 57
16951 3393 1121 87
16952 3393 2963 57
16953 3394 1929 96
16954 3394 1899 26
16955 3394 577 1
16956 3394 123 70
16957 3394 2910 61
16958 3394 3588 90
16959 3394 893 18
16960 3394 2399 87
16961 3394 1330 33
16962 3395 517 2
16963 3395 520 30
16964 3395 3464 51
16965 3396 3048 37
16966 3396 1426 68
16967 3396 2448 97
16968 3396 534 6
16969 3397 3691 2
16970 3397 2182 89
16971 3397 3289 22
16972 3397 378 86
16973 3397 1505 46
16974 3398 2503 85
16975 3398 1081 37
16976 3398 1492 2
16977 3398 3427 56
16978 3398 3436 91
16979 3399 2281 35
16980 3399 1752 96
16981 3399 1474 81
16982 3399 1852 86
16983 3399 3560 49
16984 3400 1909 86
16985 3400 657 59
16986 3400 3418 55
16987 3400 3352 47
16988 3400 2239 9
16989 3401 3879 63
16990 3401 2087 19
16991 3401 2078 62
16992 3401 3973 96
16993 3401 3225 64
16994 3402 3212 91
16995 3402 1264 41
16996 3402 762 97
16997 3402 648 29
16998 3403 3415 21
16999 3403 1630 74
17000 3403 3402 15
17001 3403 3178 17
17002 3403 3106 27
17003 3403 523 82
17004 3404 1770 50
17005 3404 3035 42
17006 3404 970 95
17007 3404 850 43
17008 3405 3228 56
17009 3405 1800 38
17010 3405 3743 34
17011 3405 1258 14
17012 3405 1201 34
17013 3406 3566 76
17014 3406 3107 26
17015 3406 1706 1
17016 3406 284 4
17017 3407 3997 10
17018 3407 367 95
17019 3407 2662 48
17020 3407 2870 79
17021 3407 2358 1
17022 3408 2356 28
17023 3408 313 72
17024 3408 1525 24
17025 3408 2473 33
17026 3409 3179 2
17027 3409 3162 31
17028 3409 1360 7
17029 3409 776 75
17030 3409 671 22
17031 3409 3211 18
17032 3409 2485 87
17033 3410 505 65
17034 3410 3259 29
17035 3410 1193 40
17036 3410 1998 26
17037 3410 438 50
17038 3410 1846 35
17039 3410 3841 39
17040 3410 2846 48
17041 3410 1837 50
17042 3411 2311 55
17043 3411 2172 26
17044 3411 65 3
17045 3411 2785 76
17046 3412 877 84
17047 3412 1369 6
17048 3412 3814 49
17049 3412 1281 55
17050 3412 3358 74
17051 3413 3984 41
17052 3413 202 71
17053 3413 2310 7
17054 3413 3055 96
17055 3413 2132 37
17056 3414 2360 99
17057 3414 3914 79
17058 3414 1879 35
17059 3414 1521 3
17060 3415 2439 51
17061 3415 3106 53
17062 3415 2464 39
17063 3415 3274 40
17064 3415 1992 53
17065 3415 516 48
17066 3416 3245 9
17067 3416 1339 43
17068 3416 3680 60
17069 3416 3104 13
17070 3416 655 63
17071 3416 3411 85
17072 3416 3658 74
17073 3417 2197 20
17074 3417 799 89
17075 3417 3411 30
17076 3417 3318 7
17077 3417 1255 2
17078 3417 2094 18
17079 3417 31 68
17080 3417 2974 65
17081 3417 2339 26
17082 3417 764 36
17083 3417 3519 74
17084 3418 1133 85
17085 3418 2333 17
17086 3418 2944 69
17087 3418 3224 35
17088 3418 681 38
17089 3418 2924 43
17090 3418 2967 42
17091 3419 3069 97
17092 3419 1827 6
17093 3419 1833 61
17094 3419 2530 40
17095 3419 2547 83
17096 3419 2840 22
17097 3420 455 80
17098 3420 257 87
17099 3420 2584 66
17100 3421 1341 19
17101 3421 55 70
17102 3421 2808 3
17103 3421 3769 26
17104 3422 1665 92
17105 3422 1891 63
17106 3422 134 75
17107 3423 2851 88
17108 3423 3478 36
17109 3423 2215 35
17110 3424 811 4
17111 3424 2469 7
17112 3424 3339 2
17113 3424 1671 9
17114 3424 851 1
17115 3425 2812 43
17116 3425 3421 56
17117 3425 3478 68
17118 3425 2657 74
17119 3425 2553 62
17120 3425 396 61
17121 3426 2662 77
17122 3426 1477 7
17123 3426 1803 29
17124 3426 3110 93
17125 3426 3707 56
17126 3427 988 33
17127 3427 3860 78
17128 3427 1789 49
17129 3427 2857 39
17130 3427 157 39
17131 3428 3976 18
17132 3428 1343 86
17133 3428 2007 20
17134 3428 469 15
17135 3428 2365 52
17136 3429 1101 75
17137 3429 3070 53
17138 3429 3054 88
17139 3429 2364 67
17140 3430 3675 78
17141 3430 1898 22
17142 3430 3015 89
17143 3430 2430 65
17144 3431 3801 56
17145 3431 1064 73
17146 3431 3194 63
17147 3431 3690 75
17148 3431 3138 59
17149 3431 3675 75
17150 3432 421 30
17151 3432 2929 38
17152 3432 1678 65
17153 3433 3710 41
17154 3433 2814 80
17155 3433 1290 56
17156 3433 1409 25
17157 3434 1036 47
17158 3434 3699 61
17159 3434 2563 17
17160 3434 3189 17
17161 3434 570 86
17162 3434 2057 26
17163 3434 3250 93
17164 3435 1604 11
17165 3435 450 41
17166 3435 2102 17
17167 3435 3947 100
17168 3435 2810 87
17169 3436 740 52
17170 3436 403 5
17171 3436 1331 47
17172 3436 1452 89
17173 3436 2470 59
17174 3436 3786 76
17175 3437 2305 37
17176 3437 3910 71
17177 3437 3972 9
17178 3437 27 41
17179 3437 333 59
17180 3437 3941 41
17181 3437 1145 68
17182 3437 2903 16
17183 3438 876 4
17184 3438 2965 5
17185 3438 2548 10
17186 3438 1766 96
17187 3438 3331 48
17188 3438 3660 40
17189 3439 1398 40
17190 3439 1328 59
17191 3439 3899 47
17192 3439 3087 9
17193 3439 900 23
17194 3439 3876 34
17195 3440 1273 48
17196 3440 385 63
17197 3440 3299 31
17198 3440 3610 62
17199 3440 467 87
17200 3440 1438 73
17201 3441 2004 90
17202 3441 443 70
17203 3441 941 35
17204 3441 605 66
17205 3441 3124 5
17206 3442 239 91
17207 3442 2112 8
17208 3442 959 19
17209 3442 1618 1
17210 3442 892 88
17211 3443 1957 29
17212 3443 3860 22
17213 3443 1044 67
17214 3443 2133 64
17215 3443 1802 83
17216 3443 410 98
17217 3443 1259 7
17218 3444 779 57
17219 3444 987 67
17220 3444 829 100
17221 3444 3386 74
17222 3444 2009 50
17223 3444 3506 92
17224 3444 1202 9
17225 3444 2031 62
17226 3444 1588 68
17227 3444 3837 93
17228 3444 2079 98
17229 3445 2866 31
17230 3445 2068 20
17231 3445 696 85
17232 3446 1351 18
17233 3446 3627 48
17234 3446 1964 86
17235 3446 1328 8
17236 3446 3146 77
17237 3446 1756 91
17238 3447 3448 14
17239 3447 2256 48
17240 3448 2681 93
17241 3448 2190 47
17242 3448 2337 58
17243 3448 2913 30
17244 3448 1479 21
17245 3448 550 23
17246 3448 3380 19
17247 3449 1514 24
17248 3449 1477 32
17249 3449 2993 90
17250 3450 1500 18
17251 3450 714 52
17252 3450 1718 5
17253 3450 1890 12
17254 3450 3467 59
17255 3451 3649 46
17256 3451 3579 37
17257 3451 600 19
17258 3451 3875 51
17259 3451 1203 80
17260 3451 3371 94
17261 3451 927 91
17262 3452 3332 68
17263 3452 2662 67
17264 3452 2417 100
17265 3452 3413 27
17266 3452 952 22
17267 3452 2057 8
17268 3453 2272 79
17269 3453 272 74
17270 3454 922 81
17271 3454 480 11
17272 3454 1363 18
17273 3454 1357 35
17274 3454 3081 20
17275 3454 928 27
17276 3454 2431 40
17277 3454 3025 71
17278 3454 1574 25
17279 3454 3752 84
17280 3454 1254 80
17281 3455 1930 83
17282 3455 3356 97
17283 3456 1453 5
17284 3456 610 93
17285 3456 861 54
17286 3456 389 11
17287 3456 2320 91
17288 3456 1479 67
17289 3456 2209 35
17290 3456 1173 99
17291 3457 2631 43
17292 3457 519 52
17293 3457 544 90
17294 3457 449 91
17295 3457 2191 62
17296 3458 3858 19
17297 3458 2281 57
17298 3458 3717 66
17299 3458 1771 45
17300 3459 2005 62
17301 3459 801 26
17302 3459 2906 3
17303 3459 2122 18
17304 3459 1743 91
17305 3459 35 92
17306 3460 351 27
17307 3460 3052 85
17308 3460 3559 96
17309 3460 341 76
17310 3460 178 38
17311 3460 4 72
17312 3461 1233 38
17313 3461 514 62
17314 3462 3972 90
17315 3462 3958 57
17316 3462 2609 11
17317 3462 2932 35
17318 3462 3613 51
17319 3462 332 61
17320 3463 2599 30
17321 3463 253 27
17322 3463 3003 83
17323 3463 3853 76
17324 3464 2673 93
17325 3464 412 93
17326 3464 1405 7
17327 3464 2516 80
17328 3464 2351 20
17329 3464 3929 16
17330 3464 1354 32
17331 3464 215 96
17332 3465 3152 57
17333 3465 394 6
17334 3465 3182 15
17335 3465 851 67
17336 3465 3046 28
17337 3465 119 21
17338 3466 1268 63
17339 3466 2426 34
17340 3467 1076 2
17341 3467 3282 25
17342 3467 2412 15
17343 3468 1950 56
17344 3468 1051 76
17345 3468 1653 37
17346 3468 3577 82
17347 3469 959 95
17348 3469 1230 62
17349 3469 3244 35
17350 3469 2568 31
17351 3469 3939 34
17352 3469 2963 11
17353 3470 2184 69
17354 3470 1310 68
17355 3470 1597 15
17356 3470 1124 98
17357 3470 3640 97
17358 3470 1184 47
17359 3470 2668 81
17360 3470 1766 58
17361 3471 1917 84
17362 3471 1726 55
17363 3471 877 87
17364 3471 2007 98
17365 3472 1188 48
17366 3472 2318 11
17367 3472 1579 48
17368 3472 2910 8
17369 3473 178 19
17370 3473 2971 13
17371 3473 2485 66
17372 3473 2987 52
17373 3473 1242 34
17374 3473 3581 44
17375 3473 3778 78
17376 3474 3027 72
17377 3475 3395 18
17378 3475 1374 12
17379 3475 1021 74
17380 3475 1520 39
17381 3475 227 15
17382 3476 1865 47
17383 3476 616 11
17384 3476 1581 61
17385 3476 3645 53
17386 3476 1664 98
17387 3476 555 32
17388 3476 3471 66
17389 3476 2308 53
17390 3477 3364 12
17391 3477 2772 71
17392 3477 2338 84
17393 3477 1778 79
17394 3477 1901 4
17395 3477 575 71
17396 3478 82 45
17397 3478 737 39
17398 3478 1269 2
17399 3478 2499 81
17400 3478 1652 29
17401 3478 1752 8
17402 3478 3914 25
17403 3478 2063 19
17404 3479 417 46
17405 3479 3215 29
17406 3480 1787 48
17407 3480 3150 42
17408 3480 1229 43
17409 3480 237 76
17410 3480 2525 78
17411 3480 160 93
17412 3481 1652 47
17413 3481 2920 26
17414 3481 1860 77
17415 3482 2781 58
17416 3482 555 24
17417 3482 1474 2
17418 3482 2940 99
17419 3482 1024 91
17420 3482 1232 97
17421 3482 3288 90
17422 3482 2806 42
17423 3483 2975 53
17424 3483 3998 3
17425 3483 3074 1
17426 3483 2405 82
17427 3483 3058 54
17428 3484 2176 91
17429 3484 1639 97
17430 3484 3105 38
17431 3484 654 18
17432 3485 2701 1
17433 3485 3949 78
17434 3485 2599 23
17435 3485 1169 19
17436 3485 857 47
17437 3486 1231 73
17438 3486 3433 63
17439 3486 390 32
17440 3486 2977 80
17441 3486 3297 54
17442 3487 173 60
17443 3487 456 7
17444 3487 1385 58
17445 3488 2914 12
17446 3488 1993 6
17447 3488 3409 50
17448 3488 1712 91
17449 3488 1985 3
17450 3489 3492 13
17451 3489 2567 96
17452 3489 2158 97
17453 3489 335 11
17454 3490 1474 91
17455 3490 383 30
17456 3490 2063 81
17457 3491 1202 1
17458 3491 3138 29
17459 3491 999 18
17460 3492 268 21
17461 3492 2308 28
17462 3492 1477 86
17463 3492 3178 21
17464 3493 647 32
17465 3493 2651 46
17466 3493 2567 91
17467 3494 416 40
17468 3494 3642 29
17469 3494 1868 26
17470 3495 851 89
17471 3495 1943 64
17472 3495 1692 93
17473 3495 802 34
17474 3495 2631 41
17475 3495 1291 27
17476 3495 951 56
17477 3496 2343 90
17478 3496 3246 43
17479 3496 411 52
17480 3496 2050 5
17481 3496 1363 18
17482 3496 17 50
17483 3497 2521 61
17484 3497 3694 91
17485 3497 3517 40
17486 3498 837 13
17487 3498 1231 23
17488 3498 1834 11
17489 3498 2114 51
17490 3498 1686 29
17491 3498 152 66
17492 3498 499 22
17493 3499 484 33
17494 3499 176 41
17495 3499 3573 75
17496 3499 2843 49
17497 3499 1660 24
17498 3499 3802 22
17499 3500 1114 30
17500 3501 2789 80
17501 3501 3839 82
17502 3501 1813 63
17503 3501 1084 19
17504 3501 1694 36
17505 3501 3598 89
17506 3501 3772 69
17507 3502 2156 34
17508 3502 348 28
17509 3502 2887 74
17510 3502 2000 55
17511 3503 61 93
17512 3503 913 95
17513 3503 2213 90
17514 3503 3099 93
17515 3503 1810 7
17516 3504 3582 77
17517 3504 3975 76
17518 3504 3120 49
17519 3504 640 90
17520 3505 1136 7
17521 3505 1759 59
17522 3505 2960 75
17523 3505 3362 25
17524 3505 42 75
17525 3506 696 11
17526 3506 1289 1
17527 3506 724 45
17528 3506 3833 13
17529 3506 1445 46
17530 3506 494 81
17531 3507 1999 4
17532 3507 840 95
17533 3507 3752 59
17534 3507 1 9
17535 3507 3231 81
17536 3507 1128 8
17537 3508 2829 68
17538 3508 1743 10
17539 3508 3718 53
17540 3508 3166 97
17541 3508 3644 48
17542 3508 450 26
17543 3508 1164 89
17544 3508 1239 44
17545 3508 1473 74
17546 3509 3212 91
17547 3509 2469 85
17548 3509 3531 69
17549 3509 3677 47
17550 3509 3929 94
17551 3510 342 85
17552 3510 1727 9
17553 3510 2828 100
17554 3510 1327 47
17555 3510 2761 83
17556 3510 1079 26
17557 3510 1507 81
17558 3511 1832 20
17559 3511 3141 8
17560 3511 624 92
17561 3511 3876 79
17562 3512 3680 22
17563 3512 983 72
17564 3512 3268 30
17565 3512 871 84
17566 3512 1918 48
17567 3513 620 31
17568 3513 1388 35
17569 3513 761 20
17570 3513 3028 84
17571 3514 2780 36
17572 3514 3975 82
17573 3514 766 78
17574 3514 3676 43
17575 3515 627 2
17576 3515 192 91
17577 3515 1675 11
17578 3516 3449 41
17579 3516 492 22
17580 3516 1578 92
17581 3516 1852 94
17582 3516 2300 88
17583 3516 1268 69
17584 3516 754 2
17585 3516 1285 7
17586 3516 3314 94
17587 3517 3212 54
17588 3517 3155 34
17589 3517 278 68
17590 3517 956 53
17591 3517 1334 16
17592 3517 2046 81
17593 3517 664 41
17594 3517 2340 58
17595 3518 3815 85
17596 3518 398 59
17597 3518 3783 76
17598 3518 1598 75
17599 3518 1099 28
17600 3519 1090 87
17601 3519 1706 24
17602 3519 179 35
17603 3520 2713 52
17604 3520 1315 91
17605 3520 1836 80
17606 3520 3470 84
17607 3520 845 52
17608 3520 3101 89
17609 3520 3159 35
17610 3521 3279 78
17611 3521 2291 22
17612 3521 1624 67
17613 3521 2781 76
17614 3521 541 56
17615 3521 1264 26
17616 3521 1540 99
17617 3521 1089 68
17618 3521 3300 80
17619 3522 337 84
17620 3522 1056 73
17621 3522 786 74
17622 3523 3042 53
17623 3523 3330 66
17624 3523 1853 2
17625 3523 96 14
17626 3524 2209 24
17627 3524 3056 91
17628 3524 2441 54
17629 3524 754 49
17630 3525 2418 73
17631 3525 2349 93
17632 3526 3527 79
17633 3526 1387 25
17634 3526 194 7
17635 3526 1982 5
17636 3527 2666 41
17637 3527 3630 40
17638 3527 869 58
17639 3527 1249 52
17640 3527 2956 36
17641 3528 2557 22
17642 3528 762 95
17643 3528 1496 37
17644 3528 2124 80
17645 3530 1396 35
17646 3530 494 40
17647 3530 6 19
17648 3530 1696 95
17649 3530 3311 72
17650 3531 3477 23
17651 3531 3110 70
17652 3531 405 12
17653 3531 3758 66
17654 3531 3945 25
17655 3531 516 20
17656 3531 803 44
17657 3531 1632 47
17658 3532 1122 11
17659 3532 3012 21
17660 3532 3144 49
17661 3533 3080 51
17662 3533 925 94
17663 3533 2105 77
17664 3534 1352 9
17665 3534 609 62
17666 3534 3809 83
17667 3534 3742 69
17668 3534 3732 24
17669 3534 1271 57
17670 3535 3474 21
17671 3535 730 78
17672 3535 1005 59
17673 3536 3137 24
17674 3536 2158 15
17675 3536 1714 31
17676 3536 809 56
17677 3537 1214 79
17678 3537 3702 89
17679 3537 1219 3
17680 3537 1157 72
17681 3537 2706 51
17682 3537 957 55
17683 3537 2999 3
17684 3537 3795 22
17685 3537 1715 17
17686 3537 257 76
17687 3538 2289 52
17688 3538 649 30
17689 3538 624 10
17690 3538 3404 53
17691 3538 102 46
17692 3539 2570 7
17693 3539 469 15
17694 3539 529 92
17695 3539 519 24
17696 3539 2031 36
17697 3540 910 8
17698 3540 3983 38
17699 3540 272 86
17700 3540 105 2
17701 3540 1380 96
17702 3540 213 87
17703 3540 3801 27
17704 3540 1086 40
17705 3540 1618 13
17706 3540 1684 62
17707 3541 2373 54
17708 3541 70 1
17709 3541 3494 86
17710 3542 3826 87
17711 3542 3504 79
17712 3542 1052 63
17713 3542 3868 15
17714 3543 2369 26
17715 3543 3655 64
17716 3543 1609 62
17717 3543 624 62
17718 3543 3262 80
17719 3544 2549 28
17720 3544 2885 67
17721 3544 3232 49
17722 3544 1849 39
17723 3544 3749 3
17724 3544 2233 34
17725 3544 3472 60
17726 3544 72 4
17727 3545 3751 35
17728 3545 973 20
17729 3545 119 6
17730 3545 929 85
17731 3545 439 70
17732 3545 67 55
17733 3545 2092 52
17734 3545 3027 93
17735 3546 314 39
17736 3546 2538 64
17737 3546 1168 96
17738 3546 521 68
17739 3547 2429 54
17740 3547 3565 25
17741 3547 522 47
17742 3547 383 90
17743 3547 220 76
17744 3548 2619 88
17745 3548 2976 35
17746 3548 2491 32
17747 3548 683 2
17748 3548 3770 90
17749 3549 3139 90
17750 3549 2031 10
17751 3549 2170 20
17752 3549 1697 17
17753 3549 2397 50
17754 3549 2852 78
17755 3549 3437 39
17756 3549 264 16
17757 3549 2774 42
17758 3550 135 32
17759 3550 1790 85
17760 3551 3040 42
17761 3551 675 33
17762 3551 269 26
17763 3551 1376 16
17764 3551 125 65
17765 3551 3067 61
17766 3551 1609 2
17767 3551 3795 83
17768 3552 3000 83
17769 3552 152 45
17770 3552 1991 97
17771 3552 23 6
17772 3552 3979 80
17773 3552 590 71
17774 3553 230 21
17775 3553 718 19
17776 3553 1172 9
17777 3553 3869 97
17778 3554 410 53
17779 3554 2400 18
17780 3554 1595 93
17781 3555 3433 48
17782 3555 1060 80
17783 3555 3876 29
17784 3556 3595 23
17785 3556 1860 24
17786 3556 2595 36
17787 3556 3199 2
17788 3556 1518 91
17789 3557 1065 100
17790 3557 3381 67
17791 3557 677 38
17792 3558 713 82
17793 3558 2951 3
17794 3558 81 84
17795 3559 2969 64
17796 3559 3055 38
17797 3560 2010 74
17798 3560 2345 26
17799 3560 342 68
17800 3560 2796 32
17801 3561 1487 34
17802 3561 624 11
17803 3561 268 53
17804 3562 776 18
17805 3562 814 32
17806 3562 558 97
17807 3563 3702 19
17808 3563 1882 42
17809 3563 2777 83
17810 3563 728 97
17811 3563 1722 18
17812 3563 964 66
17813 3563 3527 64
17814 3564 305 36
17815 3564 2463 40
17816 3564 1720 4
17817 3564 3716 18
17818 3564 3655 73
17819 3564 3234 15
17820 3565 479 26
17821 3565 2953 27
17822 3565 1995 18
17823 3565 375 20
17824 3566 1250 62
17825 3566 2982 55
17826 3566 815 3
17827 3566 11 27
17828 3566 3346 76
17829 3567 266 24
17830 3567 2149 16
17831 3567 856 73
17832 3568 1612 14
17833 3568 1094 53
17834 3568 2262 42
17835 3568 1755 65
17836 3569 3642 97
17837 3569 2419 5
17838 3569 3098 50
17839 3569 1387 34
17840 3569 3684 28
17841 3570 442 81
17842 3570 3378 66
17843 3570 3638 48
17844 3570 3065 43
17845 3571 3351 95
17846 3571 1912 9
17847 3571 933 18
17848 3572 2513 79
17849 3572 1859 75
17850 3572 3956 65
17851 3572 209 55
17852 3572 3362 52
17853 3572 646 90
17854 3573 1745 31
17855 3573 353 15
17856 3573 26 67
17857 3573 976 88
17858 3573 3596 4
17859 3573 740 42
17860 3574 2465 66
17861 3574 63 32
17862 3574 2844 2
17863 3575 1323 79
17864 3575 325 58
17865 3575 3470 51
17866 3575 1908 75
17867 3575 1161 4
17868 3575 1561 85
17869 3575 964 38
17870 3576 136 49
17871 3576 1130 26
17872 3576 1760 41
17873 3577 3125 3
17874 3577 3099 64
17875 3577 699 61
17876 3577 3133 30
17877 3578 1213 96
17878 3578 3200 14
17879 3578 2559 71
17880 3578 1299 69
17881 3578 761 44
17882 3578 2596 80
17883 3578 1663 31
17884 3578 1512 60
17885 3579 3639 59
17886 3579 3285 47
17887 3579 3866 31
17888 3580 1837 28
17889 3580 1414 45
17890 3580 135 77
17891 3580 2725 86
17892 3580 3642 89
17893 3580 2367 33
17894 3580 1057 82
17895 3580 1986 6
17896 3581 2154 73
17897 3581 2856 41
17898 3581 1190 84
17899 3581 1985 84
17900 3581 2863 32
17901 3582 23 25
17902 3582 2970 22
17903 3582 3494 83
17904 3582 1433 35
17905 3582 3343 87
17906 3582 1523 81
17907 3582 258 95
17908 3583 2658 32
17909 3583 2485 26
17910 3583 2772 93
17911 3583 228 42
17912 3583 1721 3
17913 3583 2954 51
17914 3583 2698 74
17915 3583 3414 97
17916 3585 2933 68
17917 3585 344 99
17918 3585 2113 38
17919 3585 2959 39
17920 3585 334 32
17921 3585 2977 28
17922 3585 1169 94
17923 3585 312 67
17924 3585 1111 80
17925 3586 1410 3
17926 3586 1389 21
17927 3586 689 42
17928 3586 2930 35
17929 3586 2850 64
17930 3586 2420 96
17931 3586 1154 12
17932 3586 1909 85
17933 3587 361 23
17934 3588 2663 61
17935 3588 1446 70
17936 3588 515 1
17937 3588 1870 51
17938 3589 1546 49
17939 3589 479 33
17940 3589 2322 97
17941 3589 2631 40
17942 3589 2259 71
17943 3589 420 47
17944 3590 964 83
17945 3590 1492 53
17946 3590 3933 62
17947 3590 753 71
17948 3591 424 89
17949 3591 2690 49
17950 3591 1623 66
17951 3591 3187 77
17952 3592 868 22
17953 3592 494 51
17954 3592 1376 96
17955 3592 3260 65
17956 3592 973 46
17957 3592 282 92
17958 3592 3919 41
17959 3593 1682 15
17960 3593 1443 19
17961 3593 828 62
17962 3593 690 99
17963 3593 2197 7
17964 3593 2738 95
17965 3593 1612 13
17966 3594 2945 14
17967 3594 1692 68
17968 3595 2528 92
17969 3595 3845 27
17970 3595 3125 54
17971 3596 1800 8
17972 3596 1918 51
17973 3596 522 29
17974 3596 944 93
17975 3596 3844 64
17976 3597 2270 2
17977 3597 3106 90
17978 3597 1589 84
17979 3598 1576 94
17980 3598 3155 42
17981 3598 284 44
17982 3598 1871 40
17983 3598 1903 46
17984 3598 1481 53
17985 3599 2483 91
17986 3599 3345 44
17987 3599 134 14
17988 3599 3492 43
17989 3599 3394 35
17990 3600 208 81
17991 3600 3233 12
17992 3600 543 36
17993 3600 370 23
17994 3601 2190 29
17995 3601 1456 90
17996 3601 327 69
17997 3601 3384 54
17998 3601 2352 10
17999 3602 1939 40
18000 3602 3869 41
18001 3602 1680 3
18002 3603 260 78
18003 3603 2812 40
18004 3603 2927 16
18005 3603 2434 29
18006 3604 1590 82
18007 3604 1493 84
18008 3604 1623 72
18009 3604 3778 22
18010 3604 3527 20
18011 3604 2172 46
18012 3604 3966 99
18013 3604 14 66
18014 3605 3416 9
18015 3605 698 35
18016 3605 1169 92
18017 3605 2230 5
18018 3605 2379 11
18019 3605 1382 82
18020 3605 544 2
18021 3606 3529 14
18022 3606 24 86
18023 3606 3489 16
18024 3606 2611 74
18025 3606 2865 4
18026 3606 3414 45
18027 3606 2270 5
18028 3606 3075 85
18029 3607 2278 39
18030 3607 797 94
18031 3607 2178 40
18032 3608 1092 94
18033 3608 1605 22
18034 3609 3866 86
18035 3609 415 70
18036 3609 2352 14
18037 3609 2447 54
18038 3609 2042 40
18039 3609 171 41
18040 3610 2642 65
18041 3610 1808 89
18042 3610 1331 93
18043 3610 575 5
18044 3611 1323 84
18045 3611 1425 96
18046 3611 2793 68
18047 3611 3714 14
18048 3611 2023 5
18049 3612 2677 82
18050 3612 3175 94
18051 3612 3360 51
18052 3612 275 90
18053 3612 740 29
18054 3612 3767 43
18055 3612 3479 46
18056 3613 126 13
18057 3613 3020 75
18058 3613 1698 63
18059 3613 1748 19
18060 3613 1203 52
18061 3614 62 25
18062 3614 788 38
18063 3614 3861 91
18064 3614 1620 35
18065 3614 1921 46
18066 3614 45 41
18067 3614 1094 54
18068 3615 1989 48
18069 3615 3825 71
18070 3615 1485 21
18071 3615 2794 38
18072 3616 2550 64
18073 3616 859 54
18074 3616 511 72
18075 3617 1653 18
18076 3617 3094 89
18077 3618 869 93
18078 3618 3760 41
18079 3618 1942 69
18080 3619 2501 33
18081 3619 3707 46
18082 3619 567 76
18083 3619 2422 64
18084 3620 1219 18
18085 3620 182 20
18086 3620 2385 7
18087 3620 3422 48
18088 3621 3480 6
18089 3621 1054 16
18090 3621 698 88
18091 3621 2561 11
18092 3621 2318 50
18093 3621 1676 3
18094 3621 1638 3
18095 3622 3669 18
18096 3622 3813 55
18097 3622 3723 67
18098 3622 3454 39
18099 3622 2991 87
18100 3622 997 75
18101 3622 2565 56
18102 3622 2313 61
18103 3622 1027 59
18104 3622 3573 64
18105 3622 1706 56
18106 3623 1776 95
18107 3623 138 16
18108 3623 3798 75
18109 3623 720 23
18110 3623 2581 7
18111 3624 3485 17
18112 3624 2294 75
18113 3624 280 60
18114 3624 1759 52
18115 3625 1175 32
18116 3625 2545 57
18117 3625 1977 58
18118 3625 875 44
18119 3626 1603 45
18120 3626 1064 47
18121 3626 2591 85
18122 3626 95 100
18123 3626 290 57
18124 3626 1367 80
18125 3626 1218 39
18126 3627 3861 93
18127 3627 1502 30
18128 3627 2131 14
18129 3627 427 88
18130 3627 1375 88
18131 3627 3639 77
18132 3627 2827 25
18133 3628 1771 50
18134 3628 791 49
18135 3628 2243 57
18136 3628 153 12
18137 3628 3505 12
18138 3628 2855 52
18139 3629 2715 22
18140 3629 2752 46
18141 3629 530 26
18142 3629 2148 43
18143 3629 3134 23
18144 3629 1201 18
18145 3629 3383 78
18146 3630 922 30
18147 3630 2702 98
18148 3631 651 72
18149 3631 912 51
18150 3631 1545 22
18151 3631 1895 74
18152 3631 3355 84
18153 3631 3647 11
18154 3632 325 69
18155 3632 3568 61
18156 3632 494 82
18157 3632 3664 75
18158 3632 2662 26
18159 3632 288 85
18160 3632 38 95
18161 3632 1279 83
18162 3633 2351 88
18163 3633 2259 60
18164 3634 2293 44
18165 3634 3625 78
18166 3634 2784 99
18167 3634 1634 32
18168 3634 728 81
18169 3634 3060 59
18170 3634 2964 82
18171 3635 191 17
18172 3635 3470 62
18173 3635 1780 46
18174 3635 2193 13
18175 3635 3830 28
18176 3635 2436 10
18177 3635 2836 100
18178 3635 2860 100
18179 3635 700 42
18180 3636 1700 67
18181 3636 3098 95
18182 3637 2607 49
18183 3637 2475 19
18184 3637 2861 3
18185 3637 98 61
18186 3638 2320 10
18187 3638 3674 27
18188 3638 2991 68
18189 3638 2718 74
18190 3638 137 33
18191 3638 2453 61
18192 3639 3544 86
18193 3639 1292 60
18194 3639 2774 86
18195 3639 1202 71
18196 3639 2443 44
18197 3639 213 39
18198 3640 2878 82
18199 3640 1177 82
18200 3640 2008 7
18201 3640 10 57
18202 3640 1817 75
18203 3640 992 34
18204 3640 2314 45
18205 3640 3302 32
18206 3640 1318 79
18207 3641 20 28
18208 3641 2831 36
18209 3641 3993 11
18210 3641 748 14
18211 3642 3899 24
18212 3642 2752 28
18213 3642 2148 53
18214 3642 3173 39
18215 3642 1665 53
18216 3642 1607 89
18217 3643 2107 24
18218 3643 61 83
18219 3643 3718 70
18220 3643 1442 42
18221 3643 1970 7
18222 3643 404 49
18223 3644 122 74
18224 3644 2571 52
18225 3644 1212 59
18226 3644 3596 89
18227 3644 316 20
18228 3644 1168 93
18229 3644 3526 1
18230 3645 2776 51
18231 3645 1463 98
18232 3645 1368 35
18233 3645 1714 59
18234 3645 2452 40
18235 3645 1247 1
18236 3645 2545 92
18237 3645 432 44
18238 3645 1175 48
18239 3645 1221 91
18240 3646 2329 3
18241 3646 420 29
18242 3646 3780 61
18243 3647 1892 41
18244 3647 2361 2
18245 3647 2936 16
18246 3647 2894 95
18247 3647 183 53
18248 3648 935 1
18249 3648 551 42
18250 3648 3113 47
18251 3648 2302 63
18252 3648 2731 96
18253 3648 1264 6
18254 3648 465 36
18255 3649 3408 62
18256 3649 695 66
18257 3649 3574 58
18258 3649 2997 86
18259 3649 2830 9
18260 3650 634 17
18261 3650 1031 30
18262 3650 2353 62
18263 3650 3782 94
18264 3651 1308 96
18265 3651 560 23
18266 3652 704 72
18267 3652 1259 61
18268 3652 640 91
18269 3652 647 31
18270 3652 2784 47
18271 3653 3655 63
18272 3653 480 52
18273 3653 3366 67
18274 3653 3632 46
18275 3653 2461 56
18276 3653 188 33
18277 3654 1198 20
18278 3654 1749 80
18279 3654 913 53
18280 3654 3132 45
18281 3654 2988 28
18282 3655 437 97
18283 3655 3937 80
18284 3655 3903 75
18285 3655 3952 84
18286 3655 2627 76
18287 3655 1298 8
18288 3656 936 80
18289 3656 1836 41
18290 3656 3352 37
18291 3657 1874 61
18292 3657 1484 11
18293 3658 1248 64
18294 3658 3676 89
18295 3658 1775 57
18296 3658 726 33
18297 3658 2236 94
18298 3658 2630 13
18299 3658 1585 55
18300 3659 2688 68
18301 3659 1128 55
18302 3659 3048 63
18303 3660 1355 37
18304 3660 2327 89
18305 3660 2710 36
18306 3660 2679 68
18307 3660 3970 73
18308 3661 2487 80
18309 3661 3370 51
18310 3661 329 16
18311 3661 1818 89
18312 3661 2081 44
18313 3662 1494 14
18314 3662 1293 85
18315 3662 3940 84
18316 3662 2397 56
18317 3662 3016 2
18318 3662 2556 3
18319 3663 2010 72
18320 3663 1487 2
18321 3663 1351 33
18322 3663 469 37
18323 3663 2940 27
18324 3663 94 47
18325 3663 853 95
18326 3664 3164 69
18327 3664 3445 30
18328 3664 2328 44
18329 3665 2489 93
18330 3665 909 98
18331 3666 2259 14
18332 3666 2552 1
18333 3666 101 7
18334 3666 1195 54
18335 3666 253 86
18336 3666 369 61
18337 3667 2145 5
18338 3667 328 93
18339 3667 542 58
18340 3667 922 81
18341 3667 1953 56
18342 3667 3894 4
18343 3667 2499 32
18344 3667 1653 92
18345 3667 879 88
18346 3668 2218 34
18347 3668 604 98
18348 3668 554 47
18349 3668 2531 29
18350 3669 1267 3
18351 3669 856 5
18352 3669 962 84
18353 3669 2800 90
18354 3669 640 59
18355 3669 2211 82
18356 3669 2060 25
18357 3670 59 36
18358 3670 838 12
18359 3670 3808 47
18360 3670 2592 20
18361 3670 1555 62
18362 3670 612 36
18363 3670 1268 97
18364 3670 486 85
18365 3671 1970 20
18366 3671 1069 95
18367 3671 2616 11
18368 3671 2665 19
18369 3671 2641 69
18370 3671 1372 16
18371 3671 2880 32
18372 3672 971 26
18373 3672 3159 8
18374 3672 19 78
18375 3672 3111 38
18376 3673 1568 31
18377 3673 698 68
18378 3673 1048 8
18379 3674 1659 16
18380 3674 3151 97
18381 3674 1561 71
18382 3674 1678 8
18383 3674 2893 70
18384 3675 3867 63
18385 3675 1569 91
18386 3675 683 46
18387 3675 3960 99
18388 3675 3337 25
18389 3675 1227 59
18390 3675 1012 39
18391 3675 218 14
18392 3675 2601 23
18393 3676 2669 93
18394 3676 278 54
18395 3676 2588 3
18396 3676 2919 4
18397 3676 2625 21
18398 3676 2515 55
18399 3676 3518 81
18400 3677 247 94
18401 3677 1361 57
18402 3677 3281 35
18403 3678 1935 44
18404 3678 2630 88
18405 3678 850 97
18406 3678 2464 66
18407 3678 3351 50
18408 3678 2017 10
18409 3678 2650 67
18410 3678 1817 73
18411 3678 255 82
18412 3678 248 85
18413 3679 229 33
18414 3679 3686 17
18415 3679 1650 97
18416 3679 344 4
18417 3679 874 50
18418 3679 2184 20
18419 3679 1045 38
18420 3679 2962 69
18421 3680 1398 69
18422 3680 2719 59
18423 3680 1710 65
18424 3680 3151 17
18425 3680 2370 86
18426 3681 1634 4
18427 3681 3381 21
18428 3681 729 97
18429 3681 1720 72
18430 3681 2180 19
18431 3681 1822 45
18432 3682 195 25
18433 3682 1088 100
18434 3682 2894 97
18435 3683 2437 55
18436 3683 2108 45
18437 3683 3668 41
18438 3683 406 20
18439 3683 1166 20
18440 3684 3127 3
18441 3684 3144 41
18442 3685 432 25
18443 3685 3565 69
18444 3685 1687 37
18445 3685 1611 68
18446 3686 2854 8
18447 3687 2593 30
18448 3687 2152 2
18449 3688 3603 23
18450 3689 1119 46
18451 3689 1249 14
18452 3689 1379 45
18453 3689 2321 60
18454 3690 1637 100
18455 3690 3666 15
18456 3690 2387 51
18457 3690 731 9
18458 3691 3027 78
18459 3691 2159 44
18460 3691 1080 92
18461 3692 3171 39
18462 3692 1299 53
18463 3692 474 59
18464 3692 179 20
18465 3692 793 25
18466 3693 1084 77
18467 3693 175 2
18468 3693 2598 98
18469 3693 2823 85
18470 3693 659 37
18471 3693 411 39
18472 3694 952 14
18473 3694 3179 70
18474 3695 1221 47
18475 3695 1959 88
18476 3695 1421 5
18477 3695 1110 57
18478 3695 1722 9
18479 3695 1210 97
18480 3696 2722 10
18481 3696 3811 27
18482 3696 1893 65
18483 3696 888 26
18484 3697 258 84
18485 3697 3919 86
18486 3697 1123 45
18487 3697 1858 9
18488 3697 1430 34
18489 3697 1252 56
18490 3698 2220 32
18491 3698 2762 47
18492 3699 1024 38
18493 3699 3379 60
18494 3699 1216 52
18495 3700 2038 48
18496 3700 3768 69
18497 3700 2836 36
18498 3700 458 69
18499 3700 2191 89
18500 3701 1890 93
18501 3701 2129 95
18502 3701 125 71
18503 3702 32 99
18504 3702 1139 42
18505 3703 347 39
18506 3703 76 99
18507 3703 837 91
18508 3703 3184 94
18509 3703 2322 59
18510 3703 3583 53
18511 3704 3581 23
18512 3704 633 1
18513 3704 2338 55
18514 3704 3707 73
18515 3704 2307 30
18516 3705 1367 91
18517 3705 2303 83
18518 3705 1995 37
18519 3705 2074 100
18520 3706 684 66
18521 3706 2530 50
18522 3706 1992 63
18523 3706 2616 28
18524 3706 2318 59
18525 3707 3895 3
18526 3707 2843 87
18527 3707 2981 24
18528 3707 3565 14
18529 3708 3042 91
18530 3708 1335 77
18531 3709 386 62
18532 3709 2597 51
18533 3709 3303 16
18534 3709 1006 62
18535 3709 3226 34
18536 3709 3507 26
18537 3709 1529 18
18538 3709 204 54
18539 3710 308 39
18540 3710 2770 93
18541 3710 748 11
18542 3710 3948 62
18543 3711 3525 21
18544 3711 1294 87
18545 3711 2213 24
18546 3711 1851 47
18547 3711 1547 47
18548 3712 136 16
18549 3712 519 38
18550 3712 3548 45
18551 3712 716 71
18552 3712 3405 66
18553 3712 1904 43
18554 3712 3506 3
18555 3713 3675 16
18556 3713 3796 70
18557 3713 2573 24
18558 3713 396 75
18559 3713 1202 75
18560 3714 8 73
18561 3714 653 2
18562 3714 3391 79
18563 3714 216 12
18564 3714 1082 2
18565 3714 3930 14
18566 3714 2838 8
18567 3714 894 22
18568 3715 810 49
18569 3715 454 32
18570 3715 2137 75
18571 3716 2148 88
18572 3716 1762 6
18573 3716 2262 2
18574 3716 2278 86
18575 3716 3210 14
18576 3716 1099 78
18577 3716 3200 75
18578 3717 2110 4
18579 3717 2359 58
18580 3717 1812 93
18581 3717 242 30
18582 3717 1533 73
18583 3717 2527 35
18584 3717 2939 72
18585 3717 184 97
18586 3717 3690 72
18587 3718 485 32
18588 3718 637 40
18589 3718 3482 1
18590 3718 3850 28
18591 3718 3927 77
18592 3719 3212 5
18593 3719 2144 55
18594 3719 3750 87
18595 3719 1130 1
18596 3719 2500 58
18597 3719 476 85
18598 3719 2843 61
18599 3720 3095 9
18600 3720 2527 69
18601 3720 1272 60
18602 3720 1998 23
18603 3721 790 77
18604 3721 279 63
18605 3721 1982 7
18606 3721 717 25
18607 3721 357 34
18608 3722 897 41
18609 3722 515 8
18610 3722 3717 87
18611 3723 3081 48
18612 3724 3130 70
18613 3724 3886 98
18614 3725 1371 81
18615 3725 1900 65
18616 3725 1706 95
18617 3725 1252 22
18618 3725 49 86
18619 3726 3285 6
18620 3726 1813 22
18621 3726 1571 33
18622 3727 3865 33
18623 3727 1409 52
18624 3727 403 86
18625 3727 1831 99
18626 3727 480 76
18627 3727 2112 37
18628 3727 2626 81
18629 3727 2393 27
18630 3728 456 79
18631 3728 1832 81
18632 3729 2426 98
18633 3729 2348 98
18634 3730 2111 61
18635 3730 1499 38
18636 3730 2538 24
18637 3730 2834 20
18638 3730 1760 42
18639 3730 3255 63
18640 3731 2995 63
18641 3731 2069 76
18642 3731 2241 94
18643 3731 3228 66
18644 3732 396 29
18645 3732 2648 2
18646 3732 3110 40
18647 3732 192 83
18648 3732 2793 17
18649 3732 612 14
18650 3732 2827 36
18651 3732 3444 42
18652 3733 3985 27
18653 3733 1657 66
18654 3733 2858 21
18655 3733 557 26
18656 3733 3783 31
18657 3733 1752 22
18658 3733 3565 12
18659 3733 1834 28
18660 3734 836 92
18661 3734 3010 5
18662 3734 3271 9
18663 3734 3412 76
18664 3734 1130 28
18665 3734 3787 71
18666 3735 3062 100
18667 3735 2858 50
18668 3735 3972 82
18669 3735 799 66
18670 3735 2587 100
18671 3736 641 21
18672 3736 2155 18
18673 3736 206 51
18674 3736 653 60
18675 3736 614 23
18676 3737 1601 32
18677 3737 637 44
18678 3737 3672 54
18679 3737 3872 13
18680 3738 2057 9
18681 3738 1338 77
18682 3738 2048 37
18683 3738 1103 25
18684 3738 2950 53
18685 3738 3778 13
18686 3739 1035 37
18687 3739 721 63
18688 3739 293 42
18689 3739 322 50
18690 3739 231 18
18691 3739 3866 76
18692 3739 1978 58
18693 3739 150 72
18694 3739 2899 70
18695 3739 1097 20
18696 3740 1630 32
18697 3740 2734 46
18698 3740 2523 44
18699 3740 3033 27
18700 3741 2540 10
18701 3741 807 69
18702 3741 3976 83
18703 3742 952 92
18704 3742 3658 82
18705 3742 274 33
18706 3743 2973 38
18707 3743 281 40
18708 3743 1432 91
18709 3743 415 50
18710 3743 1377 77
18711 3744 3431 6
18712 3744 3482 39
18713 3744 3197 66
18714 3744 230 68
18715 3744 3766 26
18716 3744 2530 43
18717 3744 3759 51
18718 3744 2470 26
18719 3745 1317 37
18720 3745 3539 63
18721 3745 3499 13
18722 3745 3948 56
18723 3745 1061 71
18724 3745 260 83
18725 3746 1127 68
18726 3746 1578 8
18727 3746 1871 14
18728 3747 1463 61
18729 3747 1263 59
18730 3747 2237 12
18731 3747 3054 8
18732 3748 3093 70
18733 3748 2566 95
18734 3748 2215 56
18735 3748 2025 77
18736 3748 937 51
18737 3748 1031 47
18738 3748 3003 34
18739 3749 3417 6
18740 3749 1642 51
18741 3749 824 47
18742 3749 3424 4
18743 3749 3099 7
18744 3749 2144 19
18745 3750 2010 26
18746 3750 494 48
18747 3750 3468 52
18748 3750 930 93
18749 3750 32 39
18750 3750 3551 100
18751 3750 3205 11
18752 3750 2868 39
18753 3750 3835 98
18754 3751 2985 5
18755 3751 1897 61
18756 3751 1333 59
18757 3752 2168 15
18758 3752 2097 33
18759 3752 3691 19
18760 3752 2858 11
18761 3752 611 91
18762 3753 2080 3
18763 3753 1569 41
18764 3753 1238 40
18765 3753 58 32
18766 3754 170 43
18767 3754 2109 96
18768 3754 3752 11
18769 3754 773 25
18770 3754 1616 57
18771 3755 674 13
18772 3755 167 65
18773 3755 2878 30
18774 3755 3491 91
18775 3755 1542 34
18776 3756 1080 76
18777 3756 96 81
18778 3756 416 63
18779 3756 618 90
18780 3756 3787 75
18781 3756 2416 74
18782 3756 2905 20
18783 3756 44 20
18784 3757 2391 79
18785 3757 1041 14
18786 3757 100 8
18787 3757 396 92
18788 3757 1462 70
18789 3759 2834 6
18790 3759 1441 57
18791 3759 12 58
18792 3759 2175 70
18793 3759 406 48
18794 3760 3116 86
18795 3760 2875 65
18796 3760 2422 100
18797 3761 1458 42
18798 3761 2218 79
18799 3761 448 81
18800 3761 2790 77
18801 3762 852 11
18802 3762 3413 87
18803 3762 454 79
18804 3762 1217 23
18805 3763 3748 66
18806 3763 1488 76
18807 3763 2884 87
18808 3763 828 87
18809 3763 2414 20
18810 3764 1086 16
18811 3764 3101 100
18812 3764 2820 60
18813 3764 21 56
18814 3765 2525 76
18815 3765 3543 55
18816 3765 3351 8
18817 3765 3257 30
18818 3765 715 69
18819 3765 3965 31
18820 3766 2183 34
18821 3766 2128 63
18822 3766 1658 68
18823 3766 1299 56
18824 3767 167 20
18825 3767 1756 53
18826 3767 436 36
18827 3767 806 55
18828 3767 3037 11
18829 3767 2328 93
18830 3767 2008 51
18831 3767 1099 16
18832 3767 2370 43
18833 3767 1181 84
18834 3768 1915 83
18835 3769 2200 7
18836 3769 308 9
18837 3769 1191 69
18838 3769 3707 53
18839 3769 3110 3
18840 3769 1245 44
18841 3769 739 2
18842 3770 1198 31
18843 3770 2057 42
18844 3770 603 5
18845 3770 2106 94
18846 3770 2718 97
18847 3771 2356 80
18848 3771 1747 2
18849 3771 2578 84
18850 3771 2617 64
18851 3772 1315 69
18852 3772 3328 100
18853 3772 765 52
18854 3772 1415 9
18855 3772 1140 13
18856 3772 2299 90
18857 3772 2051 33
18858 3772 2704 3
18859 3773 1515 88
18860 3773 1018 60
18861 3774 3729 56
18862 3774 199 58
18863 3774 1021 3
18864 3774 1457 30
18865 3774 1498 39
18866 3774 827 85
18867 3775 2336 60
18868 3775 1445 3
18869 3775 1423 5
18870 3775 1855 65
18871 3775 1539 17
18872 3776 2621 51
18873 3776 663 25
18874 3776 529 62
18875 3776 3773 39
18876 3776 2649 87
18877 3776 3314 53
18878 3776 2844 37
18879 3777 3680 49
18880 3777 1622 20
18881 3777 2065 18
18882 3777 2112 85
18883 3777 3692 45
18884 3777 3340 6
18885 3778 668 83
18886 3778 1981 58
18887 3778 2156 34
18888 3778 3265 59
18889 3778 759 56
18890 3778 302 22
18891 3778 1900 12
18892 3778 1384 73
18893 3779 286 71
18894 3779 3958 74
18895 3779 3169 95
18896 3779 3074 32
18897 3779 1264 95
18898 3779 760 70
18899 3780 1296 95
18900 3780 2209 28
18901 3780 411 96
18902 3780 2789 88
18903 3780 1969 41
18904 3781 2828 74
18905 3781 2662 30
18906 3781 3176 2
18907 3781 629 10
18908 3781 3732 51
18909 3781 3632 65
18910 3782 936 33
18911 3782 1147 73
18912 3782 3026 57
18913 3782 3746 8
18914 3782 2596 57
18915 3782 3911 9
18916 3783 3577 76
18917 3783 2792 76
18918 3783 3320 17
18919 3783 1855 47
18920 3784 3099 62
18921 3784 2481 42
18922 3784 3711 16
18923 3784 1266 14
18924 3784 1500 59
18925 3784 1373 10
18926 3785 3800 33
18927 3785 3158 38
18928 3785 2641 89
18929 3785 1614 4
18930 3785 1657 25
18931 3786 657 37
18932 3786 500 23
18933 3786 2771 69
18934 3786 2763 59
18935 3786 2046 41
18936 3787 98 81
18937 3787 2118 52
18938 3787 766 57
18939 3787 3325 26
18940 3787 3629 89
18941 3787 2440 15
18942 3788 170 94
18943 3788 661 14
18944 3788 195 99
18945 3788 3558 7
18946 3788 2013 16
18947 3789 1735 60
18948 3789 1512 50
18949 3789 3967 50
18950 3789 46 1
18951 3790 3912 24
18952 3790 2754 57
18953 3790 1555 79
18954 3790 323 12
18955 3790 850 88
18956 3791 3017 17
18957 3791 3570 54
18958 3791 2125 10
18959 3792 722 45
18960 3792 663 36
18961 3793 591 5
18962 3793 324 80
18963 3793 283 66
18964 3793 2496 85
18965 3793 2634 47
18966 3793 3829 52
18967 3793 3888 78
18968 3793 2222 11
18969 3794 81 1
18970 3794 742 30
18971 3794 193 76
18972 3794 3807 26
18973 3794 2965 39
18974 3794 2207 72
18975 3794 1751 16
18976 3795 3922 8
18977 3795 2465 8
18978 3795 1068 32
18979 3796 3817 25
18980 3796 761 40
18981 3796 3082 82
18982 3796 3649 44
18983 3796 206 27
18984 3796 3468 99
18985 3797 1188 74
18986 3797 1262 25
18987 3797 2700 15
18988 3797 2527 82
18989 3798 3820 61
18990 3798 2600 40
18991 3798 3189 93
18992 3799 3847 17
18993 3799 2966 19
18994 3799 2522 12
18995 3800 513 56
18996 3800 1953 47
18997 3801 1554 75
18998 3801 1073 65
18999 3801 1496 13
19000 3801 2965 11
19001 3801 2110 47
19002 3801 1490 95
19003 3802 3468 95
19004 3802 2968 100
19005 3802 2261 62
19006 3802 2285 100
19007 3802 1736 97
19008 3802 2768 73
19009 3803 3005 97
19010 3803 1163 12
19011 3803 1540 26
19012 3803 1693 50
19013 3803 2817 87
19014 3803 3914 57
19015 3803 519 86
19016 3803 196 67
19017 3804 690 84
19018 3804 1598 77
19019 3804 2772 44
19020 3804 307 32
19021 3804 91 57
19022 3805 441 78
19023 3805 3538 19
19024 3805 1491 70
19025 3805 248 8
19026 3805 924 50
19027 3805 897 31
19028 3806 2098 80
19029 3806 3565 49
19030 3806 193 86
19031 3806 3616 70
19032 3807 3482 18
19033 3807 2834 34
19034 3807 535 67
19035 3808 1917 10
19036 3808 1351 64
19037 3808 1135 97
19038 3808 3303 82
19039 3808 271 24
19040 3808 374 79
19041 3808 2935 64
19042 3808 1677 14
19043 3808 667 28
19044 3809 2547 9
19045 3809 2358 12
19046 3809 3331 88
19047 3809 765 42
19048 3810 3232 96
19049 3810 75 66
19050 3810 3064 22
19051 3811 558 42
19052 3811 2578 7
19053 3812 2385 69
19054 3812 966 38
19055 3813 1538 28
19056 3813 2225 36
19057 3813 2791 86
19058 3813 2367 24
19059 3813 421 12
19060 3813 277 94
19061 3814 1875 16
19062 3814 2492 21
19063 3814 3888 13
19064 3814 1243 89
19065 3814 1604 70
19066 3814 436 94
19067 3814 1944 24
19068 3814 3287 69
19069 3814 80 68
19070 3814 3083 96
19071 3815 2772 22
19072 3816 1045 76
19073 3816 1865 13
19074 3816 1587 34
19075 3816 2261 45
19076 3816 3983 40
19077 3817 955 60
19078 3817 2334 6
19079 3817 3425 83
19080 3817 1384 85
19081 3817 12 41
19082 3817 2766 37
19083 3818 2935 32
19084 3818 633 27
19085 3818 3331 23
19086 3818 2703 12
19087 3818 1156 20
19088 3819 1940 42
19089 3819 1200 76
19090 3819 625 90
19091 3819 2231 46
19092 3819 3681 84
19093 3819 1353 38
19094 3820 2139 25
19095 3820 1475 19
19096 3820 2866 90
19097 3820 2614 36
19098 3820 647 38
19099 3821 801 91
19100 3822 3986 28
19101 3822 2250 95
19102 3822 2628 79
19103 3822 2829 24
19104 3822 3475 23
19105 3822 2095 8
19106 3822 3923 60
19107 3823 1925 66
19108 3823 2865 84
19109 3824 1291 83
19110 3824 2333 15
19111 3824 1124 4
19112 3824 1393 43
19113 3824 3475 93
19114 3825 1486 4
19115 3825 2135 71
19116 3825 1850 75
19117 3826 174 72
19118 3826 559 89
19119 3826 128 85
19120 3826 675 77
19121 3826 991 91
19122 3826 2638 35
19123 3826 1826 94
19124 3826 2195 95
19125 3827 2808 7
19126 3827 1710 96
19127 3827 2458 70
19128 3827 2724 89
19129 3827 1218 95
19130 3827 3702 11
19131 3827 2404 52
19132 3827 920 81
19133 3828 802 60
19134 3828 1975 21
19135 3829 2971 32
19136 3829 534 98
19137 3829 3705 28
19138 3830 838 52
19139 3830 2705 75
19140 3830 1196 32
19141 3830 3861 48
19142 3830 374 13
19143 3831 2950 95
19144 3831 1170 6
19145 3831 2706 60
19146 3832 617 28
19147 3832 1906 66
19148 3832 824 48
19149 3832 3016 9
19150 3832 1509 41
19151 3832 3675 28
19152 3832 1854 37
19153 3832 3600 81
19154 3833 1617 28
19155 3833 1684 47
19156 3833 2286 55
19157 3833 3938 62
19158 3833 484 76
19159 3834 2894 37
19160 3834 654 10
19161 3834 1651 45
19162 3835 3378 37
19163 3835 1087 86
19164 3835 3559 1
19165 3835 1583 79
19166 3835 1478 39
19167 3835 1145 54
19168 3836 3751 13
19169 3836 3433 57
19170 3837 3387 36
19171 3837 2907 48
19172 3837 2617 41
19173 3837 1349 53
19174 3837 3083 26
19175 3837 287 63
19176 3838 2894 72
19177 3838 794 98
19178 3838 946 5
19179 3838 1577 16
19180 3838 2024 67
19181 3838 2759 63
19182 3838 826 13
19183 3838 40 92
19184 3838 2202 42
19185 3840 3826 12
19186 3840 784 30
19187 3840 788 2
19188 3840 2741 1
19189 3840 2214 51
19190 3841 3596 25
19191 3841 491 38
19192 3842 1451 5
19193 3842 2494 76
19194 3842 2691 54
19195 3842 2169 13
19196 3842 2433 23
19197 3842 2364 83
19198 3843 3536 76
19199 3843 489 74
19200 3843 580 22
19201 3843 3024 49
19202 3843 2892 20
19203 3843 741 88
19204 3843 1981 30
19205 3844 1022 98
19206 3844 3446 50
19207 3844 3541 15
19208 3844 1983 70
19209 3844 1808 99
19210 3845 1472 15
19211 3845 3800 47
19212 3845 2281 57
19213 3845 3454 76
19214 3845 503 60
19215 3845 3515 57
19216 3845 1521 53
19217 3846 694 37
19218 3846 3081 17
19219 3846 2441 26
19220 3846 603 60
19221 3846 3024 68
19222 3847 692 92
19223 3847 2188 65
19224 3847 2005 41
19225 3847 3318 5
19226 3847 2290 58
19227 3847 1318 73
19228 3847 2978 91
19229 3848 3083 4
19230 3848 287 83
19231 3848 681 82
19232 3848 2723 40
19233 3848 680 59
19234 3848 1507 48
19235 3848 2691 45
19236 3849 1618 21
19237 3849 1386 26
19238 3849 3921 97
19239 3849 1585 2
19240 3850 1806 100
19241 3850 3511 32
19242 3850 3651 27
19243 3850 390 89
19244 3851 653 89
19245 3851 3594 41
19246 3851 2500 81
19247 3852 1652 3
19248 3852 3297 14
19249 3852 814 23
19250 3852 1024 30
19251 3852 10 22
19252 3853 3170 73
19253 3853 2757 1
19254 3853 3343 7
19255 3853 3838 14
19256 3853 2764 97
19257 3854 885 15
19258 3854 1716 91
19259 3854 1985 21
19260 3854 3406 35
19261 3854 1264 79
19262 3855 1076 31
19263 3855 3331 36
19264 3855 1640 14
19265 3855 3587 81
19266 3856 2720 46
19267 3856 1121 88
19268 3856 3923 65
19269 3856 172 20
19270 3856 2715 18
19271 3856 100 11
19272 3856 2738 22
19273 3857 3055 11
19274 3857 3099 97
19275 3857 3137 48
19276 3858 1578 10
19277 3858 2053 14
19278 3858 2835 6
19279 3858 255 71
19280 3858 254 70
19281 3859 3413 1
19282 3859 1333 90
19283 3859 2185 78
19284 3859 1222 70
19285 3860 1809 73
19286 3860 307 44
19287 3860 2705 7
19288 3860 2415 50
19289 3860 93 53
19290 3860 2036 48
19291 3860 3861 77
19292 3860 3985 91
19293 3860 3391 29
19294 3861 1273 44
19295 3861 297 51
19296 3861 2199 13
19297 3861 3931 91
19298 3862 1861 35
19299 3862 3189 8
19300 3862 783 4
19301 3863 2079 71
19302 3863 1817 93
19303 3863 2246 13
19304 3863 2371 39
19305 3864 3367 87
19306 3864 1006 45
19307 3864 883 17
19308 3865 424 83
19309 3865 93 71
19310 3865 3852 51
19311 3865 1274 2
19312 3865 2589 52
19313 3866 3406 69
19314 3866 2810 76
19315 3866 3066 20
19316 3866 1786 12
19317 3866 1414 62
19318 3866 1657 95
19319 3866 3384 40
19320 3866 2232 34
19321 3867 571 63
19322 3867 1824 93
19323 3867 2945 3
19324 3867 2879 62
19325 3868 3649 33
19326 3868 1812 77
19327 3868 2321 86
19328 3868 188 94
19329 3868 2543 43
19330 3869 3789 23
19331 3869 2652 18
19332 3869 459 38
19333 3869 1179 78
19334 3869 632 80
19335 3869 2526 34
19336 3870 851 85
19337 3870 3684 78
19338 3870 433 83
19339 3870 1448 70
19340 3871 3742 75
19341 3871 943 57
19342 3871 3222 52
19343 3871 166 30
19344 3871 1585 73
19345 3872 1112 16
19346 3872 383 49
19347 3872 2665 4
19348 3872 698 7
19349 3873 2276 58
19350 3873 763 51
19351 3873 3480 73
19352 3873 1145 37
19353 3873 3286 11
19354 3873 3252 89
19355 3873 588 54
19356 3873 2511 42
19357 3873 2215 87
19358 3874 1556 72
19359 3874 1474 60
19360 3874 2094 4
19361 3875 1955 96
19362 3875 1819 10
19363 3875 1466 45
19364 3876 3033 17
19365 3876 914 80
19366 3876 2628 45
19367 3876 1763 7
19368 3876 2195 97
19369 3876 3329 54
19370 3877 2938 32
19371 3877 2641 97
19372 3877 1853 44
19373 3878 3157 39
19374 3878 3204 15
19375 3878 2388 82
19376 3878 2140 91
19377 3878 707 56
19378 3878 2824 57
19379 3878 2300 68
19380 3879 309 81
19381 3879 1437 43
19382 3879 1300 29
19383 3879 3877 4
19384 3879 3881 36
19385 3879 3558 39
19386 3879 3522 41
19387 3879 1827 50
19388 3879 1193 60
19389 3880 1819 100
19390 3880 2351 45
19391 3880 1203 83
19392 3880 358 75
19393 3880 3244 66
19394 3880 3567 88
19395 3881 1384 9
19396 3881 3821 72
19397 3881 3634 81
19398 3881 1872 52
19399 3882 880 32
19400 3882 935 18
19401 3882 1228 82
19402 3882 2551 39
19403 3882 614 97
19404 3882 944 93
19405 3883 2003 27
19406 3883 3885 26
19407 3883 2075 41
19408 3884 1738 2
19409 3884 1597 69
19410 3884 3186 84
19411 3884 2792 46
19412 3884 544 12
19413 3884 3520 15
19414 3885 2116 17
19415 3885 193 60
19416 3885 2478 34
19417 3885 493 66
19418 3885 1042 84
19419 3885 89 92
19420 3885 1547 13
19421 3885 2023 50
19422 3886 3198 19
19423 3886 1682 54
19424 3887 802 96
19425 3887 2713 80
19426 3887 552 68
19427 3887 312 48
19428 3887 2202 23
19429 3887 1829 4
19430 3887 122 44
19431 3887 382 55
19432 3888 3292 86
19433 3888 2364 53
19434 3888 154 1
19435 3888 1108 43
19436 3888 1847 89
19437 3888 1858 74
19438 3889 2450 73
19439 3889 1115 74
19440 3889 202 94
19441 3889 919 95
19442 3889 2895 25
19443 3890 457 19
19444 3890 3712 83
19445 3890 2748 9
19446 3890 2614 74
19447 3890 2607 60
19448 3891 1465 99
19449 3891 304 35
19450 3891 3660 52
19451 3891 2550 48
19452 3891 1129 51
19453 3892 3279 27
19454 3892 1715 81
19455 3893 2601 68
19456 3893 2607 19
19457 3893 2697 48
19458 3893 3196 53
19459 3893 2405 77
19460 3893 1691 6
19461 3893 3889 21
19462 3893 893 99
19463 3894 1342 68
19464 3894 1425 57
19465 3894 504 82
19466 3894 3327 51
19467 3894 3442 12
19468 3894 1862 90
19469 3895 1486 80
19470 3895 2010 57
19471 3895 1574 92
19472 3895 3446 53
19473 3895 2402 69
19474 3895 1567 12
19475 3895 1650 29
19476 3895 2611 65
19477 3895 3433 73
19478 3895 2891 15
19479 3896 3734 3
19480 3896 249 17
19481 3896 226 83
19482 3897 2883 6
19483 3897 3071 70
19484 3897 3199 64
19485 3897 1394 92
19486 3897 37 40
19487 3897 776 5
19488 3897 2741 23
19489 3898 2575 69
19490 3898 844 76
19491 3898 2597 75
19492 3899 883 30
19493 3899 1576 54
19494 3899 2506 43
19495 3899 220 83
19496 3899 2766 93
19497 3899 1559 3
19498 3900 446 6
19499 3900 3137 95
19500 3900 3450 86
19501 3901 1782 32
19502 3901 3270 9
19503 3902 3677 79
19504 3902 2181 3
19505 3902 1487 69
19506 3902 1497 41
19507 3902 688 59
19508 3903 1850 72
19509 3903 1526 72
19510 3903 3051 21
19511 3904 1109 41
19512 3904 3888 68
19513 3904 3057 35
19514 3905 1775 19
19515 3905 2664 24
19516 3905 3201 3
19517 3905 206 66
19518 3905 1823 82
19519 3905 1309 49
19520 3905 2154 46
19521 3906 2836 17
19522 3906 2804 7
19523 3906 2122 59
19524 3907 2250 64
19525 3907 3208 38
19526 3907 3899 67
19527 3907 3968 50
19528 3907 1006 7
19529 3907 1485 24
19530 3908 1216 46
19531 3908 2864 97
19532 3908 2464 53
19533 3908 3666 30
19534 3908 3360 61
19535 3908 2079 66
19536 3908 1779 12
19537 3909 3585 12
19538 3909 1880 89
19539 3909 342 85
19540 3909 2178 81
19541 3909 3447 50
19542 3909 3645 76
19543 3910 2151 7
19544 3910 1310 88
19545 3910 1647 78
19546 3910 794 57
19547 3910 1793 20
19548 3910 1774 57
19549 3910 2152 32
19550 3910 3135 23
19551 3911 2117 84
19552 3911 178 65
19553 3911 672 48
19554 3911 1276 48
19555 3911 1780 100
19556 3911 383 64
19557 3911 1072 97
19558 3912 1208 60
19559 3912 1050 76
19560 3912 3275 61
19561 3912 1054 35
19562 3912 1140 72
19563 3913 2763 33
19564 3913 2434 96
19565 3913 3090 1
19566 3913 630 67
19567 3913 2433 47
19568 3914 1976 22
19569 3914 2789 97
19570 3914 2496 24
19571 3914 3186 68
19572 3914 1776 54
19573 3914 2796 12
19574 3915 2258 77
19575 3915 3902 68
19576 3915 1934 17
19577 3915 1321 57
19578 3915 3798 19
19579 3915 774 53
19580 3916 2841 1
19581 3917 1745 49
19582 3917 1363 44
19583 3917 942 62
19584 3917 1456 56
19585 3917 562 66
19586 3918 3432 21
19587 3918 922 99
19588 3918 1292 91
19589 3919 870 80
19590 3919 1737 77
19591 3919 3688 99
19592 3920 222 56
19593 3920 3105 61
19594 3920 1736 19
19595 3920 3987 67
19596 3920 1708 23
19597 3920 68 40
19598 3921 1335 14
19599 3921 3740 94
19600 3921 2500 90
19601 3921 987 80
19602 3922 1952 60
19603 3922 2285 65
19604 3922 1386 94
19605 3922 1893 52
19606 3923 3952 65
19607 3923 3149 6
19608 3923 1975 34
19609 3923 2189 22
19610 3924 2307 68
19611 3925 1929 69
19612 3925 367 63
19613 3925 1013 66
19614 3925 3417 88
19615 3926 3711 77
19616 3926 2649 21
19617 3926 776 42
19618 3926 2674 73
19619 3927 2126 68
19620 3927 836 51
19621 3927 739 57
19622 3927 3812 89
19623 3928 854 20
19624 3928 1812 89
19625 3929 3468 38
19626 3929 1564 16
19627 3929 3522 78
19628 3930 2027 46
19629 3930 3126 37
19630 3930 2407 16
19631 3930 3748 81
19632 3930 1391 47
19633 3930 1843 61
19634 3930 2988 9
19635 3931 653 61
19636 3931 290 56
19637 3931 627 22
19638 3931 3707 52
19639 3931 1891 73
19640 3932 2735 49
19641 3932 3963 60
19642 3932 3247 23
19643 3932 3728 69
19644 3932 321 73
19645 3932 3700 18
19646 3932 2482 47
19647 3932 824 63
19648 3933 2475 55
19649 3933 374 98
19650 3933 3118 45
19651 3934 2229 43
19652 3934 3466 44
19653 3935 2789 9
19654 3935 134 34
19655 3935 699 56
19656 3935 1312 47
19657 3935 2423 78
19658 3935 3651 76
19659 3935 3898 65
19660 3935 1192 30
19661 3935 3650 9
19662 3935 739 35
19663 3935 2842 26
19664 3936 1477 8
19665 3936 2934 77
19666 3936 855 77
19667 3936 869 45
19668 3937 479 30
19669 3937 977 21
19670 3937 1709 14
19671 3937 3243 70
19672 3937 63 74
19673 3937 1969 31
19674 3937 1419 14
19675 3937 1090 83
19676 3937 657 47
19677 3938 1439 88
19678 3938 900 32
19679 3938 1673 6
19680 3938 3937 42
19681 3938 2749 86
19682 3938 1629 66
19683 3939 1815 93
19684 3939 3846 49
19685 3939 197 99
19686 3939 3696 48
19687 3940 2464 34
19688 3940 2459 70
19689 3941 986 27
19690 3941 1557 30
19691 3941 1629 86
19692 3941 186 65
19693 3941 2955 72
19694 3941 1525 6
19695 3942 3374 55
19696 3942 959 64
19697 3942 2441 14
19698 3943 2282 78
19699 3943 2418 14
19700 3943 1805 64
19701 3943 2965 37
19702 3943 3256 23
19703 3944 2546 47
19704 3945 1083 11
19705 3945 3007 66
19706 3945 2701 85
19707 3945 2675 55
19708 3945 1816 80
19709 3945 3184 60
19710 3945 232 96
19711 3945 67 43
19712 3946 1539 86
19713 3946 1333 53
19714 3946 3531 49
19715 3947 2911 86
19716 3947 3913 61
19717 3947 1794 13
19718 3947 3763 100
19719 3947 3238 58
19720 3947 853 84
19721 3948 3352 47
19722 3948 268 94
19723 3948 183 17
19724 3948 1649 39
19725 3949 618 87
19726 3949 116 6
19727 3949 3753 79
19728 3949 166 59
19729 3950 1389 90
19730 3950 1058 45
19731 3950 2698 67
19732 3950 3681 49
19733 3950 1006 14
19734 3951 1371 32
19735 3951 761 84
19736 3951 24 100
19737 3952 2349 73
19738 3952 673 30
19739 3952 3308 36
19740 3952 1535 61
19741 3952 1455 34
19742 3952 3542 86
19743 3953 3452 86
19744 3953 3401 75
19745 3953 1769 47
19746 3953 2608 6
19747 3953 3822 7
19748 3954 2513 39
19749 3954 3251 40
19750 3954 3640 9
19751 3954 1479 70
19752 3955 2306 46
19753 3955 3124 81
19754 3955 3503 8
19755 3955 2112 2
19756 3956 3772 95
19757 3957 253 97
19758 3957 530 55
19759 3957 935 5
19760 3957 2087 25
19761 3957 1572 2
19762 3957 1753 64
19763 3958 3179 100
19764 3958 3631 84
19765 3958 3062 92
19766 3958 3679 77
19767 3958 1750 67
19768 3958 152 40
19769 3958 2280 31
19770 3958 1844 97
19771 3959 3317 49
19772 3959 45 30
19773 3959 2205 36
19774 3959 3730 68
19775 3959 3861 52
19776 3959 529 11
19777 3959 1803 42
19778 3959 2610 93
19779 3960 3732 55
19780 3960 3501 41
19781 3960 3749 70
19782 3961 3480 66
19783 3961 1332 61
19784 3961 1174 78
19785 3961 3899 25
19786 3961 3314 38
19787 3962 1786 4
19788 3962 3767 81
19789 3962 798 33
19790 3962 1018 71
19791 3962 3453 51
19792 3963 2892 78
19793 3963 2193 95
19794 3963 2978 32
19795 3963 2382 70
19796 3963 3027 91
19797 3963 3122 34
19798 3963 3165 10
19799 3963 3721 26
19800 3963 3147 61
19801 3964 2921 3
19802 3964 193 57
19803 3964 1212 67
19804 3964 427 61
19805 3964 815 4
19806 3965 3883 30
19807 3965 1820 85
19808 3966 3885 25
19809 3966 1031 7
19810 3966 2987 98
19811 3966 3657 12
19812 3966 710 36
19813 3967 1290 9
19814 3967 1999 15
19815 3967 567 65
19816 3967 173 20
19817 3967 3693 50
19818 3968 2914 81
19819 3968 2209 8
19820 3968 3118 56
19821 3968 3327 89
19822 3968 3570 6
19823 3969 2779 100
19824 3969 1407 50
19825 3969 468 68
19826 3969 3838 22
19827 3969 2825 92
19828 3970 1495 94
19829 3970 43 11
19830 3971 1369 61
19831 3971 959 80
19832 3971 667 57
19833 3971 2989 54
19834 3971 2375 35
19835 3972 1288 83
19836 3972 2689 52
19837 3972 993 64
19838 3972 2527 3
19839 3972 956 100
19840 3972 3550 44
19841 3973 308 64
19842 3973 1629 39
19843 3973 3022 22
19844 3973 3350 1
19845 3973 2496 45
19846 3974 2344 5
19847 3974 2463 83
19848 3974 3461 8
19849 3974 2415 69
19850 3974 1311 5
19851 3974 2959 2
19852 3975 3258 5
19853 3975 489 9
19854 3975 1581 68
19855 3975 2669 84
19856 3975 3932 20
19857 3975 3123 54
19858 3975 820 1
19859 3975 3865 89
19860 3975 3568 52
19861 3975 1151 24
19862 3976 1773 8
19863 3976 3596 16
19864 3976 32 16
19865 3976 2721 79
19866 3977 3478 78
19867 3977 2209 2
19868 3977 3162 50
19869 3977 2609 69
19870 3977 340 72
19871 3977 3707 62
19872 3977 3821 1
19873 3977 1913 96
19874 3977 3724 94
19875 3978 3248 78
19876 3979 752 6
19877 3979 1626 75
19878 3979 2593 7
19879 3979 3666 40
19880 3979 1964 21
19881 3979 399 32
19882 3979 813 20
19883 3980 3114 53
19884 3980 2120 95
19885 3980 3962 82
19886 3980 1377 53
19887 3980 2824 29
19888 3981 2703 91
19889 3981 1674 36
19890 3981 10 45
19891 3981 1037 52
19892 3981 2440 40
19893 3981 549 44
19894 3981 643 5
19895 3981 1364 82
19896 3981 3554 81
19897 3981 3067 34
19898 3981 2387 100
19899 3981 3158 5
19900 3982 3111 91
19901 3982 3721 62
19902 3982 2656 76
19903 3982 2121 88
19904 3982 578 38
19905 3982 1896 19
19906 3983 1910 83
19907 3983 44 45
19908 3983 2195 77
19909 3983 2947 19
19910 3983 389 17
19911 3983 872 2
19912 3983 2853 22
19913 3984 943 9
19914 3984 3593 30
19915 3984 3989 80
19916 3984 2011 83
19917 3984 3009 42
19918 3985 3786 17
19919 3985 2941 4
19920 3985 3732 61
19921 3985 1883 53
19922 3985 730 34
19923 3986 788 88
19924 3986 2089 32
19925 3986 1559 44
19926 3986 1636 73
19927 3986 2521 28
19928 3986 2041 20
19929 3986 3156 47
19930 3987 773 54
19931 3987 1829 16
19932 3987 493 83
19933 3987 822 66
19934 3988 3659 26
19935 3988 3293 89
19936 3988 2808 61
19937 3988 223 6
19938 3988 2178 16
19939 3989 1506 44
19940 3989 420 59
19941 3989 1290 62
19942 3989 487 40
19943 3989 2879 40
19944 3989 2966 11
19945 3989 2812 82
19946 3990 1232 54
19947 3990 2384 55
19948 3990 3105 20
19949 3990 2542 15
19950 3990 2011 37
19951 3990 3721 90
19952 3991 3857 42
19953 3991 1049 94
19954 3991 2488 73
19955 3991 2982 66
19956 3992 1703 40
19957 3992 1161 87
19958 3993 2009 84
19959 3993 1875 67
19960 3993 3279 90
19961 3994 2874 81
19962 3994 811 35
19963 3994 3644 62
19964 3994 432 83
19965 3994 3385 11
19966 3995 1823 55
19967 3995 2369 82
19968 3995 3624 97
19969 3995 2185 83
19970 3995 1124 74
19971 3995 2891 89
19972 3995 3611 29
19973 3995 3982 54
19974 3996 2631 94
19975 3996 397 13
19976 3996 3826 64
19977 3997 3891 87
19978 3997 1565 42
19979 3997 2652 49
19980 3997 3463 71
19981 3997 3425 22
19982 3997 2317 87
19983 3997 242 82
19984 3998 3936 52
19985 3998 1017 69
19986 3998 3945 99
19987 3998 2786 9
19988 3998 3624 99
19989 3998 3787 34
19990 3998 1970 86
19991 3998 2748 15
19992 3999 3676 47
19993 3999 3897 43
19994 3999 3061 85
19995 3999 1976 4
19996 3999 214 12
19997 3999 3108 82
19998 3999 3466 38
19999 3999 719 43
