0 0 622 74
1 0 1691 81
2 0 1487 71
3 1 1589 94
4 1 123 54
5 1 102 69
6 2 1346 94
7 2 1554 16
8 2 1664 68
9 2 1868 7
10 3 1064 78
11 3 1259 61
12 3 1943 85
13 3 242 68
14 3 636 67
15 4 1246 57
16 4 1764 41
17 5 836 35
18 5 579 25
19 5 567 74
20 5 26 38
21 5 315 32
22 5 416 43
23 6 1953 32
24 6 787 99
25 6 935 47
26 6 1306 30
27 7 683 59
28 7 1548 41
29 7 875 96
30 7 1308 15
31 7 327 89
32 8 636 31
33 8 1986 57
34 8 1993 94
35 8 1843 53
36 9 1443 47
37 9 925 11
38 9 641 46
39 9 1867 72
40 10 1975 65
41 10 1931 10
42 10 1172 47
43 10 1647 84
44 10 1136 62
45 10 716 78
46 10 324 30
47 10 736 58
48 11 1245 54
49 11 808 30
50 11 735 73
51 12 1930 17
52 12 371 69
53 13 1554 32
54 13 534 100
55 13 1089 53
56 13 1909 87
57 13 1027 75
58 13 1565 86
59 13 615 18
60 13 502 78
61 13 743 34
62 14 768 37
63 14 367 44
64 14 1362 41
65 15 1283 16
66 15 1183 11
67 15 292 53
68 16 1367 54
69 16 1159 65
70 16 1735 19
71 16 1424 74
72 16 476 64
73 16 1863 81
74 16 210 99
75 16 1693 26
76 17 458 24
77 17 24 59
78 17 1703 2
79 17 1577 22
80 17 730 16
81 18 611 54
82 18 447 34
83 18 970 98
84 18 234 71
85 18 1984 92
86 18 1102 61
87 18 1800 96
88 19 992 13
89 19 453 17
90 19 1023 5
91 19 1406 56
92 19 1961 4
93 19 652 89
94 20 151 22
95 20 1148 10
96 21 1357 17
97 21 413 66
98 21 0 68
99 21 1377 50
100 21 1545 55
101 21 1970 46
102 21 284 17
103 22 351 52
104 22 1387 90
105 22 1188 72
106 23 543 31
107 23 1317 92
108 23 1298 38
109 23 245 16
110 23 1287 44
111 24 34 44
112 24 591 76
113 24 966 78
114 24 1235 79
115 25 1739 14
116 25 1442 93
117 25 1218 6
118 25 239 10
119 25 1165 95
120 26 1764 46
121 26 1373 58
122 26 1364 53
123 27 1398 81
124 27 1563 58
125 27 587 95
126 27 1695 56
127 28 1450 38
128 28 1131 97
129 28 541 62
130 28 1826 90
131 28 703 18
132 28 390 94
133 29 1518 24
134 29 1495 93
135 29 308 99
136 30 733 76
137 30 1010 66
138 30 1895 11
139 30 292 20
140 31 1479 1
141 31 1962 76
142 31 929 76
143 32 294 48
144 32 1425 87
145 32 1871 84
146 32 863 59
147 33 534 49
148 33 254 42
149 33 233 57
150 33 1262 23
151 33 142 66
152 33 1389 93
153 34 1202 76
154 34 797 36
155 34 1297 99
156 35 190 13
157 35 1731 30
158 35 982 39
159 36 1950 64
160 36 1246 44
161 36 1262 7
162 37 710 73
163 37 734 67
164 37 1131 68
165 38 524 75
166 38 1739 66
167 38 1269 55
168 38 426 37
169 38 1586 42
170 38 1285 50
171 38 563 41
172 38 551 97
173 38 1766 23
174 40 1078 19
175 40 98 6
176 40 1102 95
177 40 1560 94
178 41 1272 27
179 41 652 56
180 41 691 67
181 41 1770 36
182 42 330 74
183 42 302 79
184 43 258 41
185 43 1689 13
186 43 1021 45
187 44 132 37
188 44 1207 22
189 44 1580 16
190 44 238 37
191 45 380 36
192 46 611 63
193 46 679 57
194 46 171 29
195 46 458 22
196 47 256 37
197 47 57 34
198 47 696 78
199 47 1986 97
200 47 1162 14
201 48 469 30
202 48 1202 86
203 49 1576 36
204 49 952 19
205 49 1999 13
206 49 1213 27
207 49 1288 71
208 50 94 66
209 50 988 97
210 50 1705 22
211 50 668 4
212 51 1518 77
213 51 1268 6
214 51 780 70
215 51 1636 69
216 51 1520 25
217 52 1902 1
218 52 269 63
219 52 1232 4
220 52 895 48
221 53 1247 27
222 53 183 37
223 53 653 74
224 53 1578 55
225 53 1561 94
226 53 582 57
227 53 929 67
228 53 314 17
229 53 1584 59
230 54 1149 38
231 54 849 15
232 54 1736 92
233 54 1620 91
234 54 1990 16
235 54 382 57
236 54 149 56
237 54 1960 64
238 55 1951 34
239 56 987 12
240 56 1560 18
241 56 698 36
242 57 1440 94
243 57 982 86
244 57 29 15
245 57 490 46
246 57 580 11
247 58 1524 96
248 58 594 29
249 58 975 94
250 59 796 10
251 59 1993 42
252 59 94 21
253 59 355 65
254 59 185 43
255 59 529 36
256 59 166 59
257 59 834 81
258 59 458 95
259 60 686 66
260 60 1834 87
261 60 1933 100
262 60 1567 10
263 60 203 91
264 60 670 89
265 60 1744 41
266 61 191 5
267 61 133 56
268 61 66 13
269 62 187 91
270 62 1019 67
271 62 495 41
272 63 1629 25
273 63 1664 72
274 63 481 85
275 63 1827 81
276 63 328 5
277 64 587 82
278 64 191 81
279 64 556 2
280 64 328 32
281 64 1231 18
282 64 1109 76
283 65 1648 49
284 65 1657 29
285 65 1652 87
286 65 261 26
287 65 969 34
288 66 921 61
289 66 372 20
290 66 1029 63
291 66 836 24
292 66 607 94
293 66 1528 64
294 66 492 37
295 66 31 17
296 67 367 26
297 67 1624 82
298 67 362 12
299 68 1186 67
300 68 603 93
301 68 77 96
302 68 1658 28
303 69 1718 1
304 69 48 56
305 69 561 9
306 69 243 63
307 70 582 72
308 70 1887 79
309 70 1226 27
310 71 258 91
311 71 1358 23
312 71 1723 5
313 72 1322 54
314 72 1915 89
315 72 708 34
316 73 1709 79
317 73 190 49
318 73 1178 81
319 74 1542 75
320 74 1712 31
321 74 424 82
322 75 297 45
323 75 694 62
324 75 1506 68
325 75 1100 85
326 75 385 24
327 75 1834 39
328 76 1870 30
329 76 352 38
330 76 594 86
331 77 184 63
332 77 1093 63
333 77 1483 81
334 77 942 51
335 77 21 77
336 77 487 46
337 78 222 70
338 78 587 62
339 78 1118 38
340 78 560 13
341 78 1116 29
342 78 377 15
343 79 1758 97
344 79 280 98
345 79 810 37
346 79 1797 54
347 80 632 58
348 80 1789 42
349 80 1122 32
350 80 1745 85
351 80 1981 55
352 80 1509 15
353 80 263 23
354 81 1840 60
355 81 1821 41
356 81 1889 85
357 81 506 15
358 81 1066 45
359 81 1824 90
360 82 92 51
361 82 440 91
362 82 963 17
363 82 1051 100
364 83 1503 62
365 83 904 63
366 83 1 77
367 83 445 53
368 84 711 88
369 84 921 31
370 84 1690 4
371 84 653 38
372 84 199 35
373 84 648 65
374 84 1188 28
375 84 1186 53
376 85 631 8
377 85 646 72
378 85 1245 99
379 85 198 42
380 85 1133 34
381 86 1488 87
382 86 1525 41
383 86 1190 53
384 86 1797 51
385 86 1685 57
386 86 1973 55
387 86 1015 52
388 87 470 34
389 87 1369 7
390 87 830 35
391 87 1859 63
392 88 1489 94
393 88 1428 29
394 88 110 44
395 88 213 82
396 88 135 6
397 89 841 40
398 89 1620 58
399 89 607 53
400 89 1343 29
401 89 1810 74
402 89 490 22
403 90 823 69
404 90 1153 27
405 90 1758 100
406 90 123 81
407 91 1892 15
408 91 946 79
409 91 485 79
410 91 210 43
411 91 1154 17
412 91 1229 78
413 92 820 70
414 92 867 3
415 92 170 93
416 92 1006 3
417 93 1354 49
418 93 451 12
419 93 1152 100
420 93 19 91
421 93 1836 43
422 93 683 46
423 93 497 99
424 93 1214 99
425 93 10 71
426 93 1985 9
427 93 98 84
428 94 203 7
429 94 1953 67
430 94 211 27
431 94 1562 47
432 94 1937 69
433 95 1892 26
434 95 81 21
435 95 562 69
436 96 1763 51
437 96 1991 92
438 96 1897 30
439 96 303 38
440 96 569 21
441 96 805 48
442 97 1773 43
443 97 815 53
444 97 1549 28
445 97 1713 71
446 97 372 94
447 97 1690 32
448 98 790 2
449 99 103 5
450 99 1133 3
451 99 593 97
452 99 1641 68
453 99 1918 14
454 99 1581 65
455 100 388 51
456 100 378 63
457 100 223 6
458 101 1643 21
459 101 476 37
460 102 1852 39
461 103 1611 4
462 103 344 30
463 103 1379 81
464 103 1897 99
465 104 1167 89
466 104 1584 32
467 104 683 5
468 105 517 35
469 105 416 96
470 105 1195 16
471 105 549 49
472 105 1315 84
473 105 1231 52
474 106 1949 17
475 106 811 95
476 106 1313 35
477 106 681 11
478 106 414 10
479 106 1748 10
480 106 603 65
481 106 1299 93
482 106 1352 91
483 107 259 98
484 107 318 94
485 107 1616 54
486 107 205 3
487 107 1890 2
488 108 1 96
489 108 1850 70
490 108 558 78
491 108 1960 20
492 108 1880 13
493 108 903 95
494 108 1833 76
495 108 1000 51
496 108 1436 25
497 109 310 78
498 109 811 40
499 109 1772 42
500 109 207 55
501 109 1289 66
502 109 1546 96
503 110 1783 3
504 110 26 39
505 110 176 36
506 110 1740 59
507 110 1436 26
508 110 433 13
509 110 709 34
510 111 384 84
511 111 738 74
512 111 1672 61
513 111 364 49
514 111 497 38
515 111 1413 55
516 111 129 12
517 111 1414 29
518 111 470 53
519 111 864 72
520 112 15 36
521 112 1054 62
522 112 1245 37
523 112 617 90
524 113 1294 69
525 113 1760 65
526 113 1523 32
527 114 600 49
528 114 545 3
529 114 1887 64
530 114 1710 94
531 114 691 51
532 114 1004 48
533 114 1145 98
534 115 720 70
535 115 476 92
536 115 196 14
537 116 755 58
538 116 1922 29
539 116 1517 74
540 116 156 4
541 116 259 51
542 117 102 99
543 117 1936 30
544 117 1281 58
545 118 493 48
546 118 1144 62
547 118 1151 73
548 118 500 14
549 118 1293 83
550 118 487 40
551 119 223 43
552 119 1186 19
553 120 337 81
554 120 1073 11
555 120 1930 13
556 120 1258 72
557 120 1659 22
558 121 1859 27
559 121 1167 63
560 121 44 76
561 122 574 32
562 122 1723 11
563 122 281 19
564 122 1804 52
565 122 571 79
566 123 1914 61
567 123 1942 67
568 123 581 93
569 123 435 73
570 124 824 98
571 124 815 30
572 124 980 8
573 124 739 99
574 124 1626 64
575 124 248 33
576 124 1949 53
577 125 185 40
578 125 57 95
579 125 805 44
580 125 544 20
581 126 1697 5
582 126 1700 42
583 126 309 89
584 126 1882 73
585 126 1208 77
586 127 1414 53
587 127 870 1
588 127 1917 35
589 128 227 89
590 128 541 27
591 128 45 97
592 128 1282 72
593 129 1301 63
594 129 1466 70
595 129 342 64
596 129 535 41
597 129 247 84
598 130 788 31
599 130 1108 42
600 130 538 60
601 130 1918 91
602 130 1844 62
603 130 548 66
604 130 691 72
605 130 1094 95
606 130 1062 94
607 131 849 11
608 131 538 14
609 131 1298 55
610 131 126 90
611 131 902 10
612 132 1126 49
613 132 599 17
614 132 342 97
615 132 1781 2
616 132 649 21
617 133 433 67
618 134 431 96
619 134 385 16
620 134 1779 22
621 134 991 26
622 134 1089 57
623 135 635 15
624 135 1985 5
625 135 1911 55
626 135 1347 64
627 135 789 22
628 136 89 81
629 136 795 68
630 136 1429 63
631 137 186 18
632 137 483 96
633 137 206 71
634 137 178 54
635 137 513 52
636 137 1148 2
637 137 1160 38
638 137 1813 16
639 137 0 56
640 138 706 38
641 138 28 93
642 138 783 87
643 138 1141 35
644 138 630 67
645 138 686 42
646 138 92 79
647 139 960 48
648 139 1610 73
649 139 24 84
650 139 202 22
651 139 573 19
652 139 1876 38
653 140 1699 67
654 140 1086 88
655 140 1882 27
656 140 373 79
657 140 699 92
658 140 796 48
659 141 1557 67
660 141 1036 78
661 141 1677 33
662 141 1087 61
663 141 560 60
664 142 1980 27
665 142 565 43
666 142 1007 96
667 142 1832 93
668 142 173 18
669 142 341 22
670 143 1943 68
671 143 615 92
672 144 1708 61
673 144 788 2
674 144 1120 41
675 144 1945 54
676 145 1449 23
677 145 1052 20
678 145 468 61
679 145 1081 9
680 145 967 1
681 145 26 40
682 145 637 90
683 145 837 25
684 145 366 26
685 146 1247 89
686 146 122 13
687 146 162 69
688 146 1112 59
689 146 545 43
690 146 1327 13
691 146 737 8
692 146 1314 80
693 147 682 60
694 147 1081 77
695 148 19 21
696 148 765 9
697 148 732 45
698 148 1030 82
699 149 385 72
700 149 144 29
701 149 195 45
702 149 1588 81
703 149 904 2
704 149 1649 25
705 150 1101 36
706 151 1181 37
707 151 904 55
708 151 921 75
709 151 567 94
710 152 1401 40
711 152 1932 48
712 153 320 80
713 153 961 99
714 153 1374 52
715 153 1212 33
716 153 1120 72
717 153 751 70
718 153 1928 83
719 153 338 85
720 153 1962 26
721 153 540 10
722 154 907 76
723 154 288 20
724 154 362 14
725 154 1297 94
726 154 1827 28
727 154 1721 36
728 155 1212 23
729 155 697 34
730 155 1308 73
731 156 1045 14
732 156 1489 17
733 156 1615 67
734 157 1320 76
735 157 612 83
736 157 739 99
737 157 1016 50
738 157 1052 43
739 157 504 74
740 157 1494 99
741 157 349 76
742 157 156 78
743 158 1461 36
744 158 1103 95
745 158 1012 79
746 158 485 86
747 158 1963 61
748 159 1765 27
749 159 1878 22
750 159 271 1
751 159 1170 30
752 159 1058 28
753 159 1400 12
754 159 742 79
755 159 1480 19
756 159 153 19
757 160 1025 22
758 160 1384 61
759 160 1597 1
760 160 1071 42
761 160 1529 10
762 160 872 7
763 160 1956 18
764 161 810 66
765 161 513 57
766 161 1888 55
767 161 764 86
768 161 808 61
769 161 940 42
770 161 1812 39
771 162 864 65
772 162 1231 98
773 163 671 16
774 163 1247 31
775 163 431 72
776 163 958 51
777 163 1947 49
778 163 1139 100
779 164 1743 50
780 164 1224 91
781 164 1744 61
782 164 1722 46
783 164 800 40
784 165 998 67
785 165 13 41
786 165 1270 68
787 166 1193 11
788 166 93 78
789 166 1606 28
790 166 713 22
791 167 767 82
792 167 1076 36
793 167 969 92
794 167 188 19
795 168 548 56
796 168 761 72
797 168 1311 57
798 168 259 63
799 168 671 89
800 168 226 33
801 168 603 88
802 169 1489 16
803 169 1023 72
804 169 1157 56
805 169 1123 84
806 169 722 45
807 170 1143 23
808 170 1397 4
809 170 1490 47
810 171 1316 60
811 171 290 99
812 172 1341 86
813 172 604 45
814 172 725 94
815 173 581 55
816 173 1809 28
817 173 634 79
818 173 1484 72
819 173 1189 25
820 173 1812 49
821 173 255 48
822 173 1522 23
823 173 1083 96
824 173 112 2
825 174 223 26
826 174 414 57
827 175 1498 47
828 175 1581 68
829 175 1368 25
830 175 21 1
831 176 134 76
832 176 1893 40
833 176 1132 43
834 176 1753 13
835 176 294 48
836 176 1460 33
837 176 1192 65
838 177 820 2
839 177 576 78
840 177 565 35
841 177 843 5
842 178 1209 83
843 178 899 36
844 178 682 83
845 178 1998 62
846 178 617 51
847 178 1940 6
848 179 572 90
849 179 603 91
850 179 150 33
851 179 1494 36
852 179 990 81
853 179 228 8
854 179 1151 74
855 179 1650 4
856 180 265 92
857 180 1754 61
858 180 381 78
859 180 1284 81
860 180 391 59
861 181 502 63
862 181 13 23
863 181 1547 61
864 182 455 96
865 182 1962 83
866 182 42 97
867 182 223 70
868 182 696 14
869 182 743 5
870 183 904 48
871 183 509 4
872 183 230 79
873 183 649 92
874 183 809 20
875 183 1592 91
876 183 1330 95
877 184 1259 23
878 184 1935 17
879 184 1596 11
880 184 1125 54
881 184 308 16
882 184 454 8
883 184 487 57
884 184 1917 82
885 185 812 91
886 185 748 8
887 185 32 41
888 185 1629 13
889 186 1547 70
890 186 962 36
891 186 1840 25
892 186 1441 84
893 186 1456 79
894 186 1314 95
895 186 1621 3
896 186 1686 43
897 186 589 87
898 187 468 41
899 187 1357 91
900 187 1404 22
901 187 355 76
902 188 1853 93
903 188 715 47
904 188 1168 67
905 188 1469 2
906 188 1068 86
907 188 713 52
908 189 778 54
909 189 1299 86
910 189 668 86
911 189 1832 8
912 190 884 9
913 190 1222 25
914 190 1496 98
915 190 89 65
916 190 692 19
917 190 763 94
918 190 191 35
919 191 1029 11
920 191 1340 23
921 191 338 57
922 192 1067 6
923 193 946 36
924 193 379 78
925 194 640 26
926 194 2 89
927 194 1743 65
928 194 1212 53
929 194 1228 23
930 195 1832 82
931 195 277 96
932 195 1035 1
933 195 886 40
934 195 1280 36
935 195 805 72
936 196 101 45
937 196 283 16
938 197 1524 44
939 197 363 60
940 197 921 73
941 197 1602 90
942 197 416 12
943 198 735 73
944 198 1349 60
945 198 1850 12
946 198 103 15
947 198 52 12
948 198 207 24
949 198 143 94
950 198 1370 12
951 199 964 24
952 199 1683 41
953 199 268 76
954 199 1648 81
955 199 74 3
956 200 103 99
957 200 895 22
958 200 871 2
959 200 485 28
960 200 926 82
961 200 1655 48
962 200 300 59
963 200 772 11
964 200 100 93
965 201 1644 32
966 201 529 40
967 201 1991 88
968 201 404 83
969 201 522 25
970 201 242 96
971 202 1718 97
972 202 1414 95
973 202 65 17
974 202 655 40
975 203 1624 7
976 204 1077 49
977 204 1665 91
978 204 583 37
979 204 1476 23
980 204 773 36
981 204 623 18
982 205 1705 73
983 205 1790 41
984 205 908 53
985 205 1395 29
986 205 1503 25
987 206 1609 35
988 206 666 26
989 206 1625 23
990 206 19 38
991 206 882 34
992 206 1005 90
993 206 564 57
994 206 241 34
995 207 1852 12
996 207 504 63
997 207 695 46
998 207 42 75
999 207 882 47
1000 207 450 45
1001 208 1427 99
1002 208 1646 83
1003 208 1518 67
1004 208 1686 58
1005 208 1387 81
1006 208 1459 88
1007 208 1389 22
1008 208 1958 5
1009 209 1507 75
1010 209 211 50
1011 209 15 20
1012 210 299 69
1013 210 1456 73
1014 210 1831 27
1015 210 826 90
1016 210 195 56
1017 210 830 45
1018 210 799 83
1019 210 1047 88
1020 210 1195 37
1021 211 1441 27
1022 211 71 44
1023 211 1435 90
1024 212 1580 65
1025 212 420 71
1026 212 852 96
1027 212 421 35
1028 212 537 12
1029 212 555 66
1030 212 1016 99
1031 212 970 27
1032 213 1446 34
1033 213 72 28
1034 214 605 60
1035 214 151 34
1036 214 1047 5
1037 214 697 15
1038 215 1603 67
1039 215 595 85
1040 215 661 81
1041 216 498 24
1042 216 21 61
1043 216 1569 18
1044 216 785 60
1045 216 890 76
1046 217 1782 42
1047 217 1019 48
1048 217 593 73
1049 217 233 49
1050 217 1714 85
1051 217 888 76
1052 217 1357 5
1053 217 1247 42
1054 218 485 90
1055 218 187 14
1056 218 1144 81
1057 218 358 46
1058 218 809 2
1059 219 1520 21
1060 219 1901 54
1061 219 277 61
1062 219 520 43
1063 219 257 44
1064 219 370 83
1065 219 950 13
1066 220 882 24
1067 220 1550 46
1068 220 39 40
1069 220 1670 21
1070 220 1623 60
1071 220 1243 70
1072 221 1185 24
1073 221 1382 97
1074 221 1004 3
1075 221 717 57
1076 221 210 79
1077 221 1878 59
1078 222 33 76
1079 222 898 74
1080 222 213 89
1081 223 509 56
1082 223 925 94
1083 223 337 52
1084 223 175 61
1085 223 158 32
1086 224 313 33
1087 224 1763 93
1088 224 1165 48
1089 224 1961 77
1090 224 92 44
1091 225 247 62
1092 225 922 87
1093 225 1692 52
1094 225 459 39
1095 225 122 6
1096 226 1304 30
1097 226 197 98
1098 226 1499 65
1099 226 264 14
1100 226 388 54
1101 226 98 55
1102 227 1733 100
1103 227 624 35
1104 227 1424 74
1105 227 784 52
1106 227 1781 76
1107 227 319 4
1108 227 940 21
1109 228 1236 66
1110 228 159 22
1111 229 1902 39
1112 229 154 77
1113 229 766 90
1114 229 1671 68
1115 230 677 26
1116 230 1514 73
1117 230 1732 97
1118 230 552 18
1119 231 1172 17
1120 231 271 85
1121 231 483 43
1122 231 368 7
1123 231 1188 12
1124 231 1559 40
1125 231 648 99
1126 231 692 19
1127 231 1183 45
1128 231 1046 59
1129 232 53 51
1130 232 986 22
1131 232 307 59
1132 232 1897 1
1133 233 706 85
1134 233 1908 19
1135 233 537 26
1136 233 712 23
1137 233 548 39
1138 233 1607 40
1139 233 199 11
1140 233 1446 24
1141 233 1404 31
1142 234 1396 27
1143 234 1592 56
1144 234 1212 12
1145 234 203 93
1146 234 400 32
1147 234 368 20
1148 234 76 88
1149 234 1340 72
1150 235 46 100
1151 236 1822 48
1152 236 1796 1
1153 236 1558 62
1154 236 595 21
1155 236 896 45
1156 237 199 13
1157 237 1702 61
1158 237 107 71
1159 237 145 88
1160 237 1833 51
1161 237 1173 90
1162 237 2 28
1163 238 1393 61
1164 238 528 86
1165 238 1676 49
1166 238 27 60
1167 238 169 91
1168 239 374 32
1169 240 1326 98
1170 240 190 13
1171 240 1840 50
1172 240 558 17
1173 240 28 41
1174 240 1055 98
1175 240 370 18
1176 240 1865 52
1177 240 1970 99
1178 240 1998 42
1179 241 578 37
1180 241 1064 87
1181 241 1510 94
1182 241 1783 55
1183 241 760 77
1184 241 594 51
1185 241 1837 69
1186 242 433 10
1187 242 459 45
1188 242 295 63
1189 242 738 86
1190 242 1293 95
1191 243 263 76
1192 243 1232 4
1193 243 350 29
1194 244 1521 78
1195 244 25 23
1196 244 1566 99
1197 244 293 31
1198 245 1928 48
1199 245 15 47
1200 245 185 44
1201 245 1884 65
1202 245 810 1
1203 246 1761 79
1204 246 1430 77
1205 246 611 97
1206 246 1348 51
1207 246 84 10
1208 247 507 83
1209 247 1630 30
1210 247 1477 18
1211 247 1998 64
1212 247 1068 25
1213 247 1150 6
1214 247 475 28
1215 248 934 39
1216 248 411 56
1217 248 24 12
1218 248 1726 44
1219 249 97 50
1220 249 1995 84
1221 249 1422 24
1222 249 1450 55
1223 249 807 20
1224 249 1392 37
1225 249 1001 40
1226 249 394 50
1227 250 841 87
1228 250 87 62
1229 250 513 5
1230 250 1121 34
1231 250 1068 54
1232 250 1344 23
1233 251 277 21
1234 251 476 51
1235 251 1737 88
1236 251 1779 67
1237 251 219 14
1238 252 1207 60
1239 252 750 11
1240 252 85 45
1241 252 1362 88
1242 252 560 94
1243 253 1395 13
1244 253 186 84
1245 253 1884 52
1246 253 1318 2
1247 253 1870 21
1248 254 959 41
1249 254 1094 17
1250 254 927 74
1251 254 628 65
1252 255 919 50
1253 255 947 88
1254 255 175 59
1255 255 1432 2
1256 256 1991 63
1257 256 1464 84
1258 256 429 86
1259 256 276 52
1260 256 203 55
1261 256 1521 99
1262 256 880 7
1263 257 262 39
1264 257 1611 55
1265 257 623 34
1266 257 1299 95
1267 257 825 82
1268 258 969 15
1269 258 1306 78
1270 258 1028 58
1271 258 563 65
1272 258 87 48
1273 258 268 100
1274 258 1065 61
1275 258 1305 92
1276 258 1064 43
1277 258 292 69
1278 258 1032 47
1279 258 653 15
1280 259 1535 23
1281 259 422 55
1282 259 548 69
1283 260 392 98
1284 260 1490 50
1285 260 1040 87
1286 260 65 11
1287 260 531 20
1288 260 1602 1
1289 260 465 44
1290 261 1274 91
1291 261 1372 76
1292 261 1174 34
1293 261 1745 26
1294 261 1022 66
1295 261 638 79
1296 261 530 94
1297 261 392 59
1298 262 1798 56
1299 262 1517 7
1300 262 212 60
1301 262 1374 37
1302 262 110 6
1303 262 1714 16
1304 262 625 63
1305 263 1923 59
1306 264 778 47
1307 264 1218 7
1308 264 886 77
1309 264 210 88
1310 264 354 48
1311 265 365 33
1312 265 1439 55
1313 265 554 44
1314 266 1106 87
1315 266 329 38
1316 266 1847 99
1317 266 59 4
1318 266 160 70
1319 266 883 35
1320 266 1782 23
1321 267 1557 38
1322 267 1159 46
1323 267 405 54
1324 267 29 3
1325 267 1627 58
1326 267 1289 42
1327 268 1899 39
1328 268 1891 82
1329 268 735 5
1330 268 1808 77
1331 268 694 15
1332 268 1723 46
1333 269 184 94
1334 269 378 5
1335 269 1966 69
1336 269 190 95
1337 270 1481 51
1338 270 978 32
1339 270 970 23
1340 270 1839 11
1341 270 1982 69
1342 270 821 13
1343 270 508 17
1344 271 178 94
1345 271 511 19
1346 271 1454 82
1347 271 420 64
1348 271 1261 56
1349 272 1313 36
1350 272 553 45
1351 273 1641 59
1352 273 90 89
1353 273 1305 80
1354 273 204 32
1355 273 808 94
1356 273 836 68
1357 273 1886 73
1358 274 1807 59
1359 274 701 6
1360 274 951 10
1361 274 521 42
1362 274 569 48
1363 274 1233 5
1364 275 541 19
1365 275 615 78
1366 275 1973 93
1367 275 1391 82
1368 275 1289 13
1369 275 513 49
1370 275 23 66
1371 275 639 93
1372 275 1539 11
1373 275 405 44
1374 276 1985 82
1375 276 880 96
1376 277 1598 39
1377 277 805 55
1378 278 615 52
1379 278 986 3
1380 278 173 24
1381 278 6 96
1382 278 1889 33
1383 279 1769 93
1384 279 399 84
1385 279 1529 96
1386 279 704 11
1387 279 593 56
1388 279 937 15
1389 279 227 25
1390 279 669 74
1391 279 1464 34
1392 279 982 39
1393 280 1286 79
1394 280 783 66
1395 280 857 70
1396 280 408 32
1397 280 1061 89
1398 280 1723 7
1399 281 223 48
1400 281 410 74
1401 281 335 61
1402 281 1315 28
1403 281 1632 98
1404 281 776 56
1405 281 1488 36
1406 282 845 96
1407 282 1642 89
1408 282 1751 100
1409 282 1194 24
1410 283 308 36
1411 283 1787 65
1412 283 542 86
1413 283 1189 6
1414 283 450 78
1415 284 550 52
1416 284 1817 24
1417 284 385 87
1418 284 1673 37
1419 285 1297 35
1420 285 1607 1
1421 285 1388 53
1422 285 1711 27
1423 285 983 3
1424 285 603 54
1425 285 1399 85
1426 285 418 17
1427 286 92 36
1428 286 671 35
1429 286 1031 60
1430 286 1475 77
1431 286 1618 82
1432 286 1541 41
1433 286 1825 13
1434 286 73 29
1435 286 1181 29
1436 286 724 3
1437 286 1532 91
1438 286 570 42
1439 287 864 29
1440 287 383 9
1441 287 1683 79
1442 287 1259 37
1443 287 1829 94
1444 288 678 92
1445 288 1574 78
1446 289 1046 59
1447 289 1931 76
1448 289 1001 54
1449 289 1921 82
1450 289 161 77
1451 290 1517 43
1452 290 713 70
1453 290 1585 50
1454 290 1495 61
1455 290 613 72
1456 290 578 2
1457 290 1970 44
1458 290 731 44
1459 290 73 41
1460 291 1182 45
1461 291 949 57
1462 291 1409 20
1463 291 1605 60
1464 291 845 96
1465 291 764 64
1466 291 595 27
1467 292 1738 69
1468 292 550 90
1469 293 1352 22
1470 293 647 87
1471 293 1575 50
1472 293 1310 33
1473 293 1097 52
1474 293 147 5
1475 293 773 85
1476 294 640 74
1477 294 1266 11
1478 294 1107 81
1479 294 26 63
1480 295 839 72
1481 295 407 45
1482 295 1650 11
1483 295 610 27
1484 295 1151 96
1485 296 785 68
1486 296 1778 48
1487 296 442 39
1488 296 743 38
1489 296 117 97
1490 296 185 41
1491 297 108 58
1492 297 965 87
1493 297 1086 60
1494 297 1941 4
1495 297 1596 20
1496 298 1638 80
1497 298 902 75
1498 298 1489 22
1499 298 1732 80
1500 298 301 46
1501 299 281 73
1502 299 1456 56
1503 299 1719 54
1504 299 654 98
1505 299 1779 3
1506 299 873 97
1507 300 114 37
1508 300 655 72
1509 300 748 96
1510 300 1784 63
1511 301 1701 31
1512 301 246 49
1513 301 1637 69
1514 301 1572 17
1515 301 1231 49
1516 301 944 78
1517 302 1343 16
1518 302 1615 13
1519 302 483 51
1520 302 1201 28
1521 302 1466 28
1522 302 492 15
1523 302 771 74
1524 302 799 38
1525 303 134 23
1526 303 1160 21
1527 303 270 99
1528 303 112 100
1529 303 253 95
1530 303 1847 52
1531 304 914 71
1532 304 70 53
1533 304 749 46
1534 304 1337 97
1535 304 261 28
1536 305 1117 54
1537 305 1661 77
1538 305 1241 36
1539 305 1944 41
1540 305 574 99
1541 305 322 47
1542 305 1517 81
1543 305 1772 14
1544 306 1123 86
1545 306 336 88
1546 306 1240 82
1547 306 968 98
1548 306 669 82
1549 307 682 41
1550 307 366 65
1551 307 1059 69
1552 307 382 69
1553 307 332 51
1554 307 1829 29
1555 307 1071 52
1556 307 1867 64
1557 307 780 97
1558 308 706 60
1559 308 1528 37
1560 308 812 58
1561 309 900 21
1562 309 1349 23
1563 310 699 52
1564 310 769 37
1565 310 720 1
1566 311 1014 69
1567 311 101 43
1568 311 1595 98
1569 312 488 60
1570 312 1406 84
1571 312 873 23
1572 312 1513 88
1573 312 1132 13
1574 312 1493 50
1575 312 1161 75
1576 313 891 84
1577 313 1556 54
1578 313 420 54
1579 313 56 53
1580 313 1236 25
1581 314 1901 82
1582 314 48 4
1583 314 330 80
1584 314 1951 29
1585 314 647 18
1586 314 841 79
1587 314 89 80
1588 315 332 65
1589 315 778 11
1590 315 1464 77
1591 315 1436 74
1592 315 1325 94
1593 315 628 53
1594 315 1736 3
1595 316 872 42
1596 316 193 79
1597 316 1876 32
1598 316 1747 22
1599 317 388 73
1600 317 158 81
1601 317 564 61
1602 317 81 88
1603 317 920 12
1604 317 1906 48
1605 317 1953 3
1606 318 440 96
1607 318 216 77
1608 318 621 84
1609 318 1284 50
1610 318 1346 71
1611 318 1575 66
1612 318 704 25
1613 318 1942 21
1614 321 491 59
1615 321 1933 48
1616 322 116 93
1617 322 1545 31
1618 322 1653 23
1619 322 741 61
1620 322 1023 92
1621 323 929 26
1622 323 897 42
1623 323 900 17
1624 323 833 38
1625 323 903 9
1626 323 1093 4
1627 323 650 27
1628 323 32 74
1629 323 511 60
1630 323 560 59
1631 323 61 32
1632 323 1982 88
1633 324 357 78
1634 324 895 57
1635 324 732 31
1636 325 134 23
1637 325 1942 60
1638 326 1612 65
1639 326 205 83
1640 326 44 15
1641 327 1666 78
1642 327 830 43
1643 328 1902 21
1644 328 22 32
1645 329 1499 60
1646 329 586 93
1647 329 376 9
1648 329 796 1
1649 329 1977 96
1650 329 368 5
1651 330 1104 88
1652 330 1518 87
1653 330 1376 53
1654 330 1513 67
1655 330 349 61
1656 330 310 50
1657 331 660 10
1658 331 205 54
1659 331 703 34
1660 331 1598 92
1661 332 1999 69
1662 332 1497 16
1663 332 1154 92
1664 332 1092 100
1665 332 214 78
1666 332 1966 83
1667 333 758 69
1668 333 1748 92
1669 333 209 4
1670 333 795 57
1671 333 295 62
1672 334 1715 93
1673 334 122 8
1674 334 1445 38
1675 334 819 51
1676 335 1016 93
1677 336 526 99
1678 336 1904 6
1679 336 901 47
1680 336 920 52
1681 336 1008 92
1682 336 888 66
1683 336 406 81
1684 336 1405 84
1685 337 898 57
1686 337 517 55
1687 337 111 16
1688 338 542 14
1689 338 1721 19
1690 338 153 34
1691 339 1623 98
1692 339 1261 75
1693 339 1550 97
1694 339 1626 15
1695 340 832 93
1696 340 1421 22
1697 340 1811 47
1698 340 528 53
1699 340 1266 85
1700 340 1848 44
1701 340 163 19
1702 341 761 32
1703 341 813 62
1704 341 1622 27
1705 341 1259 34
1706 341 1227 13
1707 342 133 43
1708 342 1989 83
1709 342 1626 89
1710 342 1113 10
1711 342 1290 59
1712 342 90 91
1713 343 1240 63
1714 343 1311 97
1715 343 72 32
1716 343 950 97
1717 343 1482 34
1718 343 964 44
1719 344 1598 38
1720 344 1426 89
1721 344 158 57
1722 344 1671 43
1723 344 1896 58
1724 345 1180 90
1725 345 132 34
1726 345 101 73
1727 347 1349 36
1728 347 1403 77
1729 347 1031 5
1730 347 1912 98
1731 348 1183 18
1732 348 1894 19
1733 349 673 67
1734 349 449 37
1735 349 58 4
1736 349 578 29
1737 349 1710 48
1738 349 1130 73
1739 349 1542 47
1740 349 651 92
1741 349 1964 38
1742 349 1047 40
1743 350 1349 92
1744 350 1557 21
1745 350 174 73
1746 350 1927 82
1747 350 1231 40
1748 351 1641 61
1749 351 1616 92
1750 351 1846 57
1751 351 1343 87
1752 351 213 38
1753 352 1295 20
1754 353 80 96
1755 353 1666 89
1756 353 1562 17
1757 354 941 19
1758 354 999 78
1759 354 1357 38
1760 354 1154 50
1761 355 1130 33
1762 355 1233 82
1763 355 1505 30
1764 355 972 4
1765 355 687 28
1766 355 30 75
1767 355 1030 39
1768 356 543 19
1769 356 63 75
1770 356 695 2
1771 356 1491 34
1772 357 225 47
1773 357 1790 93
1774 357 1863 66
1775 357 1250 96
1776 357 1343 67
1777 358 963 52
1778 358 161 62
1779 358 1282 80
1780 358 1311 22
1781 358 1327 45
1782 358 543 83
1783 359 1251 20
1784 359 1004 76
1785 359 1322 65
1786 359 133 41
1787 359 1078 67
1788 360 1502 48
1789 360 484 49
1790 360 323 63
1791 360 1726 83
1792 360 386 22
1793 360 939 68
1794 361 863 62
1795 361 1135 23
1796 361 327 62
1797 361 1240 49
1798 361 767 2
1799 361 524 86
1800 362 1805 9
1801 362 641 44
1802 362 1416 29
1803 362 1898 40
1804 362 1718 27
1805 362 602 29
1806 362 1132 20
1807 363 1881 36
1808 363 1492 78
1809 363 1967 100
1810 363 65 94
1811 363 1995 16
1812 364 902 84
1813 364 491 26
1814 364 443 46
1815 364 877 64
1816 365 1189 59
1817 365 1100 73
1818 365 975 82
1819 365 1321 2
1820 366 1159 96
1821 366 758 68
1822 366 1143 30
1823 366 929 95
1824 366 1575 26
1825 366 1443 47
1826 366 783 86
1827 366 1754 5
1828 366 908 52
1829 367 1508 81
1830 367 619 13
1831 367 219 43
1832 367 457 65
1833 367 26 9
1834 367 533 35
1835 367 904 71
1836 367 1843 69
1837 368 348 95
1838 368 1396 69
1839 368 1970 11
1840 368 528 8
1841 369 559 58
1842 369 1947 73
1843 369 1595 67
1844 369 1126 32
1845 369 1804 32
1846 369 836 33
1847 369 1326 95
1848 369 1498 24
1849 369 190 89
1850 369 1179 84
1851 370 1702 32
1852 370 601 30
1853 370 786 89
1854 371 1374 92
1855 371 55 59
1856 372 102 23
1857 372 1276 6
1858 372 805 78
1859 372 1571 35
1860 373 1098 71
1861 374 1939 36
1862 374 233 12
1863 374 523 96
1864 374 898 25
1865 375 570 94
1866 375 73 9
1867 375 905 17
1868 375 769 67
1869 376 1545 39
1870 376 1877 8
1871 376 1066 27
1872 376 1021 30
1873 376 1749 32
1874 376 1684 75
1875 377 1977 98
1876 377 650 75
1877 377 518 62
1878 377 1691 60
1879 378 287 13
1880 378 759 69
1881 378 1835 7
1882 378 516 41
1883 378 290 82
1884 379 392 10
1885 379 1808 26
1886 379 900 62
1887 380 140 15
1888 380 1704 57
1889 380 497 11
1890 380 732 61
1891 381 28 26
1892 381 1311 13
1893 381 1441 70
1894 381 823 76
1895 382 1016 28
1896 382 1971 77
1897 382 1113 63
1898 383 1360 39
1899 383 882 73
1900 383 1123 2
1901 383 546 75
1902 383 680 56
1903 384 904 15
1904 384 247 93
1905 384 218 57
1906 384 878 100
1907 384 142 83
1908 384 860 25
1909 384 998 76
1910 384 140 82
1911 385 658 79
1912 385 1713 97
1913 385 337 59
1914 385 1747 1
1915 386 1428 33
1916 386 1919 97
1917 386 1531 53
1918 386 843 77
1919 386 1754 35
1920 386 304 64
1921 386 1794 81
1922 386 1750 23
1923 387 11 43
1924 387 856 65
1925 387 1537 62
1926 387 1367 66
1927 387 1749 37
1928 388 702 83
1929 388 1160 39
1930 388 395 34
1931 388 392 69
1932 388 1279 32
1933 388 8 44
1934 389 193 36
1935 389 1271 87
1936 389 1970 72
1937 389 1021 65
1938 389 696 40
1939 389 1516 81
1940 389 1704 57
1941 390 1887 15
1942 390 38 97
1943 390 36 24
1944 390 1937 63
1945 390 176 1
1946 390 395 41
1947 391 175 66
1948 391 612 61
1949 391 1990 64
1950 392 389 21
1951 392 184 23
1952 392 531 9
1953 393 1960 98
1954 393 1834 56
1955 393 240 87
1956 393 56 39
1957 393 961 13
1958 393 1392 57
1959 393 1902 44
1960 394 646 82
1961 394 1656 88
1962 394 1792 69
1963 394 656 24
1964 394 586 25
1965 394 1956 100
1966 394 1463 14
1967 394 1262 98
1968 395 43 30
1969 395 463 28
1970 395 51 40
1971 395 910 65
1972 396 602 40
1973 396 230 41
1974 396 1569 99
1975 396 1351 68
1976 396 1885 61
1977 396 702 14
1978 397 606 88
1979 397 1855 39
1980 397 753 79
1981 397 234 27
1982 397 676 74
1983 397 1562 87
1984 398 68 20
1985 398 931 42
1986 398 1004 21
1987 398 812 25
1988 398 552 99
1989 399 1064 51
1990 400 937 22
1991 400 1500 21
1992 400 1505 79
1993 400 517 85
1994 401 675 21
1995 401 1681 42
1996 401 44 67
1997 401 1094 61
1998 402 1300 84
1999 402 1589 77
2000 402 220 54
2001 402 1382 100
2002 403 937 93
2003 403 336 35
2004 404 1848 30
2005 404 1804 34
2006 405 999 61
2007 405 1407 39
2008 405 403 48
2009 406 1247 19
2010 406 738 40
2011 406 172 43
2012 406 536 94
2013 407 1466 46
2014 407 313 96
2015 407 301 41
2016 407 787 58
2017 407 943 40
2018 407 1025 55
2019 407 1530 73
2020 407 693 51
2021 407 405 98
2022 407 142 54
2023 408 1672 1
2024 408 1718 98
2025 408 1814 52
2026 408 1496 8
2027 408 1403 53
2028 408 320 46
2029 408 186 83
2030 408 1952 18
2031 408 616 59
2032 409 1593 99
2033 409 546 36
2034 409 378 3
2035 409 848 91
2036 409 187 26
2037 409 1161 27
2038 410 1218 85
2039 410 683 92
2040 411 270 33
2041 411 981 38
2042 411 1616 48
2043 411 120 4
2044 411 234 42
2045 412 603 55
2046 412 1608 49
2047 413 1695 42
2048 413 1684 72
2049 413 733 72
2050 413 219 95
2051 413 1807 26
2052 413 1017 28
2053 413 326 80
2054 413 899 65
2055 413 1902 57
2056 414 1410 36
2057 414 1070 14
2058 414 687 10
2059 415 278 32
2060 415 1270 21
2061 415 1551 42
2062 415 7 93
2063 415 925 62
2064 416 1407 93
2065 416 759 76
2066 416 1995 61
2067 416 1732 6
2068 416 1867 100
2069 417 840 85
2070 417 1543 50
2071 417 846 89
2072 417 1119 91
2073 417 1778 63
2074 417 144 32
2075 417 1191 36
2076 417 667 78
2077 418 1371 76
2078 418 617 49
2079 418 812 8
2080 418 135 13
2081 418 1314 8
2082 418 257 82
2083 419 283 44
2084 419 1057 36
2085 420 1468 69
2086 420 1060 48
2087 420 1151 57
2088 420 1865 37
2089 420 1817 15
2090 420 819 61
2091 421 1395 18
2092 421 688 96
2093 421 477 10
2094 421 634 42
2095 421 1953 100
2096 421 1423 94
2097 421 350 53
2098 422 1672 20
2099 423 1705 20
2100 423 1067 76
2101 423 1666 39
2102 423 1649 74
2103 423 349 26
2104 423 1340 72
2105 423 1060 12
2106 423 1336 57
2107 423 1111 32
2108 423 376 42
2109 424 1200 74
2110 424 1036 70
2111 424 1913 98
2112 424 1977 85
2113 424 1168 34
2114 425 1281 72
2115 425 925 68
2116 425 1409 38
2117 425 621 89
2118 425 800 3
2119 427 1780 18
2120 427 1342 99
2121 427 1667 99
2122 428 1515 9
2123 428 1253 90
2124 428 985 92
2125 428 14 95
2126 428 1489 41
2127 429 897 47
2128 429 511 99
2129 429 1278 58
2130 429 1425 96
2131 429 711 28
2132 429 898 24
2133 429 446 42
2134 429 1950 60
2135 430 1760 30
2136 430 624 59
2137 430 1196 47
2138 430 1094 43
2139 430 1407 26
2140 431 1570 87
2141 431 1183 91
2142 431 1736 34
2143 431 1695 33
2144 431 714 78
2145 431 251 96
2146 432 1870 3
2147 432 541 18
2148 432 1845 16
2149 432 1503 83
2150 432 1356 53
2151 432 1767 55
2152 432 379 51
2153 432 1069 63
2154 433 1919 7
2155 433 820 68
2156 433 456 8
2157 433 1654 66
2158 434 1314 48
2159 434 23 3
2160 434 1460 73
2161 434 1195 56
2162 434 584 5
2163 434 1079 65
2164 435 316 42
2165 435 1198 69
2166 435 380 63
2167 436 1036 37
2168 436 1286 74
2169 436 1358 43
2170 436 1565 82
2171 436 1353 9
2172 436 4 95
2173 437 1770 10
2174 437 1046 73
2175 437 976 12
2176 437 190 72
2177 437 216 100
2178 437 953 15
2179 438 1104 69
2180 438 699 21
2181 438 1053 66
2182 438 588 12
2183 438 1986 74
2184 439 421 60
2185 439 1041 79
2186 440 880 84
2187 440 770 25
2188 440 1960 97
2189 440 1345 10
2190 441 1710 99
2191 441 1666 88
2192 441 1490 56
2193 441 374 36
2194 441 1013 60
2195 441 1653 58
2196 442 1665 95
2197 442 1075 20
2198 442 712 84
2199 442 1775 43
2200 442 958 10
2201 443 1512 24
2202 443 919 83
2203 443 1211 74
2204 443 1550 44
2205 444 908 59
2206 444 981 68
2207 444 177 100
2208 444 700 89
2209 444 1946 95
2210 445 411 56
2211 445 1673 3
2212 445 1890 52
2213 445 210 74
2214 446 952 38
2215 446 1993 1
2216 446 271 80
2217 446 316 50
2218 446 295 3
2219 446 836 2
2220 447 476 29
2221 447 1560 42
2222 447 870 55
2223 447 1946 20
2224 447 1831 34
2225 447 1257 29
2226 447 841 75
2227 447 1527 87
2228 448 360 99
2229 448 1303 42
2230 448 1559 69
2231 448 1813 59
2232 448 1023 84
2233 448 803 86
2234 448 1877 26
2235 449 283 99
2236 449 558 74
2237 449 1179 46
2238 449 950 92
2239 449 1203 74
2240 449 1884 20
2241 449 1832 25
2242 449 1496 99
2243 449 235 19
2244 450 1959 27
2245 451 919 40
2246 451 14 24
2247 451 999 13
2248 451 1386 4
2249 451 538 69
2250 451 129 78
2251 451 150 6
2252 451 1963 100
2253 451 1472 17
2254 451 1350 70
2255 451 908 45
2256 452 448 9
2257 452 912 42
2258 452 1309 41
2259 452 1263 30
2260 452 313 85
2261 452 479 27
2262 453 1326 26
2263 453 682 39
2264 453 1809 21
2265 453 1458 55
2266 454 1672 35
2267 454 1045 30
2268 454 4 28
2269 454 759 99
2270 454 439 46
2271 454 1600 4
2272 455 1405 18
2273 455 1826 57
2274 455 263 16
2275 455 1245 49
2276 456 48 4
2277 456 1709 57
2278 456 1729 96
2279 456 1057 95
2280 456 1419 27
2281 456 795 49
2282 457 285 7
2283 457 530 58
2284 457 1833 57
2285 458 1957 52
2286 458 294 26
2287 458 996 27
2288 458 93 99
2289 459 1735 49
2290 459 57 76
2291 459 1520 16
2292 459 42 12
2293 459 1326 23
2294 459 49 65
2295 459 114 75
2296 459 421 93
2297 460 131 67
2298 460 1651 16
2299 460 1723 21
2300 460 1928 97
2301 460 47 27
2302 460 358 16
2303 461 708 63
2304 461 615 95
2305 461 333 78
2306 461 1866 46
2307 461 412 96
2308 461 1331 41
2309 462 1761 54
2310 462 614 25
2311 462 380 27
2312 462 1134 12
2313 462 1279 65
2314 462 188 47
2315 463 281 62
2316 463 1714 33
2317 463 963 66
2318 463 348 15
2319 463 1807 59
2320 464 1531 3
2321 464 629 1
2322 464 1481 49
2323 464 874 54
2324 465 739 52
2325 465 1648 13
2326 465 854 46
2327 465 867 47
2328 465 845 40
2329 466 1583 9
2330 466 1477 56
2331 466 1865 84
2332 466 834 39
2333 466 43 30
2334 467 847 90
2335 467 1517 11
2336 467 459 84
2337 467 642 83
2338 467 1075 50
2339 468 138 61
2340 468 1667 3
2341 468 625 36
2342 469 1683 94
2343 469 1921 83
2344 469 415 42
2345 469 506 6
2346 469 246 19
2347 470 506 32
2348 470 774 23
2349 471 1205 73
2350 471 1243 2
2351 471 1024 17
2352 471 777 67
2353 471 157 20
2354 471 955 18
2355 472 1221 89
2356 472 1286 61
2357 472 624 98
2358 473 784 5
2359 473 139 8
2360 473 935 77
2361 473 454 27
2362 473 203 95
2363 474 590 85
2364 474 1940 38
2365 474 1811 48
2366 474 197 80
2367 474 1580 54
2368 475 944 21
2369 475 1095 54
2370 475 1717 23
2371 475 472 23
2372 475 1709 67
2373 475 1039 20
2374 475 188 95
2375 476 1994 86
2376 476 1863 24
2377 476 1451 47
2378 476 1843 15
2379 476 43 21
2380 476 1150 4
2381 477 1109 64
2382 477 524 27
2383 478 965 40
2384 478 543 52
2385 479 1093 81
2386 480 1292 48
2387 480 1817 34
2388 480 1506 80
2389 480 428 42
2390 480 716 4
2391 481 826 4
2392 481 740 43
2393 481 1430 4
2394 482 790 61
2395 482 1137 5
2396 482 609 95
2397 482 1265 19
2398 482 1010 53
2399 483 1751 6
2400 483 127 70
2401 483 229 49
2402 483 1649 98
2403 483 1039 77
2404 484 1770 93
2405 484 1618 68
2406 484 597 22
2407 484 1756 21
2408 484 1009 13
2409 484 1932 2
2410 484 106 45
2411 484 215 29
2412 485 429 12
2413 486 616 54
2414 486 100 9
2415 486 761 15
2416 486 1038 61
2417 487 570 60
2418 487 1205 54
2419 487 710 69
2420 487 444 57
2421 487 1353 18
2422 487 239 78
2423 487 270 82
2424 488 543 1
2425 488 859 40
2426 488 625 61
2427 488 1001 61
2428 488 348 33
2429 489 1171 17
2430 489 633 42
2431 489 1736 85
2432 489 656 70
2433 489 1921 47
2434 489 1326 79
2435 489 984 86
2436 489 427 92
2437 490 1013 13
2438 490 1540 62
2439 490 1927 64
2440 490 1336 96
2441 491 1935 74
2442 492 1414 26
2443 492 422 17
2444 492 1160 29
2445 492 1153 66
2446 492 1173 17
2447 492 33 19
2448 493 1501 29
2449 493 440 85
2450 493 1739 11
2451 493 393 96
2452 493 1023 13
2453 493 545 92
2454 493 812 52
2455 494 1474 37
2456 494 1747 79
2457 495 1787 14
2458 495 1138 32
2459 496 64 29
2460 496 103 33
2461 496 1424 24
2462 496 667 94
2463 496 950 85
2464 496 421 39
2465 496 978 43
2466 498 627 91
2467 498 1427 60
2468 498 1895 86
2469 498 433 76
2470 499 88 67
2471 499 114 67
2472 500 1087 74
2473 500 94 35
2474 500 1886 98
2475 500 1513 17
2476 500 1182 42
2477 501 334 55
2478 501 973 48
2479 501 1648 85
2480 501 1516 19
2481 501 1806 75
2482 501 350 95
2483 501 58 5
2484 501 868 96
2485 501 157 50
2486 502 1701 81
2487 502 308 7
2488 502 1632 26
2489 502 310 24
2490 502 1699 2
2491 502 1487 19
2492 502 148 82
2493 503 1022 5
2494 503 1062 31
2495 503 365 21
2496 503 784 51
2497 504 1185 42
2498 504 571 2
2499 504 1609 74
2500 504 496 62
2501 504 1972 62
2502 505 1525 45
2503 505 1476 25
2504 505 875 81
2505 505 1076 74
2506 506 1720 52
2507 506 1393 58
2508 506 1559 28
2509 506 220 59
2510 506 158 80
2511 506 967 34
2512 506 418 70
2513 507 1449 57
2514 507 288 16
2515 507 567 96
2516 507 1345 36
2517 507 670 84
2518 507 480 99
2519 507 215 66
2520 507 1264 44
2521 508 546 44
2522 508 242 24
2523 508 1971 33
2524 508 1133 44
2525 508 1983 63
2526 508 560 99
2527 508 757 71
2528 508 615 59
2529 509 463 85
2530 509 986 13
2531 509 788 86
2532 509 1167 44
2533 509 1071 98
2534 509 620 67
2535 509 754 34
2536 509 1686 9
2537 509 1662 47
2538 510 1291 55
2539 510 67 83
2540 510 1388 4
2541 510 575 70
2542 511 1967 17
2543 511 334 13
2544 511 767 30
2545 511 1703 59
2546 511 1664 15
2547 511 1579 16
2548 512 52 71
2549 512 935 92
2550 512 106 38
2551 512 663 17
2552 512 354 45
2553 512 277 40
2554 512 1921 58
2555 513 1388 56
2556 513 1635 71
2557 513 1151 11
2558 513 1591 65
2559 513 234 24
2560 514 1988 51
2561 514 472 66
2562 514 282 25
2563 515 1933 19
2564 515 770 88
2565 515 395 29
2566 515 1964 100
2567 516 1482 3
2568 516 1669 26
2569 516 1245 94
2570 516 446 96
2571 517 1348 46
2572 517 1394 68
2573 517 1416 77
2574 518 985 100
2575 518 25 20
2576 518 1131 73
2577 518 1201 68
2578 519 535 68
2579 519 1033 7
2580 520 975 69
2581 520 506 47
2582 521 90 70
2583 521 1618 30
2584 521 1897 89
2585 522 416 68
2586 522 1583 22
2587 522 11 48
2588 522 1579 21
2589 523 348 13
2590 523 616 88
2591 524 404 22
2592 524 1319 82
2593 524 100 82
2594 525 1530 80
2595 525 1406 29
2596 525 1743 97
2597 526 1471 92
2598 526 186 20
2599 526 779 70
2600 527 1363 79
2601 527 1781 55
2602 527 1358 26
2603 528 654 36
2604 528 1957 7
2605 528 1286 52
2606 528 696 38
2607 528 769 50
2608 528 1882 67
2609 529 697 54
2610 529 1485 61
2611 529 834 60
2612 529 1123 42
2613 529 494 18
2614 530 1539 93
2615 530 1878 39
2616 530 621 1
2617 530 265 10
2618 531 333 33
2619 531 376 91
2620 531 1809 72
2621 532 776 86
2622 532 1679 40
2623 532 739 27
2624 532 464 94
2625 532 305 79
2626 533 1441 77
2627 533 1199 9
2628 533 125 8
2629 533 355 97
2630 533 239 53
2631 533 781 18
2632 534 1742 19
2633 534 1949 62
2634 534 1343 21
2635 534 358 98
2636 534 410 32
2637 535 1338 51
2638 535 736 21
2639 535 1602 83
2640 535 1541 54
2641 535 1239 51
2642 536 1587 76
2643 536 441 25
2644 536 1472 32
2645 536 1865 45
2646 536 1832 10
2647 537 174 29
2648 537 614 36
2649 537 1659 18
2650 538 1529 52
2651 538 713 16
2652 538 1702 93
2653 538 485 95
2654 538 1066 75
2655 538 1337 87
2656 539 900 20
2657 539 1502 27
2658 539 508 57
2659 539 1109 19
2660 540 1035 87
2661 540 1058 36
2662 540 1196 98
2663 540 1478 42
2664 540 1569 2
2665 540 1804 82
2666 541 1489 16
2667 541 343 67
2668 541 1735 40
2669 542 285 68
2670 542 693 14
2671 542 1333 99
2672 542 1745 81
2673 543 271 77
2674 543 1980 61
2675 543 423 30
2676 543 97 85
2677 543 242 57
2678 544 1083 39
2679 544 762 16
2680 544 243 70
2681 545 310 96
2682 545 488 79
2683 546 1124 59
2684 546 1640 20
2685 546 1953 10
2686 546 1240 97
2687 546 1643 93
2688 546 41 44
2689 547 1680 35
2690 547 59 6
2691 547 920 49
2692 547 1239 33
2693 547 1285 15
2694 547 653 81
2695 548 135 60
2696 548 292 55
2697 548 1801 75
2698 549 1190 22
2699 549 1130 91
2700 549 1014 89
2701 550 1501 63
2702 550 1155 98
2703 550 845 38
2704 551 1492 29
2705 551 1334 67
2706 551 965 14
2707 551 841 12
2708 551 1216 94
2709 551 124 78
2710 551 1296 77
2711 551 744 47
2712 551 174 31
2713 552 1895 86
2714 552 209 64
2715 552 1275 90
2716 552 1646 56
2717 552 1946 54
2718 552 1429 8
2719 552 516 82
2720 552 1430 14
2721 553 368 99
2722 553 255 36
2723 553 1699 93
2724 553 569 94
2725 554 627 36
2726 554 1071 33
2727 554 292 82
2728 555 1691 66
2729 555 1817 43
2730 555 108 54
2731 555 1403 86
2732 556 687 33
2733 556 478 46
2734 556 1711 11
2735 556 583 2
2736 556 1766 13
2737 556 1992 92
2738 556 1670 63
2739 557 577 32
2740 557 907 75
2741 557 1072 64
2742 558 1700 29
2743 558 920 76
2744 558 279 56
2745 558 757 86
2746 559 850 35
2747 559 441 14
2748 559 254 100
2749 559 1548 91
2750 559 503 63
2751 559 314 72
2752 560 428 78
2753 560 1709 73
2754 560 234 49
2755 560 289 78
2756 560 1420 67
2757 560 20 86
2758 560 986 49
2759 561 93 6
2760 561 754 78
2761 561 392 14
2762 561 1426 76
2763 561 175 83
2764 562 900 13
2765 562 1211 74
2766 562 256 13
2767 562 1097 16
2768 562 460 98
2769 562 390 31
2770 563 501 47
2771 563 124 75
2772 563 573 87
2773 563 1776 91
2774 563 169 78
2775 564 825 54
2776 564 1393 51
2777 564 413 92
2778 565 388 96
2779 565 1064 6
2780 565 1197 45
2781 565 1882 83
2782 565 229 57
2783 565 531 59
2784 566 90 74
2785 566 463 67
2786 566 1090 5
2787 566 1575 52
2788 566 108 81
2789 566 131 96
2790 566 1837 100
2791 567 1775 56
2792 567 1009 86
2793 567 18 4
2794 568 171 28
2795 568 1943 73
2796 568 1348 24
2797 568 1801 4
2798 568 1165 81
2799 568 263 43
2800 568 1899 13
2801 569 1540 38
2802 569 371 53
2803 569 103 4
2804 569 516 94
2805 569 400 59
2806 569 866 33
2807 570 1770 46
2808 570 1540 88
2809 570 1566 45
2810 570 930 46
2811 571 1805 32
2812 571 1723 36
2813 572 1802 58
2814 572 67 7
2815 572 1843 42
2816 572 1798 59
2817 572 160 90
2818 573 461 82
2819 574 1726 34
2820 574 1009 99
2821 574 1931 21
2822 574 1637 27
2823 575 1222 72
2824 575 119 99
2825 575 433 71
2826 575 563 83
2827 576 1013 42
2828 576 763 95
2829 576 93 52
2830 577 1593 97
2831 577 551 45
2832 577 1772 100
2833 577 43 23
2834 577 333 64
2835 578 611 12
2836 578 1414 43
2837 578 1426 46
2838 578 89 79
2839 579 50 69
2840 579 1848 95
2841 579 1690 30
2842 579 293 41
2843 580 1388 40
2844 580 691 13
2845 580 1225 93
2846 580 1175 12
2847 580 298 82
2848 580 1437 52
2849 580 1232 41
2850 580 1608 80
2851 581 1732 64
2852 581 852 82
2853 581 369 24
2854 581 356 97
2855 582 1487 49
2856 582 1251 26
2857 582 706 34
2858 582 656 91
2859 582 1365 63
2860 583 171 45
2861 583 1595 44
2862 583 56 57
2863 583 429 47
2864 583 1325 97
2865 583 82 21
2866 583 36 22
2867 584 866 42
2868 584 1322 3
2869 584 373 15
2870 584 294 25
2871 584 1180 75
2872 585 480 40
2873 585 731 65
2874 585 1099 90
2875 585 1776 83
2876 585 1797 72
2877 585 1134 38
2878 586 1457 97
2879 586 949 72
2880 587 430 69
2881 587 35 23
2882 587 960 51
2883 587 992 80
2884 587 1034 90
2885 587 564 10
2886 587 462 26
2887 587 821 12
2888 588 465 12
2889 588 657 92
2890 588 190 77
2891 588 874 85
2892 588 1758 52
2893 589 897 34
2894 589 1387 19
2895 589 249 92
2896 589 1956 44
2897 589 1528 69
2898 589 1487 46
2899 589 1445 51
2900 589 153 18
2901 590 1356 50
2902 590 1787 14
2903 590 1962 95
2904 590 1141 38
2905 590 1537 79
2906 590 1501 73
2907 590 225 11
2908 590 132 42
2909 591 899 29
2910 591 150 57
2911 591 335 6
2912 592 163 32
2913 592 671 71
2914 592 235 20
2915 592 479 86
2916 592 1337 36
2917 592 577 4
2918 593 1985 64
2919 593 82 29
2920 593 93 89
2921 593 592 29
2922 593 1888 32
2923 594 1936 29
2924 594 86 57
2925 594 396 83
2926 595 933 28
2927 595 737 19
2928 595 1375 2
2929 595 958 38
2930 595 75 32
2931 595 1710 3
2932 595 448 79
2933 595 1158 62
2934 595 1905 57
2935 596 66 54
2936 596 879 72
2937 596 1505 71
2938 596 1454 73
2939 596 900 25
2940 596 798 53
2941 596 755 24
2942 596 1350 67
2943 596 1442 75
2944 597 847 52
2945 597 1154 81
2946 597 1121 74
2947 597 387 50
2948 597 1084 96
2949 597 80 34
2950 598 66 91
2951 598 265 47
2952 599 592 34
2953 599 1776 56
2954 599 1779 48
2955 600 412 47
2956 600 853 31
2957 600 1480 41
2958 600 175 70
2959 600 1349 46
2960 601 890 10
2961 601 1355 89
2962 601 542 18
2963 602 453 42
2964 602 949 90
2965 602 927 32
2966 602 696 69
2967 602 127 75
2968 602 387 17
2969 602 1273 13
2970 603 260 65
2971 603 1111 91
2972 603 592 61
2973 603 956 69
2974 603 664 41
2975 604 44 14
2976 604 1528 78
2977 604 312 30
2978 604 328 93
2979 605 1135 45
2980 605 1432 92
2981 605 1729 90
2982 605 531 83
2983 605 1678 71
2984 605 858 29
2985 605 330 60
2986 606 540 35
2987 606 1450 74
2988 606 1456 7
2989 607 445 59
2990 607 413 80
2991 607 1714 57
2992 608 1761 64
2993 608 1174 76
2994 608 396 56
2995 608 1160 9
2996 609 1791 22
2997 609 486 3
2998 610 1942 72
2999 610 1775 58
3000 610 1172 72
3001 610 798 84
3002 610 1789 8
3003 611 385 45
3004 611 846 62
3005 611 678 91
3006 611 1170 19
3007 611 20 9
3008 611 1426 88
3009 612 1215 46
3010 612 989 9
3011 612 746 93
3012 613 1908 36
3013 613 1850 73
3014 613 972 33
3015 613 18 94
3016 613 1167 4
3017 613 744 92
3018 613 577 77
3019 614 936 63
3020 614 770 56
3021 614 91 91
3022 614 1037 98
3023 614 1728 18
3024 614 828 51
3025 615 1038 28
3026 615 76 85
3027 615 1723 58
3028 615 1694 40
3029 616 831 69
3030 616 549 90
3031 616 861 87
3032 616 712 39
3033 616 1576 43
3034 616 562 30
3035 616 1286 73
3036 617 1242 66
3037 617 975 53
3038 617 248 19
3039 617 1367 99
3040 617 172 70
3041 617 1571 88
3042 617 1279 76
3043 618 1329 41
3044 618 989 1
3045 618 1794 79
3046 618 325 7
3047 618 1033 92
3048 618 1025 97
3049 618 1836 46
3050 619 483 76
3051 619 358 16
3052 619 808 100
3053 619 179 10
3054 619 1526 79
3055 620 1630 9
3056 620 1959 68
3057 620 495 53
3058 620 636 94
3059 620 820 21
3060 620 1273 94
3061 620 1811 25
3062 620 69 32
3063 621 907 77
3064 621 602 100
3065 621 997 98
3066 622 174 23
3067 622 337 24
3068 622 159 4
3069 622 1488 84
3070 622 1161 64
3071 622 1011 94
3072 622 1487 16
3073 622 937 43
3074 623 1008 12
3075 623 13 13
3076 623 1822 52
3077 623 1584 74
3078 623 1477 90
3079 623 190 88
3080 623 225 50
3081 623 228 53
3082 624 430 49
3083 624 1073 90
3084 624 346 61
3085 624 683 18
3086 624 331 44
3087 624 234 24
3088 624 766 13
3089 624 1902 40
3090 624 175 46
3091 625 1164 23
3092 625 1459 91
3093 625 997 56
3094 625 832 33
3095 625 1746 64
3096 626 1420 12
3097 626 870 24
3098 626 1452 34
3099 626 10 52
3100 627 913 26
3101 627 1205 30
3102 628 861 45
3103 628 1183 83
3104 628 1028 82
3105 629 490 11
3106 629 1218 44
3107 629 1680 58
3108 629 679 97
3109 629 1717 13
3110 629 1948 68
3111 630 1631 33
3112 630 749 3
3113 630 1957 78
3114 630 50 8
3115 630 1503 72
3116 630 13 8
3117 631 910 88
3118 631 948 48
3119 631 1607 13
3120 631 43 22
3121 632 1887 1
3122 632 1410 68
3123 632 484 2
3124 633 1365 1
3125 633 815 42
3126 633 1364 50
3127 633 1495 40
3128 633 384 4
3129 633 1120 73
3130 633 390 73
3131 634 161 48
3132 635 945 9
3133 635 1981 23
3134 635 1850 25
3135 635 333 82
3136 636 1128 80
3137 636 670 64
3138 636 1472 24
3139 637 1453 69
3140 637 336 28
3141 638 1179 45
3142 638 702 13
3143 638 1451 88
3144 639 1917 20
3145 639 46 77
3146 639 1308 48
3147 639 680 74
3148 639 1255 23
3149 639 1067 57
3150 639 817 91
3151 640 388 99
3152 640 847 23
3153 640 872 65
3154 640 807 20
3155 640 1070 57
3156 641 1179 4
3157 641 1222 80
3158 641 241 5
3159 641 752 69
3160 641 1121 16
3161 641 674 40
3162 641 90 38
3163 641 892 14
3164 641 1732 45
3165 641 1336 88
3166 641 1046 24
3167 642 1358 76
3168 642 1959 67
3169 642 1457 22
3170 642 724 13
3171 642 1232 64
3172 642 1179 25
3173 642 1202 78
3174 642 765 20
3175 643 363 79
3176 643 253 44
3177 643 251 59
3178 643 250 85
3179 643 716 71
3180 643 1952 50
3181 644 435 58
3182 644 516 15
3183 644 32 86
3184 644 1724 71
3185 644 1453 9
3186 644 1746 44
3187 644 190 32
3188 644 1539 47
3189 645 1896 19
3190 645 1008 31
3191 645 1672 63
3192 645 1395 25
3193 646 821 52
3194 646 837 6
3195 646 1411 46
3196 646 1608 8
3197 646 1509 62
3198 646 1133 85
3199 647 1902 91
3200 647 243 97
3201 647 1963 76
3202 647 1693 13
3203 647 10 67
3204 647 24 12
3205 647 296 85
3206 648 738 84
3207 648 270 42
3208 648 1337 68
3209 648 1143 73
3210 648 531 74
3211 648 773 90
3212 648 232 69
3213 649 1315 67
3214 649 356 51
3215 649 782 97
3216 649 559 70
3217 649 1543 83
3218 650 1076 26
3219 650 995 37
3220 650 1235 42
3221 650 1318 18
3222 650 686 58
3223 651 1525 98
3224 651 927 26
3225 651 951 38
3226 651 1810 81
3227 651 1227 55
3228 651 1743 52
3229 651 1059 56
3230 652 1906 49
3231 652 332 11
3232 652 1802 63
3233 652 555 4
3234 652 1761 63
3235 652 1275 14
3236 653 1503 42
3237 653 495 72
3238 653 1182 62
3239 653 137 79
3240 653 1582 50
3241 653 1012 40
3242 654 1828 64
3243 654 1367 99
3244 654 343 37
3245 654 924 99
3246 655 1872 88
3247 655 319 90
3248 655 632 8
3249 655 1833 68
3250 655 1163 6
3251 656 485 25
3252 656 1235 12
3253 656 493 40
3254 656 39 76
3255 656 705 96
3256 656 722 74
3257 657 210 70
3258 657 781 23
3259 657 410 83
3260 657 220 41
3261 657 1712 95
3262 658 795 7
3263 658 1713 69
3264 658 1840 4
3265 659 1780 7
3266 659 1245 39
3267 659 1696 50
3268 659 508 25
3269 659 1550 46
3270 659 1459 69
3271 659 1582 7
3272 660 1744 88
3273 660 1236 56
3274 660 279 95
3275 660 1454 66
3276 660 1222 68
3277 660 839 23
3278 660 1786 66
3279 660 1172 48
3280 660 417 88
3281 661 1696 90
3282 661 324 6
3283 661 754 28
3284 661 1634 13
3285 661 261 59
3286 662 237 24
3287 662 1441 29
3288 662 1246 92
3289 662 1402 41
3290 662 527 10
3291 662 314 92
3292 662 1540 27
3293 662 1556 64
3294 663 32 27
3295 663 1360 74
3296 664 1630 82
3297 664 1768 79
3298 664 30 2
3299 664 1292 6
3300 664 170 49
3301 664 550 27
3302 665 372 89
3303 665 1775 15
3304 665 1538 38
3305 666 1136 1
3306 666 182 31
3307 666 1388 85
3308 666 130 43
3309 667 1754 23
3310 667 1138 50
3311 667 858 30
3312 667 471 48
3313 667 466 52
3314 667 76 6
3315 667 1202 20
3316 668 60 19
3317 668 995 77
3318 669 1530 32
3319 669 312 80
3320 669 1760 86
3321 669 660 34
3322 669 1210 55
3323 670 433 88
3324 670 1912 74
3325 670 1012 91
3326 671 1749 81
3327 671 303 40
3328 671 1057 27
3329 671 506 84
3330 672 1745 95
3331 672 1585 35
3332 672 1665 53
3333 672 611 89
3334 673 1166 2
3335 673 1864 54
3336 674 901 53
3337 674 919 49
3338 674 1079 36
3339 674 1986 25
3340 674 636 100
3341 674 512 63
3342 674 1311 33
3343 674 1408 77
3344 675 843 2
3345 675 1372 81
3346 675 193 89
3347 675 618 51
3348 676 1276 6
3349 676 1324 90
3350 676 955 99
3351 676 1475 58
3352 676 164 17
3353 676 1163 85
3354 677 720 89
3355 677 1146 29
3356 677 480 10
3357 677 1986 82
3358 677 731 15
3359 678 1158 15
3360 678 420 21
3361 678 1414 63
3362 678 761 9
3363 678 1325 24
3364 678 1744 69
3365 678 1653 42
3366 678 701 22
3367 678 1845 95
3368 678 738 33
3369 678 834 88
3370 678 800 92
3371 678 1770 89
3372 679 1781 51
3373 679 786 37
3374 679 1977 69
3375 679 1879 37
3376 679 678 37
3377 679 77 73
3378 679 1637 34
3379 680 1723 14
3380 680 359 98
3381 681 1292 16
3382 681 123 51
3383 681 1087 26
3384 682 657 12
3385 682 699 72
3386 682 1396 64
3387 682 312 26
3388 682 283 17
3389 682 1217 67
3390 683 498 5
3391 684 1263 61
3392 684 42 62
3393 685 134 14
3394 685 881 15
3395 685 488 30
3396 685 798 5
3397 685 167 50
3398 685 1818 24
3399 686 191 11
3400 686 1620 98
3401 686 582 89
3402 686 553 9
3403 687 914 31
3404 687 1340 56
3405 687 926 79
3406 688 1369 48
3407 688 58 57
3408 688 1038 95
3409 688 566 19
3410 688 169 57
3411 688 872 77
3412 688 1889 99
3413 689 209 6
3414 689 618 85
3415 689 559 65
3416 690 863 99
3417 690 1680 25
3418 690 1237 99
3419 690 1320 27
3420 691 1558 93
3421 691 1725 41
3422 691 527 6
3423 691 888 73
3424 691 1346 2
3425 691 1387 20
3426 691 347 44
3427 691 865 33
3428 691 1169 23
3429 692 43 45
3430 692 1063 60
3431 692 644 26
3432 692 863 83
3433 693 1666 8
3434 693 1640 51
3435 693 1107 49
3436 693 1917 20
3437 694 1694 38
3438 694 1994 65
3439 694 768 9
3440 694 1797 29
3441 694 1887 24
3442 695 718 81
3443 695 461 25
3444 696 569 43
3445 696 228 85
3446 696 1913 93
3447 696 1242 57
3448 697 1468 4
3449 697 426 57
3450 697 1550 9
3451 697 379 32
3452 698 322 78
3453 699 727 68
3454 699 1993 37
3455 699 1979 72
3456 699 431 21
3457 700 348 19
3458 700 155 71
3459 700 1115 41
3460 700 352 8
3461 700 60 15
3462 700 879 88
3463 700 1972 9
3464 701 1118 53
3465 701 838 67
3466 701 1888 69
3467 701 1300 3
3468 701 1237 80
3469 702 1987 93
3470 702 749 22
3471 702 172 93
3472 702 1342 42
3473 702 617 48
3474 702 710 5
3475 703 1673 19
3476 703 1095 14
3477 703 450 88
3478 703 1527 30
3479 703 1708 1
3480 704 871 49
3481 704 1869 1
3482 704 1655 73
3483 704 1797 8
3484 704 433 50
3485 704 40 99
3486 704 302 73
3487 704 897 16
3488 704 400 29
3489 705 1434 98
3490 705 1928 81
3491 705 639 5
3492 705 1585 73
3493 705 182 70
3494 705 1667 10
3495 706 680 3
3496 706 997 84
3497 706 111 61
3498 706 1650 74
3499 707 1492 83
3500 708 109 50
3501 708 1359 37
3502 708 819 88
3503 709 1892 79
3504 709 1302 50
3505 710 860 58
3506 710 918 96
3507 710 1434 31
3508 711 1453 88
3509 711 806 63
3510 711 1832 79
3511 711 1304 33
3512 712 836 45
3513 712 242 82
3514 712 711 59
3515 712 662 62
3516 712 1801 20
3517 713 390 59
3518 713 638 69
3519 713 1551 47
3520 713 1792 29
3521 714 940 19
3522 714 138 37
3523 714 954 82
3524 714 1818 94
3525 715 1905 23
3526 715 191 50
3527 715 1929 33
3528 716 625 21
3529 716 459 48
3530 716 705 95
3531 716 1262 3
3532 716 1147 56
3533 717 525 39
3534 717 1125 19
3535 717 612 6
3536 717 1799 59
3537 717 883 53
3538 718 1763 91
3539 718 1090 70
3540 718 1457 30
3541 718 1981 52
3542 718 1117 17
3543 719 1313 81
3544 719 1489 46
3545 719 915 27
3546 719 1479 52
3547 719 1972 54
3548 719 1118 54
3549 719 1776 59
3550 719 980 94
3551 719 449 58
3552 719 630 57
3553 719 115 50
3554 720 611 60
3555 720 212 47
3556 720 1731 44
3557 720 1686 42
3558 720 861 86
3559 720 471 52
3560 721 1118 18
3561 721 346 93
3562 721 1151 68
3563 721 328 27
3564 721 1696 32
3565 722 492 28
3566 722 1259 92
3567 722 1569 25
3568 722 1990 73
3569 722 765 25
3570 722 616 94
3571 723 1371 85
3572 723 1057 80
3573 723 582 47
3574 723 1342 60
3575 723 182 71
3576 724 1597 98
3577 724 1789 53
3578 724 1135 48
3579 724 439 83
3580 724 1635 40
3581 724 219 28
3582 725 147 51
3583 725 1384 19
3584 725 547 61
3585 725 1241 14
3586 725 253 70
3587 725 875 84
3588 726 1633 58
3589 726 18 39
3590 726 1869 100
3591 727 429 80
3592 727 340 53
3593 727 457 7
3594 727 665 26
3595 727 1280 28
3596 727 521 44
3597 727 862 71
3598 728 1132 21
3599 728 811 85
3600 728 1320 50
3601 728 319 67
3602 728 1995 56
3603 728 12 24
3604 728 1994 57
3605 729 319 4
3606 730 457 89
3607 730 1762 27
3608 730 1452 50
3609 730 662 73
3610 730 1266 86
3611 731 1614 23
3612 731 334 35
3613 731 843 96
3614 731 1386 88
3615 731 156 73
3616 731 1838 99
3617 732 430 20
3618 732 1831 83
3619 732 637 52
3620 732 61 74
3621 732 959 26
3622 732 139 20
3623 733 149 53
3624 733 1483 41
3625 733 1381 60
3626 733 792 32
3627 733 382 95
3628 734 767 17
3629 734 1667 98
3630 734 1586 63
3631 734 82 41
3632 734 605 79
3633 735 1177 98
3634 735 631 79
3635 735 1949 68
3636 735 1536 95
3637 735 162 81
3638 735 996 5
3639 735 1846 87
3640 736 1418 13
3641 736 1436 9
3642 736 489 11
3643 736 422 3
3644 737 1559 2
3645 737 113 7
3646 737 1147 43
3647 737 1969 12
3648 737 1770 41
3649 737 1907 46
3650 737 1720 26
3651 737 89 96
3652 737 1788 20
3653 737 686 28
3654 738 138 40
3655 738 512 9
3656 738 601 47
3657 738 1414 80
3658 739 1134 41
3659 739 1912 75
3660 739 794 58
3661 739 814 61
3662 739 859 44
3663 739 1443 91
3664 739 930 23
3665 739 1362 38
3666 739 1738 39
3667 740 1254 13
3668 740 1190 72
3669 740 321 21
3670 740 1521 20
3671 740 550 21
3672 741 1301 54
3673 741 180 16
3674 741 37 69
3675 741 218 80
3676 741 1486 53
3677 742 203 21
3678 742 632 72
3679 742 1133 71
3680 742 196 81
3681 742 1143 61
3682 743 1799 90
3683 743 1531 36
3684 743 174 89
3685 743 75 32
3686 744 1050 15
3687 744 1690 85
3688 744 1997 19
3689 744 685 57
3690 744 1978 13
3691 744 684 97
3692 744 1759 6
3693 744 789 18
3694 745 883 49
3695 745 763 61
3696 745 1028 49
3697 745 33 62
3698 746 1841 22
3699 746 1385 99
3700 746 1654 3
3701 746 947 76
3702 746 939 89
3703 747 1499 47
3704 747 1967 57
3705 747 1749 75
3706 747 235 74
3707 748 1546 24
3708 748 1253 58
3709 748 953 3
3710 748 750 63
3711 749 1087 86
3712 749 184 73
3713 749 1564 45
3714 749 667 44
3715 749 918 11
3716 750 741 48
3717 750 452 9
3718 750 714 23
3719 751 929 18
3720 751 1821 80
3721 752 235 39
3722 752 1892 87
3723 752 1258 51
3724 753 322 20
3725 753 1546 15
3726 753 1638 86
3727 753 1682 26
3728 753 348 82
3729 753 260 42
3730 753 720 38
3731 754 678 92
3732 754 1211 11
3733 754 1061 46
3734 754 91 78
3735 755 969 64
3736 755 410 3
3737 755 1626 80
3738 755 156 76
3739 755 89 54
3740 756 583 22
3741 756 1192 47
3742 756 382 33
3743 756 479 25
3744 756 1845 66
3745 756 1386 36
3746 756 1170 67
3747 757 638 4
3748 757 1133 63
3749 757 377 41
3750 757 790 22
3751 757 1657 7
3752 758 1054 84
3753 758 1791 31
3754 758 1283 90
3755 758 1917 40
3756 758 1666 34
3757 759 1373 58
3758 759 189 56
3759 759 1396 44
3760 760 1271 6
3761 760 1578 35
3762 761 909 96
3763 761 487 98
3764 762 938 85
3765 762 1405 59
3766 762 1001 85
3767 762 1353 11
3768 762 1154 43
3769 762 1484 71
3770 763 244 5
3771 763 707 17
3772 763 918 80
3773 763 24 2
3774 763 531 95
3775 764 519 74
3776 764 123 3
3777 764 1420 39
3778 764 1945 49
3779 764 1960 26
3780 764 1049 61
3781 764 786 49
3782 764 1986 50
3783 764 260 5
3784 765 1561 89
3785 765 319 87
3786 765 376 35
3787 765 1209 90
3788 765 1076 49
3789 765 1920 43
3790 766 1952 47
3791 766 1825 66
3792 766 801 55
3793 766 521 53
3794 767 1053 91
3795 767 284 44
3796 767 1021 17
3797 767 963 45
3798 768 925 93
3799 768 207 34
3800 768 1795 71
3801 768 1568 25
3802 768 1151 63
3803 768 1588 37
3804 769 164 35
3805 769 1344 11
3806 769 1825 58
3807 769 1234 86
3808 769 324 11
3809 770 574 86
3810 770 1592 41
3811 770 906 66
3812 771 1744 15
3813 771 1338 3
3814 771 1193 17
3815 772 1379 98
3816 772 1131 14
3817 772 151 32
3818 772 83 10
3819 772 641 23
3820 772 1571 48
3821 772 1864 9
3822 772 1424 20
3823 773 255 74
3824 773 1947 31
3825 773 272 100
3826 774 628 12
3827 775 161 10
3828 775 825 2
3829 775 748 93
3830 775 1127 2
3831 775 1949 95
3832 775 1162 44
3833 775 1701 80
3834 776 4 10
3835 776 1686 20
3836 776 1502 75
3837 776 53 81
3838 776 349 59
3839 776 1396 81
3840 776 377 43
3841 777 1189 86
3842 777 1399 14
3843 777 868 79
3844 778 569 16
3845 778 302 8
3846 778 253 91
3847 778 719 18
3848 778 834 26
3849 779 976 96
3850 779 922 11
3851 779 954 24
3852 779 347 12
3853 779 1041 92
3854 779 1474 12
3855 779 89 1
3856 779 199 56
3857 780 790 88
3858 780 1223 30
3859 780 1609 27
3860 780 717 7
3861 780 401 92
3862 780 1256 11
3863 780 418 50
3864 780 957 42
3865 781 1220 81
3866 781 1171 68
3867 781 1085 25
3868 781 793 61
3869 781 592 26
3870 781 189 91
3871 781 875 64
3872 781 1339 78
3873 781 583 91
3874 782 1029 24
3875 782 1066 61
3876 782 563 37
3877 783 1786 94
3878 783 1269 87
3879 783 918 76
3880 783 1399 8
3881 783 1601 57
3882 783 110 24
3883 783 795 65
3884 783 50 1
3885 783 1200 11
3886 783 787 23
3887 784 478 26
3888 784 1944 34
3889 784 182 19
3890 784 1884 70
3891 784 281 74
3892 784 1341 25
3893 784 879 90
3894 784 484 16
3895 785 482 90
3896 785 9 98
3897 785 1030 10
3898 785 921 25
3899 785 1450 24
3900 786 1012 42
3901 786 1769 97
3902 786 1488 30
3903 786 135 21
3904 786 1353 51
3905 786 178 82
3906 786 42 76
3907 786 1014 38
3908 787 947 77
3909 787 857 53
3910 787 1906 65
3911 787 727 82
3912 787 633 37
3913 787 1865 28
3914 787 171 55
3915 788 1842 33
3916 788 25 45
3917 788 304 95
3918 788 580 31
3919 788 1909 68
3920 788 601 1
3921 788 722 84
3922 789 1412 88
3923 789 270 33
3924 789 301 37
3925 790 230 97
3926 790 525 21
3927 790 581 9
3928 791 581 8
3929 791 1032 9
3930 791 101 64
3931 791 473 45
3932 791 385 94
3933 791 865 8
3934 792 1870 80
3935 792 1762 97
3936 792 1568 56
3937 793 837 11
3938 793 1346 87
3939 793 388 98
3940 793 764 92
3941 794 1595 58
3942 794 1139 2
3943 794 923 96
3944 795 929 87
3945 795 497 12
3946 795 1251 41
3947 795 856 76
3948 795 726 99
3949 796 1386 47
3950 796 486 90
3951 796 129 88
3952 796 269 78
3953 796 1685 87
3954 797 383 9
3955 797 435 73
3956 797 370 34
3957 798 633 94
3958 799 543 41
3959 799 1788 58
3960 799 820 46
3961 799 1440 96
3962 800 1201 62
3963 800 1631 48
3964 800 321 64
3965 800 1255 39
3966 800 1486 98
3967 800 113 63
3968 801 944 41
3969 801 539 70
3970 801 800 96
3971 801 790 25
3972 802 605 30
3973 802 375 76
3974 802 398 22
3975 802 612 6
3976 802 1726 89
3977 802 804 46
3978 803 1202 53
3979 803 457 60
3980 804 1262 60
3981 804 1083 42
3982 804 747 52
3983 804 1002 60
3984 804 1170 60
3985 804 441 58
3986 805 1035 20
3987 806 764 19
3988 806 1138 95
3989 807 981 97
3990 808 820 50
3991 808 1647 54
3992 808 1785 4
3993 808 79 18
3994 809 1227 41
3995 809 1683 49
3996 809 830 81
3997 809 1335 20
3998 809 694 52
3999 809 766 47
4000 809 318 2
4001 810 1811 56
4002 810 268 85
4003 810 562 23
4004 810 521 20
4005 810 59 76
4006 810 447 24
4007 810 15 28
4008 811 1483 13
4009 811 897 3
4010 811 1705 51
4011 812 1928 61
4012 812 1931 20
4013 812 1573 35
4014 813 1764 44
4015 813 1613 26
4016 813 1130 3
4017 813 1197 64
4018 813 1546 51
4019 813 1073 21
4020 814 1330 39
4021 814 446 71
4022 814 964 36
4023 814 1973 30
4024 814 454 25
4025 814 1406 63
4026 814 466 78
4027 814 1446 93
4028 815 643 64
4029 815 1902 56
4030 815 1811 56
4031 815 773 21
4032 815 1431 63
4033 815 61 86
4034 816 672 8
4035 816 1027 46
4036 816 975 14
4037 816 522 9
4038 816 775 42
4039 817 741 91
4040 817 1375 62
4041 817 1379 78
4042 817 1752 38
4043 817 1980 19
4044 818 499 31
4045 818 1165 67
4046 819 1522 64
4047 819 729 28
4048 819 1513 54
4049 820 1007 63
4050 820 142 2
4051 820 1073 40
4052 820 1094 81
4053 820 819 21
4054 820 1609 44
4055 820 1257 81
4056 820 572 40
4057 820 1209 88
4058 820 409 80
4059 821 1848 55
4060 821 141 79
4061 821 1265 16
4062 821 1306 77
4063 822 1024 17
4064 822 1033 68
4065 822 1264 37
4066 822 1581 44
4067 822 1206 93
4068 822 196 48
4069 822 1485 89
4070 822 673 17
4071 823 664 48
4072 823 1647 73
4073 823 514 61
4074 823 1814 9
4075 823 1339 3
4076 824 1427 58
4077 824 205 48
4078 824 361 54
4079 825 749 32
4080 825 1055 27
4081 825 1851 42
4082 826 878 89
4083 826 39 30
4084 826 1562 41
4085 827 1771 82
4086 827 1735 61
4087 827 501 36
4088 828 1483 72
4089 828 1416 44
4090 828 1453 74
4091 828 795 43
4092 828 1906 90
4093 828 992 25
4094 828 1588 17
4095 829 42 42
4096 829 1575 81
4097 829 1589 74
4098 829 167 30
4099 830 776 91
4100 830 1227 76
4101 830 378 79
4102 830 1664 31
4103 830 28 32
4104 831 609 63
4105 831 722 73
4106 831 142 61
4107 831 781 3
4108 831 488 41
4109 832 1000 66
4110 832 247 13
4111 832 1945 50
4112 832 1616 97
4113 833 1036 19
4114 833 561 80
4115 833 135 42
4116 834 677 11
4117 834 595 68
4118 835 190 63
4119 835 211 60
4120 836 668 78
4121 836 238 94
4122 836 305 35
4123 836 527 9
4124 836 520 58
4125 837 368 50
4126 837 752 100
4127 837 902 25
4128 837 1755 99
4129 838 1686 36
4130 838 1427 92
4131 838 1051 19
4132 838 1308 47
4133 838 793 100
4134 839 48 8
4135 839 904 61
4136 839 923 32
4137 839 601 29
4138 840 720 82
4139 840 1753 1
4140 841 89 42
4141 841 1575 46
4142 841 540 80
4143 841 45 62
4144 841 477 72
4145 842 200 19
4146 842 1560 35
4147 842 1541 41
4148 843 1642 63
4149 843 1159 41
4150 843 248 78
4151 843 1185 69
4152 843 696 26
4153 844 50 83
4154 844 281 25
4155 844 73 77
4156 844 1956 78
4157 844 532 16
4158 844 1565 38
4159 844 546 94
4160 845 1414 8
4161 845 1982 95
4162 845 1854 25
4163 845 455 68
4164 845 1897 65
4165 845 193 37
4166 846 676 32
4167 846 615 49
4168 846 662 55
4169 846 488 90
4170 846 1138 2
4171 846 1036 39
4172 846 1304 34
4173 847 1009 27
4174 847 342 19
4175 847 1074 38
4176 847 177 4
4177 847 1232 4
4178 847 150 84
4179 848 306 83
4180 848 95 98
4181 848 358 54
4182 848 752 11
4183 849 1661 48
4184 849 847 60
4185 849 738 100
4186 849 49 19
4187 850 359 58
4188 850 867 81
4189 850 1528 49
4190 850 510 72
4191 850 290 21
4192 850 1481 77
4193 851 127 57
4194 851 1494 98
4195 851 991 41
4196 851 1437 14
4197 851 1885 36
4198 851 1454 59
4199 851 1112 36
4200 851 1683 26
4201 851 1737 91
4202 851 1931 78
4203 851 1049 59
4204 852 1241 37
4205 852 1875 21
4206 852 1885 76
4207 852 1795 17
4208 852 306 42
4209 852 1135 3
4210 852 1225 16
4211 853 1195 7
4212 853 1141 42
4213 853 1238 71
4214 853 909 62
4215 853 1959 48
4216 853 1905 19
4217 853 365 41
4218 853 1687 93
4219 853 1340 49
4220 853 1666 71
4221 854 1380 4
4222 854 315 81
4223 854 367 56
4224 854 943 83
4225 854 1820 42
4226 855 1806 51
4227 855 90 23
4228 855 985 42
4229 855 1075 79
4230 856 505 98
4231 856 1127 5
4232 857 310 83
4233 857 1977 37
4234 857 9 42
4235 857 673 73
4236 857 1125 97
4237 858 1346 73
4238 858 1102 6
4239 858 459 66
4240 858 408 8
4241 858 1435 93
4242 858 871 92
4243 858 986 92
4244 859 929 17
4245 859 1007 64
4246 859 1984 9
4247 859 230 9
4248 859 1692 18
4249 859 630 20
4250 859 1682 14
4251 859 768 67
4252 860 797 21
4253 860 1684 92
4254 860 638 31
4255 860 1889 12
4256 861 1361 97
4257 861 748 47
4258 862 613 46
4259 862 722 44
4260 862 1523 11
4261 862 1001 53
4262 862 496 44
4263 862 244 97
4264 863 516 9
4265 863 1079 64
4266 864 65 52
4267 864 1221 70
4268 864 1421 8
4269 864 1324 68
4270 864 1180 54
4271 864 152 83
4272 865 602 51
4273 865 1034 89
4274 865 1014 20
4275 865 397 71
4276 866 227 12
4277 866 1616 27
4278 866 380 58
4279 866 979 21
4280 866 567 15
4281 866 1507 98
4282 866 184 34
4283 866 339 30
4284 866 1935 31
4285 867 841 8
4286 867 1698 83
4287 867 1041 88
4288 867 160 72
4289 867 1833 4
4290 867 1156 7
4291 867 748 83
4292 867 901 90
4293 867 1968 29
4294 867 654 62
4295 867 1392 6
4296 868 1413 6
4297 868 1089 29
4298 868 1711 98
4299 868 431 30
4300 868 1130 20
4301 868 1492 18
4302 868 985 65
4303 869 161 41
4304 869 1238 42
4305 869 761 50
4306 870 235 97
4307 870 1414 82
4308 870 303 86
4309 871 1087 51
4310 872 341 3
4311 872 690 66
4312 872 1541 98
4313 872 190 38
4314 872 923 64
4315 873 1405 4
4316 873 1962 86
4317 873 353 92
4318 873 802 90
4319 873 502 54
4320 873 1793 71
4321 874 640 9
4322 874 1417 6
4323 875 605 26
4324 875 1965 76
4325 876 1507 5
4326 876 706 27
4327 876 1802 30
4328 876 1923 75
4329 877 277 63
4330 877 571 1
4331 877 345 45
4332 877 1827 90
4333 877 764 11
4334 878 1229 75
4335 878 846 48
4336 878 406 66
4337 879 1174 22
4338 879 796 51
4339 879 1342 28
4340 879 644 20
4341 879 1302 69
4342 879 689 1
4343 879 1619 81
4344 880 261 96
4345 880 1609 80
4346 880 227 37
4347 881 359 35
4348 881 1233 72
4349 881 1651 48
4350 881 1802 66
4351 881 233 50
4352 881 721 21
4353 882 725 26
4354 882 298 97
4355 882 349 78
4356 883 1930 33
4357 883 87 43
4358 883 434 26
4359 884 1504 42
4360 884 380 34
4361 884 593 51
4362 884 1438 16
4363 884 1250 84
4364 884 431 37
4365 884 1654 58
4366 884 134 4
4367 884 937 58
4368 884 1198 78
4369 885 1753 84
4370 885 1507 86
4371 885 1729 66
4372 885 1675 99
4373 885 299 52
4374 886 647 27
4375 886 1358 24
4376 886 290 15
4377 887 1967 6
4378 887 1682 50
4379 887 408 14
4380 887 1808 96
4381 887 223 27
4382 887 1628 26
4383 888 201 98
4384 888 1914 73
4385 888 1798 95
4386 888 754 96
4387 888 1666 39
4388 889 237 89
4389 889 321 87
4390 889 1584 28
4391 889 1186 76
4392 889 1291 39
4393 889 983 47
4394 890 562 60
4395 890 565 7
4396 890 1356 83
4397 890 1072 81
4398 890 514 30
4399 891 180 73
4400 891 1116 33
4401 891 840 28
4402 891 1583 66
4403 891 650 4
4404 892 994 40
4405 892 1206 2
4406 892 1724 28
4407 892 1390 24
4408 893 1241 43
4409 893 38 27
4410 893 566 64
4411 893 827 93
4412 893 1778 50
4413 893 1960 93
4414 893 138 42
4415 893 1049 59
4416 894 1729 51
4417 894 1821 78
4418 894 1621 97
4419 894 1996 22
4420 894 1880 63
4421 895 187 62
4422 895 808 72
4423 895 162 77
4424 895 369 37
4425 895 1298 86
4426 896 899 32
4427 896 1956 10
4428 896 781 79
4429 896 1144 14
4430 896 287 1
4431 896 1537 4
4432 897 1842 80
4433 897 1478 7
4434 897 1500 2
4435 897 371 36
4436 897 1489 1
4437 898 479 39
4438 898 1501 57
4439 898 1564 49
4440 898 875 94
4441 898 369 73
4442 899 331 21
4443 900 1832 13
4444 900 339 7
4445 900 18 48
4446 901 1486 28
4447 901 108 83
4448 901 398 25
4449 901 1331 55
4450 902 697 95
4451 902 94 48
4452 902 533 10
4453 902 733 36
4454 902 751 54
4455 903 642 84
4456 903 1118 3
4457 903 1374 39
4458 903 865 99
4459 904 1129 5
4460 904 1425 16
4461 905 1383 39
4462 905 1876 19
4463 905 1556 34
4464 905 848 59
4465 905 1293 27
4466 905 1343 16
4467 905 1276 82
4468 905 693 96
4469 905 1822 88
4470 905 1426 4
4471 905 451 61
4472 905 1331 23
4473 906 1761 2
4474 906 795 15
4475 906 298 12
4476 907 1585 93
4477 907 1699 31
4478 907 1283 59
4479 907 506 75
4480 908 150 89
4481 908 1036 72
4482 908 103 35
4483 908 1513 35
4484 909 1640 3
4485 909 1510 90
4486 909 173 73
4487 909 107 62
4488 909 478 9
4489 909 1600 94
4490 909 90 89
4491 910 1946 20
4492 910 1062 28
4493 911 179 9
4494 911 19 51
4495 911 1599 87
4496 911 360 49
4497 911 937 4
4498 911 752 5
4499 912 91 64
4500 912 492 56
4501 912 996 60
4502 912 1386 53
4503 912 1790 23
4504 912 131 2
4505 913 439 74
4506 913 1809 6
4507 913 326 85
4508 913 591 9
4509 913 38 99
4510 913 731 36
4511 913 1318 91
4512 913 159 37
4513 913 171 93
4514 913 474 62
4515 913 867 26
4516 914 1543 35
4517 914 1081 4
4518 914 1224 86
4519 914 1603 35
4520 914 757 25
4521 914 1185 31
4522 914 1477 89
4523 915 400 58
4524 915 1639 1
4525 915 1368 84
4526 916 1608 6
4527 917 1623 73
4528 918 1981 56
4529 919 1140 72
4530 919 1224 90
4531 919 354 63
4532 919 363 30
4533 919 782 92
4534 919 305 96
4535 919 783 7
4536 920 1212 37
4537 920 1298 47
4538 920 1308 12
4539 920 342 77
4540 920 1962 48
4541 921 1734 59
4542 921 964 61
4543 921 1277 70
4544 921 1366 21
4545 921 1746 48
4546 921 538 85
4547 922 1411 48
4548 922 211 93
4549 922 1565 71
4550 922 936 70
4551 922 672 19
4552 922 843 42
4553 922 1931 95
4554 923 499 82
4555 923 1811 45
4556 923 1268 53
4557 923 368 23
4558 923 51 75
4559 923 1858 52
4560 923 1655 48
4561 924 1818 60
4562 924 150 45
4563 924 935 99
4564 925 77 38
4565 925 353 19
4566 925 185 87
4567 925 1698 97
4568 925 1271 64
4569 925 85 87
4570 925 1266 70
4571 926 209 53
4572 926 916 47
4573 926 995 56
4574 927 557 12
4575 927 1088 78
4576 927 665 33
4577 927 720 18
4578 928 1301 43
4579 928 816 46
4580 928 149 83
4581 928 270 60
4582 928 1253 58
4583 928 1221 97
4584 928 998 70
4585 928 1889 88
4586 928 1375 22
4587 928 1423 6
4588 928 694 44
4589 928 786 65
4590 928 580 81
4591 929 145 19
4592 929 1035 77
4593 929 1694 44
4594 929 4 70
4595 929 1299 81
4596 929 1342 96
4597 930 1313 21
4598 930 679 74
4599 930 1043 18
4600 930 1794 27
4601 930 1134 89
4602 930 1010 51
4603 931 669 11
4604 931 180 54
4605 931 754 15
4606 931 1531 65
4607 931 1946 70
4608 931 1805 6
4609 931 184 67
4610 931 364 14
4611 931 949 74
4612 931 221 1
4613 931 117 33
4614 931 1861 71
4615 931 642 86
4616 931 1160 22
4617 932 848 95
4618 932 1910 30
4619 932 1606 88
4620 932 1046 91
4621 932 1265 43
4622 932 969 63
4623 932 1933 15
4624 933 635 42
4625 933 1958 94
4626 933 847 48
4627 934 1 71
4628 934 103 51
4629 934 1251 67
4630 934 491 85
4631 934 170 51
4632 935 1128 29
4633 935 1154 74
4634 935 16 45
4635 935 1292 96
4636 935 1229 53
4637 936 1979 89
4638 936 1158 97
4639 936 1688 14
4640 936 1999 29
4641 936 246 82
4642 937 75 83
4643 937 1264 59
4644 937 1817 20
4645 937 178 89
4646 937 1009 97
4647 937 264 25
4648 938 1272 92
4649 938 1317 1
4650 938 1878 65
4651 938 1925 14
4652 938 1900 64
4653 939 292 19
4654 939 1327 10
4655 939 1395 89
4656 939 1438 40
4657 939 1019 31
4658 939 856 97
4659 939 450 52
4660 940 1157 39
4661 940 1468 27
4662 940 793 70
4663 940 378 82
4664 941 1448 13
4665 941 522 25
4666 941 1886 4
4667 941 1557 3
4668 941 73 4
4669 941 1964 38
4670 941 1464 16
4671 942 1703 27
4672 942 1701 24
4673 942 295 100
4674 943 708 88
4675 943 344 10
4676 943 1836 9
4677 943 1826 33
4678 943 1347 58
4679 943 1559 16
4680 943 528 55
4681 943 245 46
4682 944 1320 85
4683 944 340 52
4684 944 1732 2
4685 944 1798 90
4686 944 697 77
4687 944 139 39
4688 944 1117 44
4689 944 56 50
4690 945 1939 48
4691 945 1575 27
4692 945 780 39
4693 945 582 55
4694 946 777 80
4695 946 846 76
4696 946 1377 62
4697 946 474 82
4698 947 511 79
4699 947 912 76
4700 947 1605 6
4701 947 571 87
4702 947 367 63
4703 947 1179 5
4704 947 1653 64
4705 947 35 41
4706 948 1379 45
4707 948 1873 4
4708 948 1581 33
4709 948 1827 90
4710 949 1427 61
4711 949 459 50
4712 949 1385 97
4713 949 303 69
4714 949 626 99
4715 949 1771 13
4716 949 868 55
4717 950 1545 89
4718 950 102 76
4719 950 1441 80
4720 950 994 45
4721 950 1628 88
4722 950 366 63
4723 950 992 4
4724 950 845 49
4725 951 102 5
4726 951 1367 63
4727 951 417 98
4728 951 1353 12
4729 951 1968 61
4730 952 904 33
4731 952 892 70
4732 952 1845 12
4733 952 539 11
4734 952 1340 32
4735 952 1058 93
4736 952 1049 92
4737 953 628 81
4738 953 1162 13
4739 953 963 59
4740 954 1392 49
4741 954 643 96
4742 954 225 44
4743 954 413 31
4744 955 250 78
4745 955 618 61
4746 955 1394 5
4747 955 861 42
4748 955 75 40
4749 956 1769 71
4750 956 1021 100
4751 956 1996 91
4752 956 1821 58
4753 956 893 28
4754 956 344 79
4755 956 1526 53
4756 957 1883 13
4757 957 1645 2
4758 957 548 88
4759 957 885 17
4760 958 1083 76
4761 958 558 87
4762 958 270 100
4763 958 1807 4
4764 959 1972 65
4765 959 199 57
4766 959 1028 9
4767 959 977 65
4768 959 1315 24
4769 960 918 60
4770 960 929 36
4771 960 1175 90
4772 960 243 73
4773 960 272 50
4774 961 980 69
4775 961 1744 84
4776 961 1879 93
4777 961 632 7
4778 961 400 33
4779 962 89 75
4780 962 371 16
4781 962 1453 90
4782 962 1522 67
4783 962 842 63
4784 962 298 23
4785 962 194 58
4786 963 455 38
4787 963 39 21
4788 963 109 6
4789 963 532 38
4790 963 1619 77
4791 964 1551 43
4792 964 1954 55
4793 964 275 15
4794 964 1849 88
4795 964 1198 20
4796 964 1509 10
4797 964 1860 26
4798 964 1680 62
4799 965 1787 63
4800 965 1857 32
4801 965 40 1
4802 966 745 50
4803 966 573 100
4804 967 499 96
4805 967 1425 84
4806 967 1291 23
4807 967 254 99
4808 968 497 49
4809 968 1444 6
4810 968 1467 39
4811 968 796 24
4812 969 1625 29
4813 969 518 44
4814 969 1714 88
4815 969 239 75
4816 969 488 64
4817 969 1550 30
4818 969 524 92
4819 969 437 57
4820 970 320 90
4821 970 1834 15
4822 970 864 13
4823 970 699 22
4824 970 367 18
4825 970 1446 17
4826 970 1961 95
4827 971 1437 78
4828 971 1632 73
4829 971 537 4
4830 971 1018 57
4831 971 478 64
4832 971 876 47
4833 972 921 90
4834 972 1172 56
4835 972 1776 3
4836 972 750 91
4837 972 1398 68
4838 972 222 89
4839 972 325 48
4840 973 555 82
4841 973 1409 70
4842 973 231 14
4843 973 874 54
4844 973 1465 61
4845 973 1708 5
4846 973 1096 36
4847 974 977 56
4848 974 114 72
4849 974 1846 90
4850 974 1170 55
4851 974 929 9
4852 974 1417 9
4853 974 1923 12
4854 974 1365 34
4855 974 1151 86
4856 974 1029 46
4857 974 1422 61
4858 975 1322 52
4859 975 918 65
4860 975 199 32
4861 975 612 18
4862 975 549 16
4863 975 439 4
4864 975 8 21
4865 975 1948 12
4866 975 234 74
4867 975 983 24
4868 976 274 86
4869 976 1213 26
4870 976 1715 58
4871 976 1200 85
4872 976 1513 70
4873 977 662 48
4874 977 1568 72
4875 977 942 34
4876 978 233 62
4877 978 1 9
4878 978 615 85
4879 978 993 24
4880 978 621 75
4881 979 313 53
4882 979 1788 15
4883 979 1521 72
4884 980 1076 6
4885 980 1872 30
4886 980 316 26
4887 980 1938 19
4888 980 1346 39
4889 981 438 18
4890 981 1192 96
4891 981 124 90
4892 981 431 51
4893 981 1876 2
4894 981 125 48
4895 981 191 8
4896 982 714 66
4897 982 1115 2
4898 982 1370 15
4899 982 929 68
4900 983 349 86
4901 983 408 35
4902 983 1193 75
4903 983 1306 68
4904 984 1145 2
4905 984 1158 39
4906 985 1484 18
4907 986 130 41
4908 986 1105 32
4909 986 1969 62
4910 986 1414 28
4911 987 1350 25
4912 987 248 85
4913 987 559 61
4914 987 1357 62
4915 987 106 62
4916 988 1643 28
4917 988 1853 13
4918 988 596 23
4919 988 858 50
4920 989 1350 71
4921 989 713 82
4922 989 1884 81
4923 989 1893 70
4924 989 1275 10
4925 990 1923 19
4926 990 519 86
4927 990 376 17
4928 990 771 66
4929 991 566 19
4930 991 1602 98
4931 991 761 9
4932 991 1551 62
4933 991 1320 66
4934 991 1257 10
4935 992 248 73
4936 992 1775 22
4937 992 111 32
4938 992 1456 81
4939 993 1447 97
4940 993 370 53
4941 993 1054 81
4942 994 985 47
4943 994 1243 29
4944 994 1171 34
4945 994 392 53
4946 995 1671 8
4947 995 393 97
4948 995 1051 56
4949 995 57 6
4950 995 169 42
4951 995 435 100
4952 996 1079 51
4953 996 1301 4
4954 996 614 25
4955 996 1347 86
4956 996 620 93
4957 996 372 48
4958 996 1964 51
4959 996 519 58
4960 997 1329 78
4961 997 1948 29
4962 998 434 96
4963 998 474 17
4964 998 1586 62
4965 998 1564 79
4966 998 818 66
4967 998 1489 53
4968 998 14 83
4969 999 1786 97
4970 999 32 82
4971 999 670 21
4972 999 231 31
4973 999 476 77
4974 999 474 67
4975 999 117 37
4976 999 81 64
4977 1000 39 99
4978 1000 514 10
4979 1000 1979 56
4980 1000 342 77
4981 1000 204 4
4982 1000 1300 54
4983 1000 619 9
4984 1000 1788 72
4985 1001 649 11
4986 1001 1832 91
4987 1001 1765 100
4988 1001 4 19
4989 1002 1772 99
4990 1002 1080 83
4991 1002 591 6
4992 1002 1608 48
4993 1002 1018 36
4994 1002 912 51
4995 1002 630 36
4996 1002 195 60
4997 1003 216 84
4998 1003 805 44
4999 1003 1408 39
5000 1004 467 69
5001 1004 1617 78
5002 1004 979 42
5003 1004 1423 40
5004 1004 1504 61
5005 1005 210 66
5006 1005 409 63
5007 1005 1981 50
5008 1005 314 97
5009 1005 374 89
5010 1005 1640 76
5011 1005 942 89
5012 1005 896 72
5013 1006 1757 88
5014 1006 1901 78
5015 1006 970 77
5016 1006 882 85
5017 1006 1564 74
5018 1006 143 18
5019 1006 828 61
5020 1007 1984 44
5021 1007 1939 12
5022 1007 384 89
5023 1007 222 63
5024 1007 1857 44
5025 1007 3 69
5026 1007 404 67
5027 1007 347 79
5028 1008 1257 81
5029 1008 1623 9
5030 1009 298 33
5031 1009 1905 81
5032 1009 752 35
5033 1010 1062 35
5034 1011 896 37
5035 1011 53 77
5036 1011 1821 66
5037 1011 236 30
5038 1011 621 41
5039 1011 1981 42
5040 1011 1021 31
5041 1011 1254 73
5042 1012 1742 25
5043 1012 899 45
5044 1012 782 40
5045 1013 837 25
5046 1013 549 43
5047 1013 1210 67
5048 1013 1275 87
5049 1013 970 53
5050 1013 1402 36
5051 1013 1444 34
5052 1014 381 77
5053 1014 492 55
5054 1014 1079 86
5055 1014 740 85
5056 1014 279 25
5057 1015 1780 99
5058 1015 1561 79
5059 1015 1509 18
5060 1015 371 99
5061 1016 60 89
5062 1016 1864 38
5063 1016 1064 25
5064 1016 308 88
5065 1016 1811 88
5066 1017 1796 47
5067 1017 1029 92
5068 1017 1039 70
5069 1018 1529 71
5070 1018 47 42
5071 1018 954 27
5072 1018 1526 60
5073 1018 1568 75
5074 1018 1218 67
5075 1018 1103 23
5076 1019 1869 16
5077 1019 1008 93
5078 1019 1004 93
5079 1019 1631 38
5080 1019 1054 82
5081 1019 63 32
5082 1020 1280 27
5083 1020 1910 77
5084 1020 1054 82
5085 1020 915 44
5086 1020 760 24
5087 1020 1734 83
5088 1020 1388 64
5089 1020 1500 48
5090 1021 843 32
5091 1021 8 51
5092 1021 1303 62
5093 1021 1062 92
5094 1021 192 35
5095 1021 1898 73
5096 1021 472 59
5097 1022 1060 69
5098 1022 1573 44
5099 1022 1770 19
5100 1022 1328 33
5101 1022 1913 78
5102 1023 1222 10
5103 1023 1759 33
5104 1023 275 16
5105 1023 1093 49
5106 1024 1105 71
5107 1024 245 51
5108 1024 315 1
5109 1024 1910 9
5110 1024 416 25
5111 1024 1011 33
5112 1024 27 64
5113 1024 399 59
5114 1025 1495 71
5115 1025 1752 75
5116 1025 721 36
5117 1026 308 66
5118 1026 1571 73
5119 1026 1045 54
5120 1026 564 26
5121 1026 1078 35
5122 1027 1870 7
5123 1027 1587 55
5124 1027 1486 81
5125 1028 765 63
5126 1028 1665 77
5127 1028 1378 14
5128 1028 1169 61
5129 1028 1429 56
5130 1028 1732 50
5131 1028 1410 41
5132 1028 1653 16
5133 1028 882 18
5134 1029 1882 24
5135 1029 1865 16
5136 1029 1467 47
5137 1029 1942 98
5138 1030 1540 7
5139 1030 452 6
5140 1030 1190 9
5141 1030 1859 36
5142 1030 342 14
5143 1031 453 71
5144 1031 1111 69
5145 1031 1393 35
5146 1031 1203 17
5147 1031 1449 13
5148 1031 206 96
5149 1031 1914 88
5150 1031 213 55
5151 1032 1805 27
5152 1032 1401 6
5153 1032 68 85
5154 1033 873 73
5155 1033 1323 8
5156 1033 346 2
5157 1033 535 15
5158 1033 1303 44
5159 1033 788 80
5160 1033 1569 93
5161 1033 216 36
5162 1034 1232 37
5163 1034 812 56
5164 1034 326 31
5165 1034 1167 30
5166 1034 1248 29
5167 1035 414 80
5168 1035 933 78
5169 1035 1337 74
5170 1035 1738 97
5171 1035 157 35
5172 1035 260 71
5173 1035 908 46
5174 1036 135 31
5175 1036 611 20
5176 1037 1891 3
5177 1037 586 71
5178 1037 826 75
5179 1037 114 41
5180 1038 614 98
5181 1038 456 29
5182 1038 1293 22
5183 1038 215 50
5184 1038 1588 27
5185 1038 908 70
5186 1039 1869 79
5187 1039 1247 3
5188 1039 151 21
5189 1039 1578 12
5190 1039 580 74
5191 1040 683 95
5192 1041 459 79
5193 1041 1151 35
5194 1041 1599 63
5195 1041 1540 16
5196 1041 794 13
5197 1042 1444 32
5198 1042 5 53
5199 1042 524 29
5200 1042 766 31
5201 1043 1010 59
5202 1043 818 79
5203 1043 1452 22
5204 1043 786 23
5205 1044 874 29
5206 1045 912 36
5207 1045 1056 14
5208 1045 870 1
5209 1045 429 31
5210 1046 1606 86
5211 1046 573 40
5212 1046 1311 56
5213 1047 236 75
5214 1047 1886 77
5215 1047 1356 50
5216 1047 153 58
5217 1047 1253 28
5218 1047 571 30
5219 1047 1130 13
5220 1047 382 11
5221 1048 807 53
5222 1049 612 92
5223 1049 291 57
5224 1049 80 57
5225 1049 1855 20
5226 1049 409 95
5227 1049 1730 50
5228 1050 1807 79
5229 1050 1965 97
5230 1050 1119 49
5231 1050 932 3
5232 1050 128 70
5233 1051 1215 98
5234 1051 850 35
5235 1051 100 27
5236 1051 220 87
5237 1051 1767 63
5238 1051 1460 56
5239 1051 1989 68
5240 1051 415 44
5241 1052 244 42
5242 1052 168 3
5243 1052 287 64
5244 1052 209 65
5245 1052 723 79
5246 1053 1689 50
5247 1053 1843 57
5248 1053 1317 78
5249 1053 1840 27
5250 1054 846 48
5251 1055 1359 19
5252 1055 815 91
5253 1055 671 10
5254 1055 1620 77
5255 1055 1449 90
5256 1056 357 88
5257 1056 1202 49
5258 1057 1567 22
5259 1057 1385 52
5260 1057 1461 27
5261 1057 1627 28
5262 1057 1492 41
5263 1058 1941 46
5264 1058 1962 52
5265 1058 1565 36
5266 1058 1850 32
5267 1059 924 92
5268 1059 705 38
5269 1059 1932 30
5270 1059 1554 49
5271 1059 672 77
5272 1059 610 61
5273 1060 31 4
5274 1060 276 88
5275 1060 1201 73
5276 1060 1048 32
5277 1060 942 83
5278 1060 1908 90
5279 1061 740 9
5280 1061 313 58
5281 1061 585 92
5282 1061 942 3
5283 1061 955 50
5284 1061 1863 74
5285 1062 1334 45
5286 1062 1832 47
5287 1062 424 49
5288 1062 1595 3
5289 1062 1679 63
5290 1062 532 56
5291 1063 935 93
5292 1063 1392 58
5293 1064 845 55
5294 1064 278 12
5295 1064 1571 56
5296 1064 1992 33
5297 1064 1510 45
5298 1064 1626 30
5299 1064 198 35
5300 1065 904 47
5301 1065 1970 34
5302 1065 1437 62
5303 1066 250 21
5304 1066 223 22
5305 1066 1569 29
5306 1066 1949 75
5307 1066 1928 83
5308 1067 992 67
5309 1067 617 77
5310 1067 452 68
5311 1067 613 26
5312 1067 658 5
5313 1068 1977 49
5314 1068 1518 47
5315 1069 765 7
5316 1069 861 98
5317 1069 237 30
5318 1069 410 12
5319 1070 647 91
5320 1070 1600 21
5321 1070 218 12
5322 1070 1348 79
5323 1070 313 90
5324 1070 1312 71
5325 1071 1059 7
5326 1071 1992 33
5327 1071 1409 11
5328 1071 1669 68
5329 1071 1349 33
5330 1071 1536 58
5331 1071 1905 20
5332 1071 1994 38
5333 1072 1996 19
5334 1072 1862 56
5335 1072 1448 36
5336 1072 635 24
5337 1072 1850 30
5338 1072 1907 53
5339 1073 1070 40
5340 1073 1288 22
5341 1073 304 67
5342 1073 1399 9
5343 1073 143 30
5344 1074 652 12
5345 1074 1571 80
5346 1074 171 7
5347 1074 438 74
5348 1075 1313 84
5349 1075 212 95
5350 1075 686 23
5351 1075 515 37
5352 1075 627 71
5353 1075 799 61
5354 1076 771 55
5355 1076 1636 22
5356 1076 1277 31
5357 1076 1177 3
5358 1077 232 26
5359 1077 1762 78
5360 1077 1345 92
5361 1077 1570 10
5362 1077 824 9
5363 1078 191 99
5364 1078 77 13
5365 1078 1717 35
5366 1078 89 23
5367 1078 905 69
5368 1078 1828 16
5369 1079 1636 100
5370 1080 1786 60
5371 1080 857 71
5372 1080 1250 98
5373 1080 1430 48
5374 1080 80 93
5375 1080 492 23
5376 1080 1052 20
5377 1081 1882 69
5378 1081 38 24
5379 1081 1400 32
5380 1081 1016 2
5381 1082 1656 42
5382 1083 444 22
5383 1083 241 99
5384 1083 714 35
5385 1083 1238 66
5386 1084 751 3
5387 1084 1479 65
5388 1084 732 65
5389 1084 863 8
5390 1084 1244 51
5391 1085 274 18
5392 1085 487 22
5393 1085 878 7
5394 1085 195 61
5395 1085 1000 20
5396 1086 603 17
5397 1086 1044 31
5398 1086 1507 78
5399 1086 972 48
5400 1086 572 74
5401 1086 685 36
5402 1086 721 60
5403 1087 1144 32
5404 1087 462 59
5405 1088 789 23
5406 1088 225 91
5407 1088 1129 15
5408 1089 1656 92
5409 1089 1389 32
5410 1090 1568 21
5411 1090 1441 82
5412 1090 1003 78
5413 1090 478 97
5414 1090 919 6
5415 1090 774 9
5416 1090 442 49
5417 1090 1782 18
5418 1090 1098 1
5419 1090 107 37
5420 1091 877 59
5421 1091 1942 68
5422 1091 944 63
5423 1091 1656 87
5424 1091 1258 97
5425 1092 778 51
5426 1092 1328 71
5427 1092 1671 70
5428 1092 450 93
5429 1092 160 52
5430 1092 767 68
5431 1092 1729 60
5432 1092 1476 83
5433 1092 487 67
5434 1092 1880 46
5435 1093 1493 78
5436 1093 55 74
5437 1093 259 92
5438 1093 1475 96
5439 1093 634 52
5440 1093 1153 97
5441 1093 911 33
5442 1093 1008 68
5443 1094 1307 53
5444 1094 1747 22
5445 1094 1187 65
5446 1094 36 64
5447 1094 1297 17
5448 1094 1178 5
5449 1095 12 27
5450 1095 17 10
5451 1095 1775 77
5452 1095 1843 48
5453 1096 1483 39
5454 1096 1407 15
5455 1096 1802 78
5456 1096 602 53
5457 1096 388 49
5458 1096 1721 49
5459 1097 1947 39
5460 1097 33 48
5461 1097 733 4
5462 1097 19 41
5463 1097 47 63
5464 1098 255 26
5465 1098 918 97
5466 1098 678 3
5467 1098 253 28
5468 1098 1101 56
5469 1098 669 100
5470 1098 1620 82
5471 1098 856 97
5472 1099 1216 19
5473 1099 382 58
5474 1099 826 76
5475 1100 277 98
5476 1100 1642 96
5477 1100 1420 18
5478 1100 1121 84
5479 1100 1950 39
5480 1100 378 51
5481 1100 1346 32
5482 1100 10 19
5483 1101 969 3
5484 1101 591 30
5485 1101 1092 57
5486 1101 1697 33
5487 1101 433 63
5488 1101 810 52
5489 1101 613 60
5490 1101 597 92
5491 1102 1406 60
5492 1102 357 48
5493 1102 1739 27
5494 1102 166 60
5495 1103 991 17
5496 1103 555 54
5497 1103 344 7
5498 1103 402 32
5499 1103 1677 19
5500 1103 1461 82
5501 1104 272 13
5502 1104 362 38
5503 1104 110 48
5504 1104 1742 7
5505 1105 1710 45
5506 1105 444 60
5507 1105 966 50
5508 1105 1156 84
5509 1105 1039 56
5510 1105 232 10
5511 1105 1997 77
5512 1105 641 38
5513 1105 1213 46
5514 1106 165 66
5515 1106 858 71
5516 1106 543 62
5517 1106 1482 6
5518 1106 462 62
5519 1106 344 9
5520 1106 1471 46
5521 1107 1119 43
5522 1107 581 25
5523 1107 93 40
5524 1107 493 65
5525 1107 677 22
5526 1108 73 2
5527 1108 847 13
5528 1108 66 19
5529 1108 1400 96
5530 1108 1908 92
5531 1108 1588 72
5532 1109 344 35
5533 1109 809 8
5534 1109 218 4
5535 1110 124 66
5536 1110 594 28
5537 1110 1684 81
5538 1110 632 67
5539 1110 269 48
5540 1110 1178 4
5541 1110 703 58
5542 1110 1507 52
5543 1110 872 43
5544 1111 954 79
5545 1111 892 59
5546 1111 605 45
5547 1112 772 80
5548 1112 777 42
5549 1112 1073 37
5550 1113 75 48
5551 1113 1830 7
5552 1113 1653 67
5553 1113 1417 75
5554 1113 252 16
5555 1113 1885 57
5556 1113 421 98
5557 1114 1039 63
5558 1114 793 56
5559 1114 1278 98
5560 1114 351 66
5561 1115 460 5
5562 1115 1846 86
5563 1115 607 100
5564 1115 204 71
5565 1116 859 94
5566 1117 601 96
5567 1117 593 73
5568 1117 604 65
5569 1117 438 9
5570 1117 281 20
5571 1117 867 49
5572 1118 1638 43
5573 1118 1398 85
5574 1118 1428 92
5575 1119 323 57
5576 1119 1000 94
5577 1119 1267 93
5578 1119 533 82
5579 1119 410 35
5580 1120 1183 19
5581 1120 517 19
5582 1120 569 98
5583 1120 1672 26
5584 1121 1849 12
5585 1121 1762 79
5586 1122 1707 50
5587 1122 913 36
5588 1122 765 51
5589 1122 817 29
5590 1122 325 6
5591 1122 803 6
5592 1122 806 39
5593 1123 110 2
5594 1123 911 18
5595 1123 1791 25
5596 1124 1869 54
5597 1124 1982 73
5598 1125 1046 25
5599 1125 1720 54
5600 1125 149 20
5601 1125 282 55
5602 1126 75 71
5603 1126 572 73
5604 1126 511 33
5605 1126 664 27
5606 1126 1896 1
5607 1126 663 9
5608 1126 522 21
5609 1126 1014 5
5610 1127 1902 34
5611 1127 1340 94
5612 1127 1317 62
5613 1127 1257 9
5614 1127 360 29
5615 1127 173 60
5616 1128 239 22
5617 1128 156 87
5618 1129 265 64
5619 1129 1310 15
5620 1129 842 11
5621 1129 222 86
5622 1129 533 59
5623 1129 315 44
5624 1129 555 79
5625 1129 1990 94
5626 1129 413 48
5627 1129 780 61
5628 1130 600 34
5629 1130 1562 74
5630 1130 658 72
5631 1130 327 71
5632 1130 1605 95
5633 1130 442 43
5634 1130 1577 81
5635 1131 303 86
5636 1132 1644 42
5637 1132 833 68
5638 1132 248 20
5639 1133 1762 86
5640 1133 318 88
5641 1133 1087 92
5642 1133 598 76
5643 1133 1914 67
5644 1133 124 88
5645 1133 1295 36
5646 1133 1791 77
5647 1133 1047 100
5648 1133 1789 32
5649 1133 794 29
5650 1134 41 3
5651 1134 1478 56
5652 1134 1004 62
5653 1134 1973 35
5654 1135 1913 43
5655 1135 1907 66
5656 1135 328 39
5657 1136 1049 64
5658 1136 341 93
5659 1136 289 52
5660 1136 1943 7
5661 1136 235 76
5662 1137 1552 39
5663 1137 1097 33
5664 1137 787 14
5665 1138 1355 19
5666 1138 20 72
5667 1138 1015 29
5668 1138 1532 29
5669 1138 946 32
5670 1138 1747 60
5671 1139 122 20
5672 1139 541 13
5673 1139 1168 90
5674 1139 409 70
5675 1140 449 65
5676 1140 1942 47
5677 1140 1350 53
5678 1140 120 96
5679 1140 96 52
5680 1140 547 54
5681 1141 510 73
5682 1141 1124 43
5683 1141 988 39
5684 1141 1908 11
5685 1141 1679 32
5686 1142 1565 21
5687 1142 1389 80
5688 1142 1922 62
5689 1142 611 85
5690 1142 1188 9
5691 1142 144 100
5692 1142 1522 41
5693 1142 793 8
5694 1142 482 56
5695 1143 1826 52
5696 1143 61 56
5697 1143 1711 20
5698 1144 1706 54
5699 1144 771 61
5700 1144 1443 4
5701 1144 1256 43
5702 1144 756 48
5703 1145 1136 16
5704 1145 1515 40
5705 1145 174 31
5706 1145 1758 63
5707 1145 1239 63
5708 1146 1810 51
5709 1146 893 76
5710 1147 1912 28
5711 1147 1571 52
5712 1147 1808 56
5713 1147 1997 31
5714 1148 19 37
5715 1148 665 32
5716 1148 1897 79
5717 1148 179 22
5718 1148 993 44
5719 1148 16 21
5720 1148 569 77
5721 1149 1103 42
5722 1149 671 76
5723 1149 1325 49
5724 1149 1686 11
5725 1149 1261 13
5726 1149 1321 11
5727 1150 241 11
5728 1150 217 95
5729 1150 398 2
5730 1150 1420 20
5731 1150 1771 70
5732 1150 1978 55
5733 1151 363 64
5734 1151 85 12
5735 1151 1283 90
5736 1151 1596 83
5737 1152 1943 20
5738 1152 1596 7
5739 1153 204 1
5740 1153 17 61
5741 1153 1942 23
5742 1153 990 5
5743 1153 1824 18
5744 1153 1229 38
5745 1153 694 47
5746 1154 1556 87
5747 1154 1347 88
5748 1154 409 90
5749 1154 291 46
5750 1155 1941 86
5751 1155 229 74
5752 1155 797 12
5753 1156 420 6
5754 1156 1878 22
5755 1157 1484 40
5756 1157 1492 43
5757 1157 1031 13
5758 1158 1028 5
5759 1158 213 75
5760 1158 1160 11
5761 1158 1784 6
5762 1158 1463 79
5763 1158 926 1
5764 1158 332 25
5765 1159 1602 22
5766 1159 1346 51
5767 1159 1488 63
5768 1160 341 14
5769 1161 66 35
5770 1161 1254 76
5771 1161 1612 38
5772 1161 1096 79
5773 1161 1667 68
5774 1161 1392 10
5775 1162 1221 79
5776 1162 1381 37
5777 1162 127 18
5778 1162 1628 9
5779 1163 1234 60
5780 1163 989 78
5781 1163 1054 34
5782 1163 833 21
5783 1163 1119 83
5784 1163 93 100
5785 1163 1574 90
5786 1164 97 66
5787 1164 806 13
5788 1164 1353 64
5789 1165 1886 78
5790 1165 1389 29
5791 1165 1261 89
5792 1165 264 37
5793 1165 1800 5
5794 1165 351 51
5795 1165 160 44
5796 1166 1706 86
5797 1166 1828 21
5798 1166 1698 89
5799 1166 1004 61
5800 1167 1249 58
5801 1167 356 46
5802 1167 1068 66
5803 1167 1156 40
5804 1167 817 38
5805 1168 902 84
5806 1168 853 91
5807 1168 1930 52
5808 1168 799 54
5809 1168 369 31
5810 1168 760 40
5811 1169 1180 86
5812 1169 1314 42
5813 1169 1240 27
5814 1169 1504 31
5815 1170 1334 60
5816 1170 268 20
5817 1170 828 91
5818 1170 401 20
5819 1170 1494 5
5820 1170 1490 11
5821 1170 321 8
5822 1171 853 76
5823 1171 1067 16
5824 1171 1597 19
5825 1171 1671 14
5826 1171 962 58
5827 1171 1290 17
5828 1171 446 20
5829 1171 1027 93
5830 1171 880 10
5831 1171 783 37
5832 1172 755 99
5833 1172 1941 43
5834 1172 1099 89
5835 1172 547 41
5836 1172 1126 75
5837 1172 1612 31
5838 1172 982 92
5839 1172 1472 62
5840 1173 23 56
5841 1173 801 53
5842 1173 917 16
5843 1173 105 83
5844 1173 634 86
5845 1174 1385 86
5846 1174 551 71
5847 1174 1365 94
5848 1175 582 76
5849 1175 463 39
5850 1175 281 91
5851 1175 1380 27
5852 1175 979 61
5853 1175 1828 84
5854 1176 7 5
5855 1176 259 47
5856 1177 495 21
5857 1177 151 51
5858 1177 785 25
5859 1177 1682 45
5860 1177 9 9
5861 1177 512 7
5862 1177 422 5
5863 1178 398 33
5864 1178 1202 50
5865 1178 1033 24
5866 1178 117 64
5867 1179 1601 60
5868 1179 1404 85
5869 1180 389 51
5870 1180 82 91
5871 1180 1285 42
5872 1180 1678 58
5873 1180 781 18
5874 1180 751 42
5875 1180 744 96
5876 1180 43 91
5877 1181 1179 55
5878 1181 1022 85
5879 1181 1551 41
5880 1181 1509 97
5881 1181 1606 73
5882 1182 393 90
5883 1182 208 24
5884 1182 1403 1
5885 1182 1553 22
5886 1182 1789 33
5887 1182 281 54
5888 1183 1039 12
5889 1183 1476 63
5890 1183 1333 43
5891 1183 1070 19
5892 1183 1590 6
5893 1183 878 18
5894 1183 978 31
5895 1184 1182 66
5896 1184 149 78
5897 1184 355 64
5898 1184 346 36
5899 1184 1159 26
5900 1185 1114 93
5901 1185 1220 24
5902 1186 1506 54
5903 1186 919 5
5904 1186 477 99
5905 1187 1242 2
5906 1187 1351 81
5907 1187 712 47
5908 1187 649 92
5909 1188 1135 44
5910 1188 1944 79
5911 1188 1048 48
5912 1189 315 44
5913 1189 1849 1
5914 1189 1464 14
5915 1189 712 62
5916 1191 1505 99
5917 1191 5 65
5918 1191 1185 26
5919 1191 83 28
5920 1191 119 19
5921 1191 1215 43
5922 1191 151 88
5923 1192 1480 85
5924 1192 1200 95
5925 1192 511 96
5926 1192 394 65
5927 1192 1616 36
5928 1193 16 68
5929 1193 1401 51
5930 1193 964 68
5931 1193 66 76
5932 1194 293 79
5933 1194 722 79
5934 1194 1001 26
5935 1194 1450 56
5936 1194 1078 99
5937 1194 217 94
5938 1194 2 6
5939 1195 1157 59
5940 1195 1188 93
5941 1195 55 76
5942 1195 1812 71
5943 1195 1330 38
5944 1195 84 69
5945 1196 976 97
5946 1196 1937 59
5947 1196 1186 6
5948 1196 1732 37
5949 1196 312 43
5950 1197 877 3
5951 1197 780 53
5952 1197 223 76
5953 1197 892 81
5954 1197 1264 9
5955 1198 892 61
5956 1198 1123 54
5957 1198 496 60
5958 1199 93 78
5959 1199 167 74
5960 1199 480 30
5961 1200 206 41
5962 1200 410 76
5963 1200 1382 29
5964 1200 1995 58
5965 1201 1959 34
5966 1201 490 39
5967 1201 1129 84
5968 1201 1765 5
5969 1201 1173 30
5970 1201 1983 86
5971 1202 1520 75
5972 1202 295 33
5973 1202 1066 51
5974 1202 1224 34
5975 1203 612 1
5976 1203 372 68
5977 1203 1483 30
5978 1203 1338 6
5979 1203 1845 29
5980 1203 394 58
5981 1203 415 31
5982 1203 638 51
5983 1204 1134 1
5984 1204 1411 56
5985 1204 1193 7
5986 1204 45 10
5987 1204 1144 36
5988 1204 262 69
5989 1204 786 70
5990 1205 878 54
5991 1205 626 3
5992 1205 252 65
5993 1205 1119 94
5994 1205 1350 99
5995 1205 1577 82
5996 1205 1956 40
5997 1205 20 99
5998 1206 569 77
5999 1206 1647 85
6000 1206 854 7
6001 1207 465 64
6002 1207 1501 75
6003 1207 863 28
6004 1208 173 69
6005 1208 435 85
6006 1208 1836 71
6007 1208 807 37
6008 1209 330 100
6009 1209 140 15
6010 1209 92 31
6011 1209 454 50
6012 1209 1559 72
6013 1210 1223 93
6014 1210 882 43
6015 1210 130 23
6016 1210 1484 70
6017 1210 1288 84
6018 1210 52 26
6019 1211 1801 2
6020 1211 1513 88
6021 1211 735 55
6022 1212 1155 11
6023 1212 1928 43
6024 1212 1117 83
6025 1212 1426 32
6026 1213 549 62
6027 1213 651 3
6028 1213 329 13
6029 1213 1289 17
6030 1213 1187 96
6031 1213 173 94
6032 1213 1124 34
6033 1214 121 22
6034 1214 1616 85
6035 1214 252 38
6036 1215 463 86
6037 1215 1816 33
6038 1215 1363 54
6039 1215 888 21
6040 1216 962 55
6041 1216 1038 27
6042 1216 68 94
6043 1216 1262 21
6044 1216 1256 47
6045 1216 913 13
6046 1216 1247 98
6047 1216 98 37
6048 1216 1342 40
6049 1216 1098 70
6050 1216 1344 89
6051 1216 1782 71
6052 1216 565 82
6053 1216 721 9
6054 1217 81 10
6055 1217 1785 20
6056 1217 1806 16
6057 1218 139 1
6058 1218 239 31
6059 1218 1100 9
6060 1218 333 100
6061 1219 649 99
6062 1219 812 98
6063 1219 1315 35
6064 1219 1912 23
6065 1219 478 15
6066 1220 1436 98
6067 1220 1619 58
6068 1220 33 44
6069 1220 1825 16
6070 1220 948 65
6071 1220 991 99
6072 1221 889 100
6073 1221 282 69
6074 1221 1073 60
6075 1221 807 66
6076 1221 317 16
6077 1221 1579 62
6078 1221 368 86
6079 1221 1530 79
6080 1221 589 36
6081 1222 579 11
6082 1222 971 46
6083 1222 448 12
6084 1222 473 46
6085 1222 1088 23
6086 1222 1200 50
6087 1222 22 25
6088 1222 406 70
6089 1222 636 33
6090 1223 771 93
6091 1223 1807 3
6092 1223 1534 80
6093 1223 1071 99
6094 1223 524 12
6095 1224 1582 9
6096 1224 1606 21
6097 1224 513 19
6098 1224 1937 44
6099 1225 222 21
6100 1225 1453 67
6101 1225 9 89
6102 1226 663 69
6103 1226 1526 25
6104 1226 1541 62
6105 1226 1023 97
6106 1227 1040 81
6107 1227 1306 45
6108 1227 672 4
6109 1228 827 44
6110 1228 907 50
6111 1228 250 97
6112 1228 441 56
6113 1228 1268 14
6114 1228 1418 66
6115 1228 27 100
6116 1228 371 52
6117 1228 1119 28
6118 1229 1649 22
6119 1229 639 25
6120 1229 1241 80
6121 1229 13 82
6122 1230 1228 62
6123 1230 292 100
6124 1230 132 76
6125 1230 773 96
6126 1231 1640 90
6127 1231 483 9
6128 1232 448 96
6129 1232 1469 30
6130 1232 420 85
6131 1232 1486 100
6132 1233 1042 64
6133 1233 651 72
6134 1233 1433 99
6135 1233 1901 59
6136 1233 1493 50
6137 1233 1747 42
6138 1233 1184 83
6139 1233 1341 48
6140 1234 1788 26
6141 1234 1469 6
6142 1234 1157 5
6143 1234 1871 58
6144 1235 1838 25
6145 1235 1104 1
6146 1235 1945 74
6147 1235 702 46
6148 1235 1000 3
6149 1235 1594 86
6150 1236 541 48
6151 1236 321 84
6152 1236 1177 44
6153 1236 1693 54
6154 1237 1441 96
6155 1237 1972 1
6156 1237 1176 41
6157 1237 531 60
6158 1237 1371 11
6159 1237 1128 18
6160 1237 1538 13
6161 1238 431 77
6162 1238 1234 67
6163 1238 960 72
6164 1238 1912 99
6165 1238 266 15
6166 1238 1391 76
6167 1238 1653 18
6168 1238 335 61
6169 1238 309 64
6170 1239 881 71
6171 1239 974 71
6172 1239 314 93
6173 1239 1574 98
6174 1239 1047 44
6175 1240 765 16
6176 1240 1435 80
6177 1240 407 5
6178 1240 1470 82
6179 1240 1007 41
6180 1240 271 32
6181 1240 1349 40
6182 1241 1972 69
6183 1241 984 55
6184 1241 1102 38
6185 1241 60 5
6186 1241 814 14
6187 1242 866 8
6188 1242 1043 39
6189 1242 167 86
6190 1242 965 18
6191 1242 656 90
6192 1242 992 34
6193 1242 1292 49
6194 1243 1973 20
6195 1243 1822 36
6196 1243 205 44
6197 1243 399 53
6198 1243 918 10
6199 1243 556 68
6200 1243 1614 47
6201 1244 1388 10
6202 1244 1175 64
6203 1244 202 40
6204 1245 1761 95
6205 1245 25 39
6206 1246 1080 53
6207 1246 112 3
6208 1246 1394 4
6209 1246 1736 37
6210 1246 856 42
6211 1246 1334 24
6212 1247 968 92
6213 1247 1875 12
6214 1247 86 18
6215 1248 1966 68
6216 1248 1783 78
6217 1248 325 77
6218 1248 1601 13
6219 1249 991 47
6220 1249 1331 15
6221 1249 804 13
6222 1249 1129 34
6223 1250 583 99
6224 1250 1033 43
6225 1250 1282 41
6226 1250 117 16
6227 1250 1242 24
6228 1251 1740 74
6229 1251 777 28
6230 1251 401 75
6231 1251 371 11
6232 1251 1024 30
6233 1252 1652 7
6234 1252 1885 36
6235 1252 59 40
6236 1252 1923 98
6237 1252 1045 71
6238 1252 1854 97
6239 1252 1915 70
6240 1253 584 11
6241 1253 1810 92
6242 1253 1263 71
6243 1253 1946 74
6244 1253 512 89
6245 1254 1669 70
6246 1254 1787 39
6247 1254 1626 71
6248 1254 1621 85
6249 1254 251 39
6250 1255 111 13
6251 1255 1653 52
6252 1255 579 97
6253 1255 1882 6
6254 1255 1827 40
6255 1255 495 54
6256 1255 1698 12
6257 1256 1382 85
6258 1256 1611 43
6259 1256 1881 35
6260 1257 1955 95
6261 1257 1268 7
6262 1257 412 18
6263 1257 1401 9
6264 1257 381 13
6265 1258 1092 76
6266 1258 888 1
6267 1258 1152 14
6268 1258 1746 62
6269 1259 1568 6
6270 1259 1228 61
6271 1259 347 47
6272 1260 1165 52
6273 1260 835 70
6274 1260 10 14
6275 1260 856 34
6276 1260 1517 21
6277 1260 1726 76
6278 1260 1183 72
6279 1260 942 32
6280 1260 683 11
6281 1260 1850 43
6282 1260 561 22
6283 1261 1655 24
6284 1261 1406 84
6285 1261 312 73
6286 1261 1777 90
6287 1261 613 14
6288 1261 1202 81
6289 1262 1869 3
6290 1262 1350 61
6291 1262 728 28
6292 1262 1554 94
6293 1262 389 91
6294 1262 296 17
6295 1263 503 22
6296 1263 528 95
6297 1263 1385 88
6298 1263 252 66
6299 1264 140 31
6300 1264 464 53
6301 1264 1540 1
6302 1265 101 88
6303 1265 268 67
6304 1265 1308 35
6305 1265 1306 74
6306 1265 318 94
6307 1265 1501 100
6308 1265 1737 25
6309 1265 1449 64
6310 1265 210 71
6311 1265 1343 31
6312 1266 1813 8
6313 1266 462 56
6314 1266 604 28
6315 1266 129 79
6316 1266 693 86
6317 1266 1665 50
6318 1266 116 25
6319 1267 1305 68
6320 1267 741 38
6321 1267 83 45
6322 1267 1109 18
6323 1267 114 52
6324 1268 167 76
6325 1268 142 53
6326 1268 188 75
6327 1269 1078 37
6328 1269 1228 35
6329 1269 1287 32
6330 1269 780 79
6331 1269 162 16
6332 1269 1878 91
6333 1269 910 54
6334 1270 778 33
6335 1270 1268 83
6336 1270 1920 78
6337 1270 1432 64
6338 1271 123 1
6339 1271 499 15
6340 1271 910 52
6341 1271 1318 76
6342 1271 1112 25
6343 1272 499 96
6344 1272 688 33
6345 1272 888 89
6346 1273 549 17
6347 1273 424 74
6348 1273 995 24
6349 1274 1947 83
6350 1275 1549 75
6351 1275 936 16
6352 1275 1567 86
6353 1275 1146 32
6354 1276 1418 17
6355 1276 1203 92
6356 1276 99 6
6357 1276 724 30
6358 1276 368 32
6359 1276 197 96
6360 1276 1805 6
6361 1276 1752 94
6362 1277 21 10
6363 1277 436 88
6364 1277 1898 51
6365 1277 1143 18
6366 1277 1408 28
6367 1278 1296 36
6368 1278 1475 15
6369 1278 55 74
6370 1278 223 1
6371 1279 661 84
6372 1279 1656 27
6373 1279 1055 92
6374 1279 1949 15
6375 1280 611 90
6376 1280 1207 2
6377 1280 620 53
6378 1280 1015 14
6379 1280 1229 44
6380 1280 490 27
6381 1280 1940 58
6382 1280 1631 19
6383 1280 651 19
6384 1280 698 93
6385 1280 198 83
6386 1280 770 16
6387 1281 625 48
6388 1281 527 42
6389 1281 1405 53
6390 1281 191 49
6391 1281 156 85
6392 1282 1605 67
6393 1282 370 88
6394 1282 1757 36
6395 1282 1299 57
6396 1283 489 85
6397 1283 1471 26
6398 1283 1502 82
6399 1283 1094 19
6400 1283 122 27
6401 1283 468 50
6402 1283 1869 46
6403 1284 497 25
6404 1284 647 86
6405 1284 302 85
6406 1284 46 32
6407 1284 1039 63
6408 1284 1479 63
6409 1284 47 36
6410 1285 327 56
6411 1285 1323 7
6412 1285 848 33
6413 1285 1362 1
6414 1285 1018 56
6415 1286 1011 60
6416 1286 375 21
6417 1286 625 8
6418 1286 1956 8
6419 1287 1459 96
6420 1288 54 59
6421 1288 1491 68
6422 1288 1083 38
6423 1288 969 27
6424 1289 1405 53
6425 1289 377 15
6426 1289 1325 37
6427 1289 1361 19
6428 1289 1636 37
6429 1289 12 36
6430 1289 1500 23
6431 1289 1469 55
6432 1289 1654 99
6433 1290 1246 2
6434 1290 1920 61
6435 1290 19 98
6436 1290 828 68
6437 1290 908 9
6438 1290 357 76
6439 1291 1058 59
6440 1291 1971 45
6441 1291 1410 39
6442 1291 1735 83
6443 1292 120 29
6444 1292 1325 58
6445 1292 1254 26
6446 1292 1199 89
6447 1292 1447 36
6448 1292 1697 62
6449 1292 1242 50
6450 1293 373 35
6451 1293 1959 21
6452 1293 649 62
6453 1293 1592 29
6454 1294 1055 57
6455 1294 1254 18
6456 1294 734 3
6457 1295 876 100
6458 1295 550 31
6459 1295 896 83
6460 1295 1337 63
6461 1295 1239 50
6462 1296 1268 29
6463 1296 1990 71
6464 1296 233 66
6465 1296 889 83
6466 1296 881 19
6467 1297 879 15
6468 1297 1443 35
6469 1297 1699 93
6470 1297 1615 48
6471 1297 1104 67
6472 1297 2 33
6473 1297 478 89
6474 1297 909 13
6475 1297 1860 35
6476 1298 1746 85
6477 1298 559 67
6478 1298 315 40
6479 1299 1563 96
6480 1299 118 52
6481 1299 162 3
6482 1299 304 9
6483 1300 350 73
6484 1300 1667 14
6485 1300 1360 31
6486 1300 1661 37
6487 1301 792 33
6488 1301 1890 32
6489 1301 1735 97
6490 1301 327 86
6491 1301 1559 72
6492 1301 412 79
6493 1301 1757 74
6494 1301 360 68
6495 1302 1813 24
6496 1302 1172 81
6497 1302 44 64
6498 1303 1867 68
6499 1303 1634 1
6500 1303 799 20
6501 1304 536 3
6502 1304 19 42
6503 1304 1911 99
6504 1305 567 89
6505 1305 831 99
6506 1305 38 71
6507 1305 342 54
6508 1305 724 73
6509 1305 1175 44
6510 1306 520 1
6511 1306 356 62
6512 1306 476 25
6513 1306 1872 24
6514 1306 1216 14
6515 1306 1036 94
6516 1306 1951 40
6517 1307 597 93
6518 1307 611 98
6519 1307 1180 55
6520 1307 811 33
6521 1307 1903 90
6522 1307 1186 35
6523 1308 1970 76
6524 1308 1625 26
6525 1308 1876 81
6526 1308 1917 52
6527 1308 1962 86
6528 1308 1832 78
6529 1308 1422 73
6530 1308 221 73
6531 1309 228 46
6532 1309 1222 13
6533 1309 1620 49
6534 1309 1967 61
6535 1309 303 80
6536 1310 1409 26
6537 1310 1309 32
6538 1311 855 42
6539 1311 665 6
6540 1311 523 44
6541 1311 412 46
6542 1311 1 61
6543 1311 1860 98
6544 1311 437 31
6545 1312 345 69
6546 1312 659 43
6547 1312 1378 64
6548 1312 1204 30
6549 1313 984 56
6550 1313 1475 72
6551 1313 399 3
6552 1313 376 89
6553 1313 309 10
6554 1313 1369 14
6555 1314 1959 73
6556 1314 1960 18
6557 1314 829 30
6558 1315 541 53
6559 1315 1607 6
6560 1315 65 27
6561 1316 1140 60
6562 1316 1301 53
6563 1316 358 69
6564 1316 1811 95
6565 1316 563 10
6566 1316 1055 14
6567 1317 1621 88
6568 1317 1645 71
6569 1317 1374 57
6570 1317 217 92
6571 1317 630 18
6572 1318 1931 29
6573 1318 579 95
6574 1318 160 28
6575 1318 702 28
6576 1318 105 48
6577 1318 1604 13
6578 1319 1745 5
6579 1319 1457 33
6580 1319 805 2
6581 1320 734 76
6582 1320 1606 53
6583 1320 172 16
6584 1320 809 36
6585 1320 1352 83
6586 1320 745 76
6587 1320 43 58
6588 1320 687 27
6589 1320 1423 12
6590 1320 1441 44
6591 1321 1669 31
6592 1321 1387 79
6593 1321 1980 16
6594 1321 1538 12
6595 1321 155 33
6596 1321 302 77
6597 1321 1987 69
6598 1321 1332 96
6599 1322 908 81
6600 1322 182 98
6601 1322 1743 31
6602 1322 798 6
6603 1322 181 61
6604 1323 201 89
6605 1323 1373 36
6606 1323 111 70
6607 1323 1611 22
6608 1323 328 85
6609 1323 1888 97
6610 1323 1804 90
6611 1323 863 94
6612 1323 509 1
6613 1324 391 63
6614 1324 818 28
6615 1324 1672 53
6616 1324 868 43
6617 1325 1254 13
6618 1325 604 12
6619 1325 461 65
6620 1325 354 75
6621 1325 1149 30
6622 1325 1706 74
6623 1325 1253 36
6624 1325 938 1
6625 1326 698 55
6626 1326 305 90
6627 1326 1159 45
6628 1326 415 46
6629 1327 223 97
6630 1327 639 58
6631 1327 1664 72
6632 1327 209 90
6633 1328 338 22
6634 1328 1814 4
6635 1328 663 95
6636 1328 1521 13
6637 1328 297 81
6638 1328 711 74
6639 1328 783 3
6640 1329 883 86
6641 1329 979 36
6642 1329 1333 25
6643 1330 1436 23
6644 1330 764 21
6645 1330 570 30
6646 1330 1555 95
6647 1330 1329 6
6648 1330 145 94
6649 1330 495 23
6650 1330 1850 26
6651 1330 219 27
6652 1331 140 26
6653 1331 1997 17
6654 1331 1277 38
6655 1331 693 59
6656 1331 565 8
6657 1332 553 85
6658 1332 408 58
6659 1333 1797 29
6660 1333 1927 80
6661 1333 1920 18
6662 1333 789 5
6663 1333 18 16
6664 1334 82 93
6665 1334 1198 93
6666 1334 1687 27
6667 1334 1608 47
6668 1334 1544 81
6669 1334 254 97
6670 1335 1107 98
6671 1335 1175 39
6672 1335 905 88
6673 1335 602 56
6674 1336 1739 20
6675 1336 1526 89
6676 1336 330 9
6677 1337 1914 21
6678 1337 714 61
6679 1338 1761 49
6680 1338 1757 1
6681 1338 337 22
6682 1338 1712 48
6683 1338 36 5
6684 1338 500 69
6685 1339 1083 23
6686 1339 1587 88
6687 1339 39 54
6688 1339 1363 14
6689 1339 315 11
6690 1339 1049 98
6691 1339 1887 21
6692 1340 659 28
6693 1340 420 10
6694 1340 1196 20
6695 1340 335 54
6696 1340 1674 14
6697 1341 202 56
6698 1341 643 30
6699 1341 0 90
6700 1341 1612 22
6701 1342 1022 35
6702 1342 679 92
6703 1342 1603 67
6704 1342 1018 92
6705 1342 480 72
6706 1343 1430 87
6707 1343 259 68
6708 1343 1067 76
6709 1343 1910 75
6710 1343 1472 43
6711 1344 987 58
6712 1344 597 21
6713 1344 512 77
6714 1344 1719 69
6715 1345 1286 85
6716 1345 744 73
6717 1345 281 28
6718 1345 959 58
6719 1345 496 55
6720 1345 1487 23
6721 1346 1361 79
6722 1346 885 57
6723 1346 770 36
6724 1346 1389 41
6725 1346 1326 34
6726 1346 492 78
6727 1347 1003 28
6728 1347 11 94
6729 1347 0 99
6730 1348 1206 3
6731 1348 1980 26
6732 1348 1815 52
6733 1348 1755 38
6734 1348 1838 49
6735 1348 541 99
6736 1348 620 69
6737 1349 1526 60
6738 1349 375 12
6739 1349 1076 75
6740 1350 1786 15
6741 1350 1046 89
6742 1350 243 17
6743 1350 1766 7
6744 1350 426 30
6745 1350 105 95
6746 1350 1161 90
6747 1350 1325 69
6748 1350 513 15
6749 1351 973 72
6750 1351 395 62
6751 1351 1051 51
6752 1351 1134 84
6753 1351 1837 75
6754 1351 882 92
6755 1352 166 95
6756 1352 858 18
6757 1352 576 7
6758 1352 654 67
6759 1352 555 24
6760 1352 1917 69
6761 1352 1889 30
6762 1352 1793 17
6763 1352 384 31
6764 1352 1708 7
6765 1352 624 66
6766 1353 1774 78
6767 1353 605 70
6768 1353 778 10
6769 1353 542 31
6770 1353 63 69
6771 1353 471 71
6772 1353 1416 11
6773 1353 305 44
6774 1353 1539 68
6775 1354 758 69
6776 1354 1646 12
6777 1354 500 34
6778 1354 1947 34
6779 1354 1003 43
6780 1355 868 71
6781 1355 689 18
6782 1355 1791 23
6783 1355 221 6
6784 1355 206 55
6785 1355 1488 63
6786 1355 616 27
6787 1355 515 18
6788 1355 755 29
6789 1355 1087 90
6790 1356 802 82
6791 1356 979 12
6792 1356 810 67
6793 1356 1065 19
6794 1356 658 80
6795 1356 1467 57
6796 1357 55 10
6797 1357 1745 55
6798 1357 1678 93
6799 1358 212 82
6800 1358 1325 70
6801 1358 1199 11
6802 1358 1259 95
6803 1358 1868 98
6804 1359 1191 42
6805 1359 1622 59
6806 1359 289 22
6807 1359 1232 88
6808 1360 1885 36
6809 1360 1690 44
6810 1360 1850 4
6811 1360 1697 5
6812 1360 1277 98
6813 1360 333 2
6814 1361 799 100
6815 1361 508 4
6816 1362 522 100
6817 1362 1927 86
6818 1362 874 89
6819 1362 676 4
6820 1362 196 93
6821 1362 1963 4
6822 1362 217 11
6823 1363 1206 42
6824 1363 426 22
6825 1363 649 97
6826 1364 1627 96
6827 1364 987 82
6828 1364 407 75
6829 1364 1680 11
6830 1365 210 11
6831 1365 19 89
6832 1365 1912 25
6833 1365 1876 62
6834 1366 631 13
6835 1366 198 57
6836 1366 1454 69
6837 1366 1183 83
6838 1366 1071 48
6839 1366 695 8
6840 1366 988 81
6841 1366 1407 96
6842 1367 242 78
6843 1367 1184 4
6844 1367 593 93
6845 1367 204 20
6846 1367 563 46
6847 1368 776 41
6848 1368 1651 49
6849 1368 175 87
6850 1368 99 15
6851 1368 37 65
6852 1369 708 83
6853 1370 994 38
6854 1370 195 97
6855 1370 1011 38
6856 1370 129 34
6857 1370 191 21
6858 1371 1769 11
6859 1371 234 70
6860 1371 1853 19
6861 1371 1788 77
6862 1371 159 86
6863 1371 1829 74
6864 1372 546 70
6865 1372 214 62
6866 1372 1308 37
6867 1372 115 63
6868 1372 1289 67
6869 1372 257 99
6870 1372 1889 10
6871 1372 1533 20
6872 1372 12 23
6873 1373 403 98
6874 1373 1766 37
6875 1373 1657 65
6876 1373 719 80
6877 1373 1348 6
6878 1374 759 41
6879 1374 153 49
6880 1375 1321 61
6881 1375 1144 6
6882 1375 734 65
6883 1375 182 56
6884 1375 934 60
6885 1375 847 4
6886 1375 1961 6
6887 1375 1346 77
6888 1375 490 7
6889 1375 911 1
6890 1375 1563 85
6891 1376 536 34
6892 1376 1440 32
6893 1376 274 49
6894 1376 215 45
6895 1376 252 82
6896 1376 1397 44
6897 1377 635 12
6898 1377 1533 47
6899 1377 963 93
6900 1377 1676 67
6901 1377 286 36
6902 1377 355 68
6903 1377 1557 20
6904 1378 1022 52
6905 1378 242 49
6906 1378 1045 73
6907 1378 1936 16
6908 1378 1336 31
6909 1378 494 53
6910 1379 1338 20
6911 1379 224 35
6912 1379 1445 66
6913 1379 1961 30
6914 1379 1012 42
6915 1379 1972 48
6916 1380 167 85
6917 1380 73 7
6918 1380 431 47
6919 1380 1006 40
6920 1380 832 22
6921 1381 1759 74
6922 1381 813 49
6923 1381 745 94
6924 1381 1905 6
6925 1381 199 71
6926 1381 1046 92
6927 1382 1765 6
6928 1382 980 81
6929 1382 1004 61
6930 1382 1132 7
6931 1383 1514 53
6932 1383 103 27
6933 1383 1603 31
6934 1383 1535 53
6935 1383 1310 78
6936 1385 1516 79
6937 1385 1483 72
6938 1385 8 59
6939 1385 1313 80
6940 1385 174 46
6941 1385 57 3
6942 1385 871 99
6943 1386 1638 80
6944 1386 292 100
6945 1386 612 82
6946 1386 1066 68
6947 1386 1839 24
6948 1386 193 17
6949 1386 1041 9
6950 1387 1532 8
6951 1387 1859 35
6952 1387 1270 7
6953 1387 423 16
6954 1387 1816 51
6955 1388 646 33
6956 1388 1782 68
6957 1388 1893 16
6958 1388 969 72
6959 1389 1214 68
6960 1389 1939 95
6961 1389 646 1
6962 1389 1853 34
6963 1389 346 81
6964 1389 1699 94
6965 1389 1304 34
6966 1390 1634 83
6967 1390 1224 23
6968 1390 921 71
6969 1390 874 61
6970 1390 752 64
6971 1390 1115 32
6972 1390 585 67
6973 1391 1727 25
6974 1391 327 49
6975 1391 1205 92
6976 1391 1669 98
6977 1391 1972 25
6978 1391 623 68
6979 1391 1723 83
6980 1391 870 9
6981 1391 1181 52
6982 1391 1557 35
6983 1391 975 32
6984 1392 1199 20
6985 1392 1842 87
6986 1392 933 9
6987 1393 1476 19
6988 1393 1251 90
6989 1393 1887 52
6990 1393 264 80
6991 1394 1716 87
6992 1394 1892 38
6993 1394 1317 93
6994 1394 286 22
6995 1394 1435 67
6996 1394 301 74
6997 1394 851 83
6998 1395 1968 86
6999 1395 1393 86
7000 1395 1339 94
7001 1395 102 40
7002 1395 899 53
7003 1396 511 39
7004 1396 1623 21
7005 1396 1936 3
7006 1397 1813 32
7007 1397 740 54
7008 1397 948 97
7009 1397 87 92
7010 1397 1548 17
7011 1397 1494 48
7012 1397 1947 93
7013 1398 1974 93
7014 1398 152 68
7015 1398 1957 56
7016 1398 793 28
7017 1399 1327 14
7018 1399 493 40
7019 1399 891 100
7020 1399 513 33
7021 1399 1731 11
7022 1400 1695 60
7023 1400 1123 6
7024 1400 866 50
7025 1400 1511 38
7026 1401 1886 81
7027 1401 221 50
7028 1401 720 21
7029 1401 1319 46
7030 1401 1179 97
7031 1401 1849 48
7032 1401 787 97
7033 1401 1037 38
7034 1402 664 6
7035 1402 951 24
7036 1402 1007 52
7037 1402 1235 30
7038 1402 939 93
7039 1403 1868 87
7040 1403 640 48
7041 1403 1667 44
7042 1403 913 70
7043 1403 1728 88
7044 1403 1104 24
7045 1403 1567 38
7046 1403 249 25
7047 1403 1386 94
7048 1403 301 3
7049 1403 1459 86
7050 1404 752 11
7051 1404 974 61
7052 1404 840 49
7053 1404 1541 40
7054 1404 1063 53
7055 1405 1029 36
7056 1405 623 38
7057 1405 1461 66
7058 1405 1349 74
7059 1406 707 68
7060 1406 1810 65
7061 1407 478 3
7062 1407 53 99
7063 1407 1736 29
7064 1407 1999 94
7065 1407 1214 14
7066 1407 1244 48
7067 1408 11 31
7068 1408 1178 72
7069 1408 1647 90
7070 1408 1888 65
7071 1408 1320 67
7072 1408 1220 23
7073 1408 202 36
7074 1409 1597 43
7075 1409 782 93
7076 1409 22 18
7077 1410 622 60
7078 1410 122 79
7079 1410 185 90
7080 1410 754 8
7081 1410 1605 87
7082 1410 1393 89
7083 1411 1483 44
7084 1411 773 5
7085 1411 230 38
7086 1411 1906 88
7087 1412 411 82
7088 1412 1883 8
7089 1412 909 38
7090 1412 237 31
7091 1412 1684 27
7092 1412 1439 28
7093 1412 1702 27
7094 1412 867 98
7095 1413 758 46
7096 1413 1443 25
7097 1413 240 68
7098 1413 576 33
7099 1413 368 76
7100 1413 1382 41
7101 1413 631 91
7102 1414 1701 16
7103 1414 1024 51
7104 1414 163 94
7105 1414 1382 29
7106 1415 1851 19
7107 1415 742 14
7108 1416 856 12
7109 1416 1328 13
7110 1416 77 92
7111 1416 829 77
7112 1416 273 59
7113 1416 957 68
7114 1416 681 60
7115 1416 1628 93
7116 1416 1924 16
7117 1417 1018 70
7118 1417 1164 7
7119 1418 1579 78
7120 1418 1561 26
7121 1418 1852 31
7122 1419 541 76
7123 1419 138 12
7124 1419 1360 81
7125 1419 1498 87
7126 1419 1656 26
7127 1419 277 64
7128 1419 1388 28
7129 1419 1168 18
7130 1420 1014 52
7131 1420 822 83
7132 1420 1796 42
7133 1420 1647 29
7134 1420 1653 6
7135 1420 133 53
7136 1420 272 5
7137 1420 1992 93
7138 1420 1661 10
7139 1421 312 11
7140 1421 1876 97
7141 1421 1304 79
7142 1421 906 98
7143 1421 1402 65
7144 1421 483 64
7145 1421 641 98
7146 1422 1917 42
7147 1422 435 50
7148 1422 766 13
7149 1422 989 60
7150 1423 1296 65
7151 1423 1404 53
7152 1423 1431 100
7153 1423 1890 71
7154 1423 1209 93
7155 1423 368 68
7156 1424 40 2
7157 1424 980 2
7158 1424 1237 24
7159 1424 1441 27
7160 1425 1060 4
7161 1425 556 4
7162 1425 1402 76
7163 1425 1487 14
7164 1425 589 43
7165 1425 1119 100
7166 1425 798 54
7167 1425 961 15
7168 1425 1473 71
7169 1425 1976 17
7170 1426 1960 77
7171 1426 1937 68
7172 1426 852 2
7173 1426 926 32
7174 1426 1179 89
7175 1426 1265 49
7176 1426 1682 43
7177 1426 795 61
7178 1426 118 82
7179 1426 894 90
7180 1426 1118 64
7181 1427 1235 34
7182 1427 1401 94
7183 1427 1003 37
7184 1427 303 77
7185 1427 1085 16
7186 1427 17 93
7187 1427 1322 54
7188 1428 1933 1
7189 1428 733 80
7190 1428 734 88
7191 1428 893 28
7192 1428 707 51
7193 1428 1363 48
7194 1428 1638 79
7195 1429 865 45
7196 1429 1380 18
7197 1429 267 8
7198 1429 1409 10
7199 1429 1207 40
7200 1429 855 78
7201 1429 255 10
7202 1429 663 16
7203 1429 1108 68
7204 1430 895 82
7205 1430 474 99
7206 1430 534 74
7207 1430 251 37
7208 1430 1164 14
7209 1430 1936 70
7210 1430 920 38
7211 1432 524 29
7212 1432 1944 30
7213 1432 913 51
7214 1432 1878 68
7215 1432 1942 62
7216 1432 1853 44
7217 1433 824 4
7218 1433 1218 76
7219 1433 675 18
7220 1433 183 97
7221 1433 1297 53
7222 1433 1681 25
7223 1434 225 22
7224 1434 720 93
7225 1434 1266 21
7226 1434 1275 28
7227 1434 743 78
7228 1434 827 78
7229 1434 1506 65
7230 1434 1171 19
7231 1434 1274 10
7232 1435 1834 31
7233 1435 1703 58
7234 1435 1737 36
7235 1435 1704 43
7236 1435 1535 44
7237 1435 483 54
7238 1435 1753 10
7239 1435 40 12
7240 1435 506 33
7241 1436 221 5
7242 1436 1773 90
7243 1436 23 96
7244 1436 470 94
7245 1436 1208 38
7246 1436 1328 17
7247 1436 1744 67
7248 1436 874 69
7249 1437 1918 53
7250 1437 234 96
7251 1437 823 6
7252 1437 1942 47
7253 1437 217 81
7254 1438 1548 3
7255 1438 911 100
7256 1438 1094 44
7257 1438 1518 31
7258 1439 929 64
7259 1439 1760 51
7260 1439 1561 55
7261 1439 1697 56
7262 1439 350 96
7263 1439 1799 6
7264 1439 429 67
7265 1439 888 89
7266 1439 178 13
7267 1439 1710 15
7268 1440 619 96
7269 1440 839 17
7270 1440 1146 55
7271 1440 940 100
7272 1440 1057 3
7273 1440 1001 6
7274 1441 1787 25
7275 1441 740 8
7276 1441 1656 67
7277 1442 142 27
7278 1442 1929 47
7279 1442 63 50
7280 1442 1646 51
7281 1442 609 78
7282 1443 424 12
7283 1443 1878 98
7284 1443 407 4
7285 1443 754 50
7286 1443 27 20
7287 1443 912 88
7288 1444 815 59
7289 1444 1840 10
7290 1444 1756 42
7291 1444 605 96
7292 1444 1946 28
7293 1445 875 13
7294 1445 282 23
7295 1445 798 99
7296 1445 1718 28
7297 1445 1237 33
7298 1446 438 44
7299 1446 336 46
7300 1447 579 7
7301 1447 106 56
7302 1447 1334 66
7303 1447 1241 71
7304 1447 937 24
7305 1448 309 56
7306 1448 1983 74
7307 1448 71 14
7308 1448 50 63
7309 1448 632 81
7310 1448 1592 63
7311 1449 281 55
7312 1449 1350 98
7313 1449 927 72
7314 1450 119 83
7315 1450 904 19
7316 1450 1129 80
7317 1451 893 27
7318 1451 1921 68
7319 1451 1152 34
7320 1451 1899 38
7321 1452 1522 96
7322 1452 1584 6
7323 1452 732 15
7324 1452 1878 31
7325 1452 406 39
7326 1453 324 71
7327 1453 1326 1
7328 1453 1919 68
7329 1453 203 58
7330 1453 623 100
7331 1453 1361 25
7332 1454 1569 44
7333 1454 1163 39
7334 1454 1086 31
7335 1454 1640 62
7336 1454 683 86
7337 1455 1249 71
7338 1455 1580 95
7339 1456 1950 68
7340 1456 1332 18
7341 1456 799 53
7342 1456 133 6
7343 1456 1635 28
7344 1456 1698 30
7345 1457 1005 83
7346 1457 1453 48
7347 1457 1605 79
7348 1457 573 93
7349 1457 1175 16
7350 1457 783 7
7351 1457 1096 14
7352 1457 871 86
7353 1457 517 48
7354 1458 1863 58
7355 1458 665 89
7356 1458 1996 89
7357 1458 1330 3
7358 1458 105 78
7359 1458 1027 7
7360 1458 293 65
7361 1458 924 48
7362 1459 1681 73
7363 1459 44 75
7364 1459 1834 91
7365 1459 1128 9
7366 1459 1585 38
7367 1459 704 37
7368 1460 638 74
7369 1460 150 24
7370 1460 735 3
7371 1460 1553 92
7372 1460 884 58
7373 1460 1636 33
7374 1460 119 75
7375 1460 138 22
7376 1460 619 52
7377 1461 682 97
7378 1461 1771 77
7379 1461 1568 91
7380 1461 416 74
7381 1461 1945 80
7382 1461 1861 81
7383 1462 172 54
7384 1462 161 99
7385 1462 71 80
7386 1462 124 74
7387 1462 773 49
7388 1462 870 100
7389 1462 260 85
7390 1463 1331 38
7391 1463 595 71
7392 1463 70 83
7393 1463 530 78
7394 1464 406 98
7395 1464 1509 77
7396 1464 1545 96
7397 1464 1173 94
7398 1464 1685 87
7399 1465 530 87
7400 1465 392 98
7401 1465 796 59
7402 1465 1957 12
7403 1465 59 67
7404 1465 1599 38
7405 1466 643 19
7406 1466 926 69
7407 1466 1244 47
7408 1466 828 75
7409 1467 597 50
7410 1467 692 82
7411 1467 1033 73
7412 1468 1472 32
7413 1468 1520 19
7414 1468 1023 43
7415 1468 673 73
7416 1469 702 14
7417 1469 967 38
7418 1469 865 3
7419 1469 1651 99
7420 1469 1521 65
7421 1469 575 40
7422 1469 466 73
7423 1470 1874 80
7424 1471 996 25
7425 1471 1426 23
7426 1471 294 25
7427 1471 1501 14
7428 1471 1076 24
7429 1471 1805 100
7430 1471 329 29
7431 1472 1115 38
7432 1472 1265 100
7433 1473 539 19
7434 1473 1925 100
7435 1473 1826 56
7436 1473 486 52
7437 1473 242 73
7438 1474 1843 72
7439 1474 855 8
7440 1474 1214 53
7441 1474 397 80
7442 1474 1775 90
7443 1474 1707 3
7444 1475 655 72
7445 1475 2 61
7446 1475 1164 20
7447 1475 1075 51
7448 1476 1772 82
7449 1476 105 16
7450 1476 896 59
7451 1476 1269 98
7452 1476 1394 54
7453 1476 1244 4
7454 1476 530 83
7455 1476 129 57
7456 1477 664 23
7457 1477 560 96
7458 1477 52 28
7459 1477 838 40
7460 1477 1812 72
7461 1477 910 93
7462 1477 459 30
7463 1477 404 67
7464 1478 1793 78
7465 1478 83 29
7466 1478 999 42
7467 1479 961 86
7468 1479 1025 85
7469 1479 995 78
7470 1479 1667 47
7471 1479 713 84
7472 1479 1527 32
7473 1479 690 67
7474 1479 7 18
7475 1480 236 85
7476 1480 938 72
7477 1481 44 97
7478 1481 1314 3
7479 1481 664 37
7480 1481 85 1
7481 1482 1157 45
7482 1482 1410 53
7483 1482 931 85
7484 1482 1847 16
7485 1483 1207 19
7486 1483 808 89
7487 1483 1404 73
7488 1483 74 79
7489 1483 1078 56
7490 1483 892 44
7491 1484 1974 4
7492 1484 1139 71
7493 1484 956 19
7494 1485 473 52
7495 1485 580 76
7496 1485 202 98
7497 1485 1022 46
7498 1485 1472 70
7499 1485 766 87
7500 1485 1007 19
7501 1485 1309 56
7502 1485 971 85
7503 1486 611 35
7504 1486 1432 12
7505 1486 1189 71
7506 1486 1698 49
7507 1487 1460 74
7508 1487 1479 49
7509 1488 316 45
7510 1488 1386 53
7511 1488 359 81
7512 1488 579 10
7513 1488 570 28
7514 1489 127 2
7515 1489 945 72
7516 1489 629 62
7517 1489 268 55
7518 1489 1993 13
7519 1490 1065 87
7520 1490 1355 88
7521 1490 480 19
7522 1490 1780 99
7523 1491 694 25
7524 1491 598 68
7525 1491 1793 41
7526 1491 355 74
7527 1491 1310 44
7528 1491 1315 97
7529 1492 1602 16
7530 1493 110 33
7531 1493 1322 25
7532 1493 1815 100
7533 1493 1326 35
7534 1493 1294 52
7535 1493 1274 70
7536 1494 940 20
7537 1494 1952 31
7538 1494 289 76
7539 1494 1487 99
7540 1495 786 40
7541 1495 1028 66
7542 1496 1604 35
7543 1496 1650 81
7544 1496 1669 6
7545 1496 1655 4
7546 1496 484 22
7547 1496 988 62
7548 1497 1078 97
7549 1497 1135 29
7550 1498 1179 1
7551 1498 804 1
7552 1498 980 86
7553 1498 1993 66
7554 1499 1942 56
7555 1499 959 77
7556 1499 1900 51
7557 1500 1628 50
7558 1500 1789 9
7559 1500 1913 8
7560 1500 325 15
7561 1500 1629 98
7562 1501 679 50
7563 1501 1178 65
7564 1501 53 26
7565 1501 648 10
7566 1501 402 11
7567 1502 678 86
7568 1502 1574 25
7569 1502 6 79
7570 1502 675 43
7571 1503 1410 4
7572 1503 158 7
7573 1503 1724 9
7574 1503 1376 49
7575 1503 1857 68
7576 1503 1521 8
7577 1503 267 79
7578 1503 1687 83
7579 1504 737 36
7580 1504 1573 11
7581 1505 1660 38
7582 1505 1866 81
7583 1505 1578 78
7584 1505 1688 10
7585 1505 80 95
7586 1505 388 42
7587 1505 273 7
7588 1505 887 59
7589 1505 1752 53
7590 1505 1665 100
7591 1506 381 23
7592 1506 668 81
7593 1506 282 67
7594 1506 1073 26
7595 1506 1909 75
7596 1506 505 57
7597 1506 547 83
7598 1507 1499 53
7599 1507 638 81
7600 1507 568 19
7601 1507 1484 7
7602 1508 209 94
7603 1508 690 48
7604 1508 72 29
7605 1508 915 82
7606 1509 114 36
7607 1509 1915 35
7608 1509 1441 3
7609 1509 408 64
7610 1509 798 57
7611 1509 10 57
7612 1510 1257 77
7613 1510 581 37
7614 1510 68 51
7615 1510 844 21
7616 1510 1923 8
7617 1510 669 92
7618 1510 462 58
7619 1510 16 18
7620 1511 1389 93
7621 1511 108 52
7622 1511 877 98
7623 1511 1292 53
7624 1512 1809 86
7625 1512 1480 17
7626 1512 237 77
7627 1512 1235 18
7628 1512 560 45
7629 1512 1118 3
7630 1513 763 72
7631 1513 1834 12
7632 1513 1158 96
7633 1514 1725 63
7634 1514 1004 93
7635 1514 797 81
7636 1514 1275 61
7637 1514 1906 50
7638 1514 1356 7
7639 1514 1468 21
7640 1514 1254 73
7641 1515 203 90
7642 1515 1312 78
7643 1515 1801 9
7644 1515 769 99
7645 1515 1112 100
7646 1516 499 34
7647 1516 359 3
7648 1516 1342 51
7649 1516 107 68
7650 1516 1354 87
7651 1516 1212 69
7652 1516 1197 34
7653 1516 1980 9
7654 1517 992 25
7655 1517 1425 26
7656 1518 240 26
7657 1518 298 59
7658 1518 1347 30
7659 1518 1859 12
7660 1518 1359 17
7661 1518 851 41
7662 1518 800 46
7663 1518 1388 92
7664 1518 1658 22
7665 1518 1228 26
7666 1518 1432 45
7667 1519 1509 52
7668 1519 862 14
7669 1519 86 60
7670 1519 539 70
7671 1519 476 11
7672 1519 331 60
7673 1519 1132 2
7674 1519 1040 27
7675 1520 1582 22
7676 1520 1374 87
7677 1520 1171 14
7678 1520 1921 11
7679 1520 1232 78
7680 1521 1961 21
7681 1521 642 1
7682 1521 40 49
7683 1522 1180 15
7684 1523 1764 29
7685 1523 514 97
7686 1523 483 55
7687 1524 1784 31
7688 1524 685 66
7689 1524 520 86
7690 1524 321 41
7691 1524 1929 17
7692 1524 182 60
7693 1525 658 64
7694 1525 225 70
7695 1526 1017 74
7696 1526 1995 45
7697 1526 159 49
7698 1526 100 16
7699 1526 193 25
7700 1527 1127 28
7701 1527 130 58
7702 1527 695 10
7703 1527 446 86
7704 1527 973 70
7705 1527 1912 38
7706 1527 1191 40
7707 1527 133 34
7708 1527 14 76
7709 1527 1998 7
7710 1527 1893 93
7711 1528 1800 22
7712 1528 1086 75
7713 1528 1399 42
7714 1528 1942 7
7715 1528 1928 19
7716 1529 185 51
7717 1529 1544 38
7718 1529 1062 66
7719 1529 1405 6
7720 1529 1362 13
7721 1529 282 56
7722 1530 1504 36
7723 1530 33 37
7724 1530 1195 7
7725 1530 888 31
7726 1530 1541 58
7727 1531 642 27
7728 1531 1471 88
7729 1531 1830 33
7730 1531 470 14
7731 1531 738 51
7732 1532 310 61
7733 1532 1518 69
7734 1532 1658 14
7735 1532 449 19
7736 1533 1688 60
7737 1533 1701 95
7738 1533 1681 64
7739 1533 1302 86
7740 1533 429 66
7741 1534 316 22
7742 1534 1104 24
7743 1534 1143 10
7744 1534 1185 2
7745 1534 495 21
7746 1534 176 82
7747 1534 429 12
7748 1535 569 63
7749 1535 1041 76
7750 1535 374 69
7751 1535 706 24
7752 1535 1539 14
7753 1536 951 81
7754 1536 866 25
7755 1536 1608 34
7756 1536 1181 67
7757 1536 1654 54
7758 1537 546 22
7759 1538 481 74
7760 1538 506 70
7761 1538 1006 44
7762 1538 1807 95
7763 1538 1669 63
7764 1539 1916 94
7765 1539 631 88
7766 1539 1956 78
7767 1539 578 57
7768 1540 1533 30
7769 1540 1680 98
7770 1540 1426 55
7771 1540 1329 30
7772 1540 762 70
7773 1540 1889 32
7774 1540 1188 15
7775 1540 1466 66
7776 1540 116 23
7777 1541 1266 70
7778 1541 1218 88
7779 1541 845 41
7780 1541 1954 53
7781 1542 1790 4
7782 1542 25 44
7783 1542 1525 30
7784 1542 1543 74
7785 1542 71 97
7786 1542 608 58
7787 1542 1196 95
7788 1542 1210 3
7789 1543 798 64
7790 1543 1542 90
7791 1544 63 76
7792 1544 1979 70
7793 1544 1768 93
7794 1544 1100 82
7795 1545 1220 55
7796 1545 1829 52
7797 1546 1494 88
7798 1546 1049 16
7799 1546 479 59
7800 1546 1302 62
7801 1546 1873 90
7802 1546 300 8
7803 1547 1476 52
7804 1547 1514 64
7805 1547 977 31
7806 1547 1565 52
7807 1547 1678 67
7808 1547 227 100
7809 1547 215 19
7810 1547 1993 2
7811 1548 1974 47
7812 1548 1527 98
7813 1548 769 1
7814 1549 680 49
7815 1549 85 70
7816 1549 711 19
7817 1549 865 11
7818 1549 1863 85
7819 1550 395 22
7820 1550 300 24
7821 1550 498 29
7822 1551 695 81
7823 1551 1491 45
7824 1551 850 42
7825 1551 1372 87
7826 1551 1342 21
7827 1551 959 12
7828 1552 1407 51
7829 1552 1823 87
7830 1552 1736 85
7831 1553 1975 47
7832 1553 875 2
7833 1553 928 100
7834 1553 575 43
7835 1554 1342 70
7836 1554 1444 58
7837 1554 75 14
7838 1554 1856 88
7839 1555 1057 34
7840 1555 1349 52
7841 1555 1280 73
7842 1555 1747 20
7843 1555 1152 94
7844 1556 1074 10
7845 1556 1472 67
7846 1556 156 84
7847 1557 1297 99
7848 1557 1630 23
7849 1557 319 10
7850 1557 1934 74
7851 1558 451 18
7852 1558 1584 42
7853 1558 461 73
7854 1558 1948 51
7855 1558 878 59
7856 1558 413 97
7857 1558 312 77
7858 1559 1719 6
7859 1559 1714 72
7860 1559 1897 76
7861 1559 544 69
7862 1560 365 99
7863 1560 1413 88
7864 1560 276 35
7865 1560 1036 31
7866 1560 283 56
7867 1560 1284 80
7868 1561 570 78
7869 1561 99 70
7870 1561 804 37
7871 1561 1329 70
7872 1562 1548 3
7873 1562 328 21
7874 1562 157 17
7875 1562 326 5
7876 1562 1869 43
7877 1562 1605 5
7878 1562 266 78
7879 1562 1136 89
7880 1562 1795 94
7881 1562 1791 30
7882 1562 712 85
7883 1563 1682 70
7884 1563 1596 56
7885 1563 1986 93
7886 1563 28 77
7887 1563 1121 92
7888 1563 766 89
7889 1564 1941 33
7890 1564 1842 65
7891 1564 64 38
7892 1565 523 83
7893 1565 13 17
7894 1565 324 39
7895 1565 1875 78
7896 1565 1984 44
7897 1565 1598 95
7898 1565 929 79
7899 1566 1376 66
7900 1566 170 71
7901 1566 193 81
7902 1566 687 9
7903 1566 121 83
7904 1567 1179 11
7905 1567 1135 37
7906 1567 231 45
7907 1567 492 58
7908 1567 1897 81
7909 1567 1825 70
7910 1567 373 65
7911 1567 1653 59
7912 1568 1592 97
7913 1568 1313 5
7914 1568 1014 89
7915 1568 881 84
7916 1568 1611 57
7917 1569 593 12
7918 1569 574 46
7919 1569 1892 23
7920 1569 1756 31
7921 1569 1782 70
7922 1570 755 52
7923 1570 1196 58
7924 1570 12 50
7925 1570 1319 62
7926 1570 235 26
7927 1570 862 70
7928 1571 1350 99
7929 1571 281 85
7930 1571 1397 24
7931 1571 1401 4
7932 1572 1978 79
7933 1572 1126 58
7934 1572 713 36
7935 1572 1662 49
7936 1572 408 100
7937 1573 149 10
7938 1573 1463 79
7939 1573 349 9
7940 1573 612 93
7941 1573 1020 81
7942 1573 183 85
7943 1574 1312 60
7944 1574 1129 64
7945 1574 183 79
7946 1574 277 69
7947 1574 508 64
7948 1574 190 50
7949 1574 1968 70
7950 1574 883 20
7951 1574 1031 80
7952 1574 699 74
7953 1574 1148 56
7954 1575 1857 65
7955 1575 95 64
7956 1575 1574 92
7957 1576 636 20
7958 1576 498 17
7959 1576 1577 41
7960 1576 1731 67
7961 1577 149 74
7962 1577 297 26
7963 1577 784 64
7964 1577 1282 96
7965 1577 1797 5
7966 1577 20 83
7967 1577 1929 69
7968 1577 171 41
7969 1577 1215 88
7970 1577 533 68
7971 1578 281 1
7972 1578 684 52
7973 1578 189 83
7974 1578 640 24
7975 1579 267 88
7976 1579 1181 81
7977 1579 591 31
7978 1579 1842 48
7979 1579 1095 7
7980 1579 1996 90
7981 1579 747 35
7982 1580 283 4
7983 1581 1776 85
7984 1581 1826 47
7985 1582 617 97
7986 1582 1617 50
7987 1582 1589 49
7988 1583 571 94
7989 1583 1382 80
7990 1583 1652 43
7991 1584 1665 88
7992 1584 1730 59
7993 1584 436 73
7994 1584 1679 5
7995 1584 1426 4
7996 1585 778 87
7997 1585 340 16
7998 1585 835 22
7999 1586 990 36
8000 1586 692 70
8001 1586 1722 23
8002 1586 1389 100
8003 1586 641 96
8004 1586 1359 44
8005 1587 1112 48
8006 1587 891 35
8007 1587 1907 33
8008 1587 307 24
8009 1587 192 68
8010 1588 1070 51
8011 1588 1636 59
8012 1588 579 76
8013 1588 1662 51
8014 1588 803 26
8015 1588 670 18
8016 1589 114 46
8017 1589 715 79
8018 1589 590 38
8019 1589 1932 24
8020 1589 115 82
8021 1589 357 32
8022 1589 1270 82
8023 1590 1928 18
8024 1590 880 88
8025 1590 1633 69
8026 1591 127 95
8027 1591 931 74
8028 1592 1294 35
8029 1592 413 51
8030 1592 1343 29
8031 1593 1525 25
8032 1593 741 70
8033 1593 559 74
8034 1594 870 14
8035 1594 1321 44
8036 1594 1198 52
8037 1594 22 22
8038 1594 993 34
8039 1594 1414 11
8040 1594 1206 88
8041 1594 1677 88
8042 1595 344 42
8043 1595 734 24
8044 1595 218 69
8045 1595 572 98
8046 1595 225 44
8047 1596 818 93
8048 1596 824 62
8049 1596 667 23
8050 1597 1577 44
8051 1597 1652 50
8052 1597 819 22
8053 1597 1129 74
8054 1598 1980 22
8055 1598 582 52
8056 1599 1960 76
8057 1599 1788 29
8058 1599 455 89
8059 1599 1663 29
8060 1599 1492 44
8061 1600 1984 68
8062 1600 897 78
8063 1600 992 88
8064 1600 390 48
8065 1600 1250 14
8066 1600 1328 29
8067 1600 772 65
8068 1600 985 14
8069 1600 1740 72
8070 1601 545 91
8071 1601 502 51
8072 1601 458 48
8073 1601 1661 47
8074 1602 1906 4
8075 1602 40 83
8076 1602 261 63
8077 1602 1793 67
8078 1602 1493 34
8079 1602 1337 50
8080 1603 1684 72
8081 1603 1982 42
8082 1603 827 3
8083 1603 1658 79
8084 1603 1830 42
8085 1604 1861 97
8086 1604 922 63
8087 1604 1414 99
8088 1604 1663 88
8089 1604 1190 37
8090 1605 919 34
8091 1605 1838 29
8092 1605 1449 1
8093 1605 1088 25
8094 1605 1227 40
8095 1606 968 81
8096 1606 960 80
8097 1606 622 16
8098 1606 604 87
8099 1606 891 66
8100 1606 1918 74
8101 1606 1517 10
8102 1607 931 15
8103 1607 974 62
8104 1607 76 77
8105 1607 1154 62
8106 1607 727 22
8107 1607 1669 7
8108 1607 1754 26
8109 1607 88 67
8110 1607 1561 91
8111 1608 143 43
8112 1608 59 75
8113 1608 65 31
8114 1608 1758 35
8115 1609 842 5
8116 1609 1637 12
8117 1609 566 47
8118 1609 1131 27
8119 1609 774 51
8120 1609 416 40
8121 1610 642 12
8122 1610 1104 42
8123 1610 1039 38
8124 1610 1434 59
8125 1610 807 14
8126 1610 373 42
8127 1611 221 42
8128 1611 1404 26
8129 1611 78 14
8130 1611 421 28
8131 1611 1557 94
8132 1611 496 23
8133 1612 467 47
8134 1612 1795 80
8135 1612 1351 28
8136 1613 1620 54
8137 1613 1039 61
8138 1613 1476 94
8139 1613 1402 68
8140 1613 888 13
8141 1614 207 31
8142 1614 703 55
8143 1614 1816 58
8144 1614 1998 41
8145 1614 1320 6
8146 1614 1447 3
8147 1614 1266 80
8148 1615 902 35
8149 1615 1769 20
8150 1615 1762 90
8151 1616 815 83
8152 1616 14 14
8153 1616 497 37
8154 1616 1627 99
8155 1616 627 12
8156 1616 1640 5
8157 1616 1864 100
8158 1617 1614 46
8159 1617 1574 23
8160 1617 1784 59
8161 1617 1645 50
8162 1617 1103 79
8163 1617 304 68
8164 1617 880 16
8165 1617 393 90
8166 1618 990 76
8167 1618 766 68
8168 1619 808 61
8169 1619 604 72
8170 1619 1983 8
8171 1619 44 78
8172 1619 501 94
8173 1620 286 17
8174 1620 1878 97
8175 1620 64 62
8176 1620 1997 1
8177 1620 1735 35
8178 1620 1312 47
8179 1620 292 17
8180 1620 1188 31
8181 1621 175 66
8182 1621 849 68
8183 1621 14 72
8184 1621 217 99
8185 1622 1393 45
8186 1622 284 52
8187 1622 76 21
8188 1622 618 18
8189 1622 1582 43
8190 1622 298 72
8191 1622 609 100
8192 1622 1979 55
8193 1622 1986 54
8194 1622 710 8
8195 1623 987 42
8196 1623 988 99
8197 1623 1107 75
8198 1623 1923 65
8199 1624 1569 54
8200 1624 1098 97
8201 1625 740 58
8202 1625 1955 69
8203 1625 286 57
8204 1625 199 36
8205 1625 987 39
8206 1625 1303 22
8207 1625 1871 18
8208 1626 515 64
8209 1626 1870 91
8210 1626 1214 44
8211 1627 694 66
8212 1627 1802 44
8213 1627 39 95
8214 1627 1193 86
8215 1627 424 36
8216 1628 812 70
8217 1628 837 81
8218 1628 1775 44
8219 1628 1837 94
8220 1629 1094 76
8221 1629 724 55
8222 1629 157 47
8223 1629 573 41
8224 1629 44 92
8225 1630 1507 79
8226 1630 881 37
8227 1630 128 23
8228 1630 967 65
8229 1630 1580 17
8230 1630 782 39
8231 1631 1635 79
8232 1631 14 16
8233 1631 335 11
8234 1631 219 89
8235 1631 305 55
8236 1631 1608 43
8237 1632 1063 4
8238 1632 1076 18
8239 1632 341 1
8240 1632 1282 6
8241 1632 1710 6
8242 1633 596 20
8243 1633 829 40
8244 1633 1739 48
8245 1633 1391 82
8246 1633 1600 30
8247 1634 504 76
8248 1634 599 83
8249 1634 1187 30
8250 1634 462 10
8251 1636 490 31
8252 1636 1732 17
8253 1636 1260 83
8254 1636 1926 15
8255 1636 936 42
8256 1637 753 41
8257 1637 1785 9
8258 1637 1161 27
8259 1637 1260 1
8260 1637 1080 42
8261 1637 577 44
8262 1637 1988 62
8263 1637 603 5
8264 1638 1660 67
8265 1638 863 27
8266 1638 646 82
8267 1638 1863 82
8268 1638 414 55
8269 1638 616 72
8270 1638 1279 95
8271 1638 1396 24
8272 1639 1764 88
8273 1639 609 13
8274 1639 1170 37
8275 1640 1238 39
8276 1640 1535 37
8277 1640 804 67
8278 1640 1308 68
8279 1640 1087 79
8280 1641 1386 50
8281 1641 1407 50
8282 1641 1908 76
8283 1641 137 80
8284 1642 721 92
8285 1642 1113 63
8286 1642 1933 19
8287 1642 30 64
8288 1643 1729 89
8289 1643 1658 29
8290 1643 987 55
8291 1643 233 58
8292 1643 905 82
8293 1644 1041 57
8294 1644 1051 93
8295 1644 1980 38
8296 1645 906 83
8297 1645 760 53
8298 1646 1961 20
8299 1646 970 96
8300 1646 1765 1
8301 1646 614 17
8302 1646 1507 47
8303 1647 235 66
8304 1647 1141 95
8305 1647 299 91
8306 1647 1559 22
8307 1647 1056 48
8308 1647 415 37
8309 1647 1018 27
8310 1647 1532 9
8311 1647 1184 68
8312 1648 1931 28
8313 1648 273 23
8314 1648 1822 91
8315 1649 1755 70
8316 1649 1826 14
8317 1649 993 95
8318 1650 326 18
8319 1650 19 25
8320 1650 1305 9
8321 1650 851 17
8322 1650 1490 26
8323 1650 1532 78
8324 1650 66 19
8325 1651 1511 83
8326 1651 267 1
8327 1651 1887 81
8328 1651 205 40
8329 1652 88 80
8330 1652 631 12
8331 1652 879 8
8332 1652 1339 49
8333 1652 1092 95
8334 1653 833 2
8335 1653 878 12
8336 1653 1402 67
8337 1653 1506 32
8338 1653 1761 54
8339 1653 223 34
8340 1654 1764 63
8341 1654 318 21
8342 1654 1901 27
8343 1654 368 92
8344 1654 359 71
8345 1654 542 60
8346 1654 51 45
8347 1655 394 4
8348 1655 1144 69
8349 1655 26 22
8350 1655 1470 99
8351 1655 477 61
8352 1655 1790 52
8353 1655 740 67
8354 1655 1878 91
8355 1656 113 12
8356 1656 679 86
8357 1656 966 59
8358 1656 1510 23
8359 1656 1015 24
8360 1656 660 45
8361 1657 1780 62
8362 1657 263 60
8363 1657 1760 42
8364 1657 1519 34
8365 1657 1554 96
8366 1658 527 47
8367 1658 0 72
8368 1658 1634 81
8369 1658 383 35
8370 1659 1396 62
8371 1659 1455 18
8372 1659 1805 49
8373 1659 1349 20
8374 1659 460 74
8375 1659 1580 5
8376 1660 1841 42
8377 1660 1510 19
8378 1660 1594 80
8379 1660 754 12
8380 1660 1857 66
8381 1661 276 100
8382 1661 615 86
8383 1661 1711 95
8384 1661 1566 59
8385 1662 266 49
8386 1662 126 85
8387 1662 920 71
8388 1662 551 31
8389 1663 755 94
8390 1663 777 14
8391 1664 153 51
8392 1664 1643 7
8393 1664 542 71
8394 1664 518 24
8395 1664 770 92
8396 1664 659 57
8397 1665 1624 16
8398 1665 1121 83
8399 1665 740 61
8400 1665 655 23
8401 1666 1557 9
8402 1666 1421 59
8403 1667 847 88
8404 1668 359 28
8405 1668 242 26
8406 1668 814 57
8407 1668 137 92
8408 1669 1112 94
8409 1669 786 28
8410 1669 701 73
8411 1669 570 84
8412 1669 1350 75
8413 1670 34 24
8414 1670 1876 4
8415 1670 1686 42
8416 1670 1573 24
8417 1670 1766 23
8418 1670 334 20
8419 1671 1256 74
8420 1671 1931 73
8421 1671 21 79
8422 1671 1849 28
8423 1671 1613 95
8424 1672 408 53
8425 1672 6 22
8426 1672 1609 13
8427 1672 1776 94
8428 1672 1418 55
8429 1673 1135 42
8430 1673 481 85
8431 1673 1777 75
8432 1673 242 10
8433 1673 781 82
8434 1673 889 39
8435 1674 1625 31
8436 1674 405 71
8437 1674 1462 71
8438 1674 1098 19
8439 1674 807 31
8440 1674 587 22
8441 1675 478 42
8442 1675 1597 84
8443 1675 244 47
8444 1675 1331 90
8445 1675 693 32
8446 1675 952 74
8447 1676 1949 70
8448 1676 1273 27
8449 1676 706 41
8450 1676 1070 72
8451 1676 1618 40
8452 1676 788 35
8453 1676 1524 54
8454 1677 335 16
8455 1677 282 63
8456 1677 1514 93
8457 1677 1710 83
8458 1677 1777 60
8459 1677 35 95
8460 1678 1184 96
8461 1678 1953 64
8462 1678 131 29
8463 1679 807 21
8464 1679 589 51
8465 1679 138 38
8466 1679 776 32
8467 1679 921 3
8468 1679 205 74
8469 1679 481 43
8470 1680 1628 34
8471 1680 1335 33
8472 1680 1571 74
8473 1680 735 100
8474 1680 1047 64
8475 1681 115 79
8476 1682 551 92
8477 1682 1394 93
8478 1682 1451 15
8479 1682 580 24
8480 1682 1644 58
8481 1682 1831 78
8482 1682 315 75
8483 1682 683 57
8484 1682 1652 1
8485 1682 471 24
8486 1682 1254 74
8487 1682 1926 23
8488 1683 133 57
8489 1683 1577 9
8490 1683 1931 21
8491 1683 1921 8
8492 1683 1187 43
8493 1684 1307 32
8494 1684 369 86
8495 1684 1549 77
8496 1684 558 60
8497 1684 709 98
8498 1685 1596 68
8499 1685 1594 64
8500 1686 751 93
8501 1686 820 15
8502 1686 950 28
8503 1686 1263 63
8504 1686 587 91
8505 1686 1658 42
8506 1686 1923 18
8507 1687 950 75
8508 1687 931 72
8509 1687 1355 67
8510 1687 833 32
8511 1687 93 17
8512 1687 579 20
8513 1687 728 4
8514 1688 1277 87
8515 1688 328 97
8516 1688 817 13
8517 1689 433 18
8518 1690 1276 47
8519 1690 425 51
8520 1690 1091 94
8521 1690 1508 93
8522 1691 1497 7
8523 1691 657 71
8524 1691 1486 25
8525 1691 1841 23
8526 1691 1829 5
8527 1692 291 6
8528 1692 1443 34
8529 1692 1602 98
8530 1692 618 71
8531 1692 1411 63
8532 1693 875 78
8533 1693 1797 88
8534 1693 670 60
8535 1694 2 67
8536 1694 585 65
8537 1694 635 65
8538 1694 1231 73
8539 1694 779 57
8540 1694 970 45
8541 1695 1760 88
8542 1695 1439 27
8543 1695 1467 89
8544 1696 1043 95
8545 1696 774 93
8546 1696 25 91
8547 1696 843 48
8548 1696 105 86
8549 1696 514 66
8550 1696 1858 46
8551 1697 1597 24
8552 1697 981 31
8553 1698 1287 82
8554 1698 1420 69
8555 1698 390 51
8556 1698 251 8
8557 1698 1271 97
8558 1698 1684 99
8559 1699 1348 6
8560 1699 1338 26
8561 1699 1297 3
8562 1699 1145 36
8563 1699 1323 39
8564 1699 874 31
8565 1699 1643 50
8566 1699 826 83
8567 1700 1595 11
8568 1700 841 74
8569 1700 139 74
8570 1700 1866 42
8571 1700 286 15
8572 1700 1360 59
8573 1700 1319 9
8574 1700 110 45
8575 1701 1857 21
8576 1701 1840 27
8577 1701 1329 94
8578 1702 284 74
8579 1702 254 12
8580 1702 1418 3
8581 1702 1226 100
8582 1702 1387 20
8583 1702 1628 83
8584 1702 1666 74
8585 1703 1652 22
8586 1703 174 100
8587 1703 587 94
8588 1703 385 76
8589 1704 315 96
8590 1704 359 45
8591 1704 1196 85
8592 1704 752 4
8593 1704 1585 12
8594 1704 1671 39
8595 1704 111 26
8596 1704 1378 62
8597 1704 1755 36
8598 1705 1851 84
8599 1705 411 95
8600 1706 1087 66
8601 1706 1927 25
8602 1707 1112 8
8603 1707 1002 79
8604 1707 692 26
8605 1707 802 1
8606 1707 894 74
8607 1708 747 54
8608 1708 1218 61
8609 1708 1303 11
8610 1708 726 27
8611 1709 167 88
8612 1709 988 76
8613 1709 1739 64
8614 1709 1330 12
8615 1709 517 78
8616 1709 511 15
8617 1709 1198 19
8618 1709 726 51
8619 1709 575 7
8620 1709 344 82
8621 1709 1657 20
8622 1710 1175 94
8623 1710 1920 20
8624 1710 1818 15
8625 1710 1747 27
8626 1711 1754 21
8627 1712 30 16
8628 1712 1762 88
8629 1712 1266 90
8630 1712 795 59
8631 1712 1413 53
8632 1712 69 60
8633 1713 1853 97
8634 1713 941 85
8635 1713 996 18
8636 1714 703 7
8637 1714 118 15
8638 1714 1197 78
8639 1714 212 99
8640 1714 1132 96
8641 1715 1202 87
8642 1715 360 12
8643 1715 1376 15
8644 1715 1015 15
8645 1716 1235 49
8646 1716 869 52
8647 1717 1198 14
8648 1717 36 17
8649 1718 1164 24
8650 1718 1692 6
8651 1718 1289 16
8652 1718 1450 80
8653 1718 111 93
8654 1718 1321 5
8655 1719 1420 58
8656 1719 766 18
8657 1719 1801 93
8658 1719 1483 44
8659 1719 1392 85
8660 1719 273 96
8661 1720 909 68
8662 1720 736 98
8663 1721 792 57
8664 1721 1346 32
8665 1721 63 26
8666 1721 1045 80
8667 1721 512 96
8668 1721 396 94
8669 1721 1672 28
8670 1721 60 5
8671 1722 451 38
8672 1722 909 74
8673 1722 1643 25
8674 1722 681 56
8675 1723 1308 49
8676 1723 1093 44
8677 1723 574 27
8678 1723 512 69
8679 1723 330 2
8680 1723 158 85
8681 1723 1736 23
8682 1724 1123 59
8683 1725 1291 84
8684 1725 339 86
8685 1725 287 39
8686 1725 1464 100
8687 1725 1294 67
8688 1725 1027 14
8689 1725 1457 20
8690 1726 1573 98
8691 1726 1339 37
8692 1726 1436 23
8693 1726 804 13
8694 1726 1690 12
8695 1727 1384 37
8696 1727 1537 3
8697 1727 1127 72
8698 1727 1893 88
8699 1728 236 51
8700 1728 1490 81
8701 1728 827 68
8702 1728 1184 18
8703 1729 326 44
8704 1729 331 2
8705 1729 740 74
8706 1729 1139 86
8707 1730 901 42
8708 1730 1148 18
8709 1730 761 20
8710 1730 1402 77
8711 1730 1350 37
8712 1730 804 49
8713 1730 1756 17
8714 1731 618 3
8715 1731 1139 76
8716 1731 888 25
8717 1731 355 90
8718 1731 348 47
8719 1731 184 45
8720 1732 104 93
8721 1732 1056 49
8722 1732 1089 9
8723 1732 1857 95
8724 1732 1817 95
8725 1733 488 84
8726 1733 1633 1
8727 1733 1302 28
8728 1733 687 92
8729 1734 152 86
8730 1734 1500 73
8731 1734 1348 77
8732 1734 1216 45
8733 1734 794 17
8734 1734 1535 100
8735 1735 704 89
8736 1735 822 75
8737 1735 1698 64
8738 1735 865 3
8739 1735 1135 100
8740 1736 255 13
8741 1736 165 30
8742 1736 1629 59
8743 1736 987 16
8744 1736 424 19
8745 1736 1388 36
8746 1736 1446 25
8747 1737 1506 55
8748 1738 484 46
8749 1738 1511 71
8750 1738 1857 42
8751 1738 1312 70
8752 1739 702 47
8753 1739 1641 50
8754 1739 1775 40
8755 1739 723 98
8756 1740 781 17
8757 1740 358 28
8758 1740 824 4
8759 1741 1401 34
8760 1741 1918 10
8761 1741 129 96
8762 1741 1345 100
8763 1741 1097 20
8764 1742 1032 4
8765 1742 1578 19
8766 1742 979 62
8767 1742 35 7
8768 1743 255 55
8769 1743 322 16
8770 1743 1073 47
8771 1743 241 79
8772 1743 1538 21
8773 1743 1605 62
8774 1743 1449 30
8775 1743 1040 72
8776 1744 1344 64
8777 1744 283 36
8778 1744 953 8
8779 1744 861 22
8780 1745 993 77
8781 1745 111 80
8782 1745 793 8
8783 1745 426 57
8784 1745 836 93
8785 1745 943 93
8786 1745 451 11
8787 1745 316 56
8788 1746 1087 55
8789 1746 1340 76
8790 1746 151 3
8791 1746 175 53
8792 1746 1448 30
8793 1747 1826 17
8794 1747 989 17
8795 1747 1413 37
8796 1747 641 68
8797 1747 19 84
8798 1747 282 14
8799 1748 66 44
8800 1748 875 41
8801 1748 149 34
8802 1749 849 21
8803 1749 308 88
8804 1749 320 81
8805 1749 170 83
8806 1750 926 1
8807 1750 1097 29
8808 1750 64 90
8809 1750 1248 91
8810 1751 476 37
8811 1751 1769 5
8812 1751 1021 32
8813 1751 470 8
8814 1751 1025 16
8815 1751 876 3
8816 1752 644 79
8817 1752 466 47
8818 1753 1127 52
8819 1753 1588 64
8820 1753 1308 73
8821 1753 423 99
8822 1753 894 82
8823 1753 1178 58
8824 1753 1705 48
8825 1753 961 55
8826 1753 1179 40
8827 1754 1803 80
8828 1754 745 9
8829 1754 1421 48
8830 1755 453 57
8831 1755 595 76
8832 1755 1108 87
8833 1755 1068 100
8834 1755 203 45
8835 1755 1771 48
8836 1756 329 37
8837 1756 1449 55
8838 1756 72 23
8839 1756 526 32
8840 1757 1994 33
8841 1757 558 62
8842 1757 1168 14
8843 1757 1940 18
8844 1757 1541 33
8845 1758 296 60
8846 1758 1692 56
8847 1758 1162 1
8848 1758 641 15
8849 1758 1611 6
8850 1759 171 72
8851 1759 1537 8
8852 1759 54 99
8853 1759 1028 16
8854 1759 1347 66
8855 1760 676 16
8856 1760 1333 5
8857 1760 1862 27
8858 1760 562 4
8859 1760 920 95
8860 1760 1081 53
8861 1761 933 71
8862 1762 1577 30
8863 1762 707 13
8864 1762 1782 58
8865 1762 1405 52
8866 1762 1284 36
8867 1762 1596 98
8868 1762 901 12
8869 1763 1834 63
8870 1763 1030 21
8871 1764 740 55
8872 1764 1471 67
8873 1764 567 6
8874 1764 1408 70
8875 1765 1599 2
8876 1765 1672 67
8877 1765 531 13
8878 1765 67 94
8879 1765 1665 86
8880 1765 1912 47
8881 1765 1628 58
8882 1765 1226 14
8883 1765 266 19
8884 1765 303 76
8885 1766 1465 4
8886 1766 1401 93
8887 1766 282 14
8888 1766 1558 44
8889 1766 382 91
8890 1767 25 8
8891 1767 1922 60
8892 1767 1207 11
8893 1767 480 26
8894 1768 1365 66
8895 1768 865 6
8896 1769 1988 53
8897 1769 1751 58
8898 1769 58 14
8899 1769 453 32
8900 1769 975 7
8901 1769 539 60
8902 1770 1602 92
8903 1770 1227 30
8904 1770 104 43
8905 1770 147 11
8906 1771 1404 7
8907 1771 1403 37
8908 1771 1099 47
8909 1772 1847 68
8910 1772 240 36
8911 1772 816 63
8912 1772 422 39
8913 1772 1589 26
8914 1772 577 52
8915 1773 578 23
8916 1773 339 15
8917 1773 1648 91
8918 1773 875 26
8919 1774 206 4
8920 1774 1299 3
8921 1774 164 73
8922 1774 1490 56
8923 1775 945 24
8924 1775 1349 45
8925 1775 1917 69
8926 1775 1263 68
8927 1775 800 87
8928 1775 211 46
8929 1776 765 58
8930 1776 1394 55
8931 1776 986 91
8932 1776 1984 55
8933 1777 1875 77
8934 1777 1417 33
8935 1777 246 64
8936 1777 1593 4
8937 1777 46 27
8938 1777 107 16
8939 1777 1270 72
8940 1778 1541 1
8941 1778 113 43
8942 1778 662 26
8943 1778 1388 86
8944 1778 1303 100
8945 1779 1585 26
8946 1779 466 78
8947 1779 1599 52
8948 1779 562 21
8949 1779 1704 57
8950 1779 296 33
8951 1779 1347 56
8952 1779 1744 51
8953 1779 1013 56
8954 1780 1111 20
8955 1780 1878 11
8956 1781 477 46
8957 1781 293 75
8958 1781 1866 9
8959 1781 1577 68
8960 1781 409 31
8961 1781 973 18
8962 1781 1065 90
8963 1781 1182 61
8964 1782 693 3
8965 1782 635 5
8966 1782 971 8
8967 1782 890 35
8968 1782 203 52
8969 1782 91 54
8970 1782 1430 55
8971 1783 1340 13
8972 1783 1107 40
8973 1784 466 43
8974 1784 1964 81
8975 1784 662 76
8976 1784 859 4
8977 1785 201 97
8978 1785 1642 9
8979 1785 1993 15
8980 1785 1379 7
8981 1785 458 58
8982 1786 1409 76
8983 1786 99 63
8984 1786 1784 86
8985 1787 25 60
8986 1787 505 16
8987 1787 258 33
8988 1787 781 5
8989 1787 496 3
8990 1788 1612 96
8991 1788 25 84
8992 1788 64 34
8993 1788 676 75
8994 1788 1619 31
8995 1788 1474 70
8996 1789 1055 99
8997 1789 145 71
8998 1790 1890 9
8999 1790 760 92
9000 1790 1910 73
9001 1790 1098 97
9002 1790 1440 90
9003 1790 946 91
9004 1791 832 81
9005 1791 418 90
9006 1792 1484 35
9007 1793 617 74
9008 1793 1442 1
9009 1793 660 41
9010 1794 1470 32
9011 1794 1989 86
9012 1794 1569 91
9013 1794 1101 9
9014 1794 772 41
9015 1794 1893 23
9016 1794 1171 6
9017 1794 219 33
9018 1794 1079 79
9019 1795 76 78
9020 1795 561 65
9021 1795 1143 5
9022 1795 1113 76
9023 1795 1881 39
9024 1795 539 83
9025 1796 755 77
9026 1796 952 64
9027 1796 19 51
9028 1796 1155 78
9029 1796 648 68
9030 1796 673 64
9031 1796 1793 82
9032 1796 1321 29
9033 1796 1283 83
9034 1797 982 9
9035 1797 600 26
9036 1798 1161 60
9037 1798 127 76
9038 1799 1501 57
9039 1799 1473 88
9040 1799 969 16
9041 1799 792 54
9042 1800 500 49
9043 1800 631 78
9044 1800 1164 72
9045 1801 776 96
9046 1801 997 38
9047 1801 1663 14
9048 1801 1416 53
9049 1802 565 49
9050 1802 1717 13
9051 1802 1171 20
9052 1802 1935 28
9053 1802 247 63
9054 1803 1430 37
9055 1803 1798 7
9056 1803 687 63
9057 1804 140 62
9058 1804 612 74
9059 1804 534 35
9060 1804 1071 32
9061 1805 775 30
9062 1805 482 23
9063 1805 818 98
9064 1806 1156 42
9065 1806 1331 56
9066 1806 284 24
9067 1806 1148 27
9068 1806 197 95
9069 1806 1564 89
9070 1807 1127 66
9071 1807 659 86
9072 1807 1010 76
9073 1807 665 77
9074 1807 1892 38
9075 1807 1286 75
9076 1808 404 73
9077 1808 213 15
9078 1809 1329 79
9079 1809 1248 58
9080 1809 1782 2
9081 1810 1931 9
9082 1810 1408 92
9083 1810 1124 34
9084 1811 1168 22
9085 1812 1099 56
9086 1812 227 85
9087 1812 79 18
9088 1812 363 4
9089 1813 218 28
9090 1813 849 60
9091 1813 781 7
9092 1813 184 66
9093 1813 794 59
9094 1813 1782 70
9095 1814 1289 22
9096 1814 1001 14
9097 1815 241 12
9098 1815 1532 53
9099 1815 1283 8
9100 1815 604 21
9101 1815 1713 85
9102 1816 1237 86
9103 1816 217 85
9104 1817 1555 4
9105 1817 1160 81
9106 1817 842 85
9107 1817 106 81
9108 1817 673 34
9109 1817 1662 13
9110 1817 1186 70
9111 1817 1129 11
9112 1818 1440 31
9113 1818 768 48
9114 1818 1406 88
9115 1818 105 90
9116 1818 909 97
9117 1818 1090 79
9118 1818 1741 74
9119 1819 266 66
9120 1819 1654 77
9121 1820 1284 65
9122 1820 32 100
9123 1820 24 75
9124 1820 580 58
9125 1820 772 19
9126 1821 1110 15
9127 1821 1902 11
9128 1821 1800 57
9129 1821 398 3
9130 1821 160 94
9131 1821 69 69
9132 1822 1704 65
9133 1822 1249 81
9134 1822 907 76
9135 1822 1736 38
9136 1822 642 85
9137 1823 1166 66
9138 1823 618 4
9139 1823 1668 10
9140 1823 892 70
9141 1823 328 52
9142 1823 1631 34
9143 1823 702 39
9144 1823 1479 69
9145 1823 500 18
9146 1824 1172 21
9147 1825 906 98
9148 1825 1697 16
9149 1825 614 58
9150 1825 1581 46
9151 1825 1796 67
9152 1825 1060 66
9153 1826 267 95
9154 1826 1810 30
9155 1826 227 74
9156 1827 1116 57
9157 1827 1334 65
9158 1827 429 48
9159 1827 1145 57
9160 1827 909 2
9161 1827 786 70
9162 1828 1537 23
9163 1828 589 8
9164 1828 337 4
9165 1828 1327 34
9166 1828 663 70
9167 1828 1382 6
9168 1828 535 54
9169 1829 1055 61
9170 1829 988 41
9171 1829 1739 61
9172 1829 1414 86
9173 1829 1345 12
9174 1830 1615 24
9175 1830 1711 25
9176 1831 141 49
9177 1831 1397 73
9178 1831 529 11
9179 1831 1031 39
9180 1831 1920 77
9181 1831 624 52
9182 1831 943 12
9183 1833 1663 98
9184 1833 481 83
9185 1833 1426 86
9186 1833 178 11
9187 1834 808 21
9188 1834 686 66
9189 1834 88 64
9190 1835 218 87
9191 1835 848 76
9192 1835 309 35
9193 1835 913 22
9194 1836 1107 77
9195 1836 205 86
9196 1836 1920 55
9197 1836 1019 72
9198 1836 171 65
9199 1836 744 20
9200 1836 38 60
9201 1836 254 93
9202 1836 98 97
9203 1836 1518 51
9204 1836 939 75
9205 1837 325 86
9206 1837 830 62
9207 1837 1731 86
9208 1837 762 82
9209 1837 1176 7
9210 1837 804 35
9211 1837 296 6
9212 1837 1335 76
9213 1838 1195 46
9214 1838 776 30
9215 1838 547 92
9216 1838 366 16
9217 1838 1373 34
9218 1838 454 12
9219 1838 1295 75
9220 1839 1334 55
9221 1839 1711 15
9222 1839 1804 46
9223 1839 10 55
9224 1839 939 6
9225 1839 1252 64
9226 1840 1647 71
9227 1840 1460 83
9228 1840 1485 32
9229 1840 80 23
9230 1840 444 63
9231 1841 165 37
9232 1841 1112 87
9233 1841 1868 89
9234 1842 116 71
9235 1842 598 72
9236 1842 247 29
9237 1842 932 43
9238 1842 1803 93
9239 1842 1144 49
9240 1843 396 46
9241 1843 82 14
9242 1843 691 100
9243 1843 1158 59
9244 1844 1220 75
9245 1844 1119 85
9246 1844 1058 86
9247 1844 841 83
9248 1845 1965 51
9249 1845 1145 24
9250 1845 164 38
9251 1846 1003 82
9252 1846 862 6
9253 1846 19 78
9254 1846 230 54
9255 1846 877 90
9256 1847 1239 82
9257 1847 107 37
9258 1847 444 79
9259 1847 1785 49
9260 1847 1727 50
9261 1848 356 70
9262 1848 339 32
9263 1848 1748 93
9264 1848 645 34
9265 1848 1176 79
9266 1848 785 55
9267 1848 1628 4
9268 1848 1446 35
9269 1849 586 58
9270 1849 1663 66
9271 1850 1486 40
9272 1850 1367 20
9273 1850 365 9
9274 1851 1710 57
9275 1851 646 2
9276 1851 200 20
9277 1852 1315 72
9278 1852 801 44
9279 1852 1441 14
9280 1852 1173 50
9281 1852 1603 19
9282 1852 1249 21
9283 1853 1576 46
9284 1853 497 75
9285 1853 1240 98
9286 1854 64 32
9287 1854 1859 81
9288 1854 1051 53
9289 1854 75 36
9290 1855 162 70
9291 1855 1358 70
9292 1856 1926 17
9293 1856 937 1
9294 1856 75 65
9295 1856 1879 74
9296 1856 1408 100
9297 1857 806 29
9298 1857 773 35
9299 1857 681 69
9300 1857 857 52
9301 1857 226 69
9302 1857 1457 90
9303 1857 1888 65
9304 1857 182 30
9305 1857 1641 79
9306 1857 619 6
9307 1857 726 56
9308 1858 195 18
9309 1858 31 34
9310 1859 1620 51
9311 1859 1680 62
9312 1860 906 20
9313 1860 544 97
9314 1860 383 68
9315 1860 1365 57
9316 1860 518 78
9317 1860 1043 74
9318 1860 1242 9
9319 1861 1658 55
9320 1861 31 3
9321 1861 711 80
9322 1861 1998 9
9323 1861 1402 12
9324 1861 1010 39
9325 1861 488 10
9326 1861 849 28
9327 1862 604 15
9328 1862 1435 76
9329 1862 270 97
9330 1862 704 93
9331 1862 683 32
9332 1862 849 46
9333 1863 1239 85
9334 1863 841 97
9335 1863 1246 77
9336 1864 935 82
9337 1864 1241 21
9338 1864 1409 27
9339 1864 1390 92
9340 1865 1489 53
9341 1865 721 14
9342 1865 1702 30
9343 1866 270 28
9344 1866 1209 61
9345 1866 1058 93
9346 1866 1136 53
9347 1866 1972 1
9348 1866 715 44
9349 1867 1198 24
9350 1868 1091 32
9351 1868 686 6
9352 1868 534 33
9353 1868 1737 42
9354 1868 1810 72
9355 1868 1144 66
9356 1869 232 13
9357 1869 1351 52
9358 1869 744 43
9359 1869 904 100
9360 1869 1567 90
9361 1869 1716 3
9362 1870 1661 22
9363 1870 189 47
9364 1870 1539 36
9365 1871 1688 97
9366 1871 1462 39
9367 1871 1211 64
9368 1871 1174 19
9369 1871 1814 34
9370 1871 1390 16
9371 1872 1316 79
9372 1872 1653 13
9373 1872 1977 55
9374 1872 1762 41
9375 1872 559 84
9376 1872 266 5
9377 1873 1193 25
9378 1873 243 90
9379 1874 1249 38
9380 1874 490 36
9381 1874 666 4
9382 1874 1758 73
9383 1875 1630 54
9384 1875 898 52
9385 1876 1818 9
9386 1876 156 61
9387 1876 1022 97
9388 1877 716 95
9389 1877 68 62
9390 1877 787 96
9391 1877 532 9
9392 1878 1737 99
9393 1878 1699 67
9394 1878 1615 17
9395 1878 92 90
9396 1878 511 34
9397 1879 579 77
9398 1879 445 69
9399 1879 1088 74
9400 1880 942 97
9401 1880 197 70
9402 1880 738 81
9403 1880 1662 6
9404 1880 1335 70
9405 1880 1266 70
9406 1880 1784 94
9407 1880 838 1
9408 1880 860 52
9409 1880 165 60
9410 1881 1 71
9411 1881 1258 19
9412 1881 121 13
9413 1881 1931 35
9414 1881 934 11
9415 1882 1321 57
9416 1883 1102 35
9417 1883 843 53
9418 1883 1430 67
9419 1883 173 14
9420 1884 1781 29
9421 1884 179 42
9422 1884 1901 80
9423 1884 618 24
9424 1885 550 51
9425 1885 51 81
9426 1885 1032 49
9427 1885 300 34
9428 1885 1686 70
9429 1886 474 55
9430 1886 1656 79
9431 1886 1864 85
9432 1886 1377 69
9433 1886 1865 80
9434 1886 1619 32
9435 1887 358 90
9436 1887 1949 75
9437 1887 614 51
9438 1887 254 90
9439 1887 1800 80
9440 1888 1084 71
9441 1888 1377 57
9442 1888 284 40
9443 1888 1741 65
9444 1888 395 49
9445 1889 1086 73
9446 1889 368 40
9447 1890 971 89
9448 1890 1833 12
9449 1890 1143 42
9450 1890 1346 44
9451 1890 399 76
9452 1890 1893 34
9453 1891 990 41
9454 1891 1485 85
9455 1891 1667 7
9456 1891 1519 15
9457 1891 806 16
9458 1891 356 79
9459 1892 541 18
9460 1892 1154 93
9461 1892 1175 77
9462 1892 1179 87
9463 1892 329 24
9464 1892 438 8
9465 1892 287 88
9466 1892 1551 100
9467 1893 680 62
9468 1894 216 47
9469 1894 147 32
9470 1894 1100 90
9471 1894 1827 49
9472 1894 284 89
9473 1894 1855 6
9474 1895 1904 45
9475 1895 1651 15
9476 1895 574 10
9477 1895 1494 61
9478 1895 851 11
9479 1895 252 55
9480 1895 202 88
9481 1896 592 94
9482 1896 1229 8
9483 1896 1170 30
9484 1896 182 77
9485 1896 880 69
9486 1896 249 97
9487 1897 1543 99
9488 1897 1605 72
9489 1897 1296 51
9490 1897 302 27
9491 1897 1118 54
9492 1897 466 41
9493 1897 868 32
9494 1898 265 53
9495 1898 1632 91
9496 1898 1013 83
9497 1898 1220 17
9498 1898 1127 13
9499 1898 1286 66
9500 1899 1434 75
9501 1899 1211 34
9502 1899 1879 42
9503 1900 1029 48
9504 1900 1520 77
9505 1900 1248 8
9506 1901 410 49
9507 1901 1619 63
9508 1901 1506 1
9509 1902 1104 7
9510 1902 1347 4
9511 1902 1741 77
9512 1902 1948 84
9513 1902 668 84
9514 1903 1756 74
9515 1903 1009 39
9516 1903 165 18
9517 1904 827 39
9518 1904 1532 68
9519 1905 1745 75
9520 1905 1863 33
9521 1905 1886 23
9522 1905 871 7
9523 1906 354 38
9524 1906 1646 49
9525 1906 1985 49
9526 1906 480 88
9527 1906 975 36
9528 1907 1255 95
9529 1907 1966 72
9530 1907 1813 79
9531 1907 1928 56
9532 1907 1869 56
9533 1907 321 64
9534 1907 113 53
9535 1908 418 7
9536 1908 995 42
9537 1908 1179 56
9538 1909 1280 34
9539 1909 1124 21
9540 1909 90 2
9541 1909 1496 40
9542 1909 842 41
9543 1909 1388 55
9544 1910 1630 47
9545 1910 1151 63
9546 1910 77 97
9547 1910 543 57
9548 1910 304 44
9549 1910 726 69
9550 1911 714 4
9551 1911 635 74
9552 1911 984 58
9553 1911 721 40
9554 1911 1887 99
9555 1911 1167 41
9556 1911 1964 29
9557 1912 405 25
9558 1912 1883 65
9559 1912 966 78
9560 1912 1631 4
9561 1912 302 55
9562 1913 1628 17
9563 1913 321 32
9564 1913 1409 48
9565 1914 534 34
9566 1914 177 52
9567 1914 1452 49
9568 1914 557 17
9569 1914 735 82
9570 1914 1453 24
9571 1914 89 99
9572 1914 294 54
9573 1915 1807 44
9574 1915 1718 90
9575 1915 886 38
9576 1915 866 7
9577 1915 684 14
9578 1915 1725 51
9579 1915 459 81
9580 1916 508 43
9581 1916 1571 78
9582 1917 1809 78
9583 1917 1089 45
9584 1918 1533 30
9585 1918 1016 7
9586 1918 890 2
9587 1918 13 89
9588 1918 1878 87
9589 1919 1125 55
9590 1919 1306 21
9591 1919 385 24
9592 1919 53 16
9593 1920 1831 23
9594 1920 874 20
9595 1920 1095 38
9596 1921 1823 24
9597 1922 1798 98
9598 1922 274 58
9599 1922 1323 55
9600 1922 661 62
9601 1922 876 89
9602 1922 1284 85
9603 1922 162 61
9604 1923 56 40
9605 1923 1948 52
9606 1923 1373 18
9607 1923 635 98
9608 1923 1598 41
9609 1924 1863 79
9610 1924 205 9
9611 1924 147 50
9612 1924 1107 4
9613 1924 1578 14
9614 1924 253 11
9615 1924 767 23
9616 1924 440 36
9617 1925 776 91
9618 1925 760 13
9619 1925 1489 12
9620 1925 808 48
9621 1925 1422 65
9622 1925 882 33
9623 1926 604 69
9624 1926 1495 67
9625 1926 1523 82
9626 1926 1808 50
9627 1926 1006 8
9628 1927 1764 1
9629 1927 768 98
9630 1927 1414 69
9631 1928 1839 2
9632 1928 1695 14
9633 1928 751 61
9634 1929 944 76
9635 1929 1809 67
9636 1930 23 51
9637 1930 557 62
9638 1930 275 92
9639 1930 1993 64
9640 1931 1161 72
9641 1931 1450 17
9642 1931 1331 26
9643 1931 1511 11
9644 1931 1493 23
9645 1932 1402 74
9646 1932 114 77
9647 1932 60 46
9648 1932 632 57
9649 1933 986 2
9650 1933 1271 35
9651 1933 1544 58
9652 1933 1351 18
9653 1934 442 92
9654 1934 1709 53
9655 1934 520 34
9656 1935 1808 22
9657 1935 820 82
9658 1935 707 55
9659 1935 1675 10
9660 1935 232 19
9661 1935 17 94
9662 1935 107 15
9663 1935 565 22
9664 1936 1259 7
9665 1936 432 27
9666 1936 1863 68
9667 1936 1063 33
9668 1936 1339 30
9669 1937 76 95
9670 1937 305 98
9671 1937 1254 62
9672 1937 896 44
9673 1937 830 30
9674 1937 1809 56
9675 1938 1864 45
9676 1938 1539 90
9677 1938 1444 76
9678 1938 819 94
9679 1939 161 50
9680 1939 1125 97
9681 1939 1513 69
9682 1939 174 7
9683 1939 175 60
9684 1939 239 71
9685 1939 1161 45
9686 1939 623 82
9687 1940 1562 22
9688 1940 1265 48
9689 1940 1569 34
9690 1940 1926 66
9691 1940 1423 23
9692 1940 1162 40
9693 1940 1064 17
9694 1940 1498 16
9695 1941 117 86
9696 1941 1857 72
9697 1941 196 89
9698 1941 47 97
9699 1941 1002 30
9700 1941 1793 65
9701 1941 1154 42
9702 1942 1313 33
9703 1942 1158 47
9704 1942 1428 97
9705 1942 800 35
9706 1942 868 7
9707 1942 981 5
9708 1942 1006 87
9709 1943 1736 55
9710 1943 759 33
9711 1943 810 40
9712 1943 342 84
9713 1943 1271 48
9714 1943 613 37
9715 1944 506 84
9716 1944 1521 60
9717 1944 1550 44
9718 1944 22 95
9719 1944 235 19
9720 1945 1546 26
9721 1945 327 10
9722 1945 309 15
9723 1946 698 18
9724 1946 874 25
9725 1946 254 20
9726 1946 1976 92
9727 1947 42 58
9728 1947 686 37
9729 1947 619 99
9730 1947 1432 69
9731 1948 1703 79
9732 1948 1582 98
9733 1948 299 95
9734 1949 828 94
9735 1949 1233 63
9736 1949 1745 88
9737 1949 1357 80
9738 1950 1757 94
9739 1950 1076 11
9740 1950 834 58
9741 1950 1668 57
9742 1950 876 100
9743 1950 104 51
9744 1950 1031 98
9745 1950 1477 27
9746 1951 63 32
9747 1951 710 86
9748 1951 1471 38
9749 1951 1553 83
9750 1951 233 83
9751 1952 1594 87
9752 1952 1711 96
9753 1952 1077 22
9754 1953 394 63
9755 1953 778 22
9756 1954 648 4
9757 1954 1621 25
9758 1954 1411 72
9759 1954 353 69
9760 1955 1583 49
9761 1955 899 88
9762 1955 236 22
9763 1955 773 10
9764 1956 729 61
9765 1956 833 46
9766 1956 1850 92
9767 1956 29 2
9768 1957 1358 84
9769 1957 1311 70
9770 1957 1159 8
9771 1957 577 9
9772 1958 791 78
9773 1958 1128 50
9774 1958 1032 32
9775 1958 1583 6
9776 1958 1729 33
9777 1959 527 43
9778 1959 157 92
9779 1960 1563 82
9780 1960 273 25
9781 1960 1632 5
9782 1960 1642 50
9783 1961 126 78
9784 1961 86 30
9785 1961 245 42
9786 1961 152 93
9787 1961 1929 70
9788 1961 1865 65
9789 1962 768 19
9790 1962 1677 35
9791 1962 876 80
9792 1962 364 30
9793 1962 1373 43
9794 1962 1047 30
9795 1963 81 40
9796 1963 1255 2
9797 1963 1325 5
9798 1963 697 90
9799 1963 815 82
9800 1963 227 95
9801 1964 831 14
9802 1964 1512 66
9803 1964 1205 9
9804 1965 813 92
9805 1965 853 51
9806 1965 1362 57
9807 1965 1889 61
9808 1965 1369 65
9809 1966 1298 37
9810 1966 59 66
9811 1966 1369 9
9812 1966 1209 55
9813 1967 1040 45
9814 1967 1063 23
9815 1967 1388 36
9816 1967 1634 33
9817 1967 696 33
9818 1967 804 86
9819 1968 122 47
9820 1968 1588 34
9821 1968 842 34
9822 1968 666 55
9823 1969 1380 7
9824 1969 424 69
9825 1969 175 27
9826 1969 1085 69
9827 1969 804 47
9828 1969 840 89
9829 1970 1786 9
9830 1970 934 61
9831 1970 1687 78
9832 1970 924 80
9833 1971 543 28
9834 1971 1536 58
9835 1971 1723 91
9836 1971 285 71
9837 1971 966 14
9838 1972 181 2
9839 1972 1670 83
9840 1972 687 88
9841 1973 860 84
9842 1973 1150 97
9843 1973 1223 93
9844 1973 993 86
9845 1973 1027 42
9846 1974 63 31
9847 1974 267 83
9848 1974 1651 77
9849 1974 577 16
9850 1974 1236 19
9851 1975 433 69
9852 1975 637 59
9853 1975 75 65
9854 1975 1856 66
9855 1975 815 85
9856 1975 1577 33
9857 1975 1638 69
9858 1975 1302 95
9859 1975 1624 50
9860 1975 345 80
9861 1976 1162 73
9862 1976 438 75
9863 1976 977 55
9864 1976 1708 76
9865 1976 1578 68
9866 1976 572 66
9867 1976 173 100
9868 1977 1208 20
9869 1977 1656 98
9870 1977 922 89
9871 1977 1524 77
9872 1977 560 8
9873 1978 665 40
9874 1978 331 41
9875 1978 1308 62
9876 1978 1130 75
9877 1978 772 90
9878 1978 932 18
9879 1978 1833 62
9880 1978 734 14
9881 1979 1727 36
9882 1979 937 58
9883 1979 33 88
9884 1979 771 18
9885 1979 593 33
9886 1980 1732 49
9887 1980 1541 30
9888 1980 1452 5
9889 1980 1643 12
9890 1980 824 94
9891 1980 1864 77
9892 1981 1651 70
9893 1981 1731 96
9894 1981 1252 49
9895 1981 299 91
9896 1981 297 33
9897 1981 1091 23
9898 1981 264 35
9899 1982 250 17
9900 1982 879 27
9901 1982 1442 72
9902 1982 1615 84
9903 1982 1623 29
9904 1983 119 76
9905 1983 589 58
9906 1983 653 21
9907 1983 1067 67
9908 1983 1866 31
9909 1983 1196 31
9910 1984 191 73
9911 1984 1584 14
9912 1984 455 20
9913 1985 909 15
9914 1985 1154 83
9915 1985 1095 85
9916 1985 1397 71
9917 1985 892 64
9918 1985 1572 4
9919 1985 851 51
9920 1985 1184 21
9921 1985 970 73
9922 1985 17 27
9923 1986 1582 23
9924 1986 316 67
9925 1986 1132 66
9926 1986 304 7
9927 1987 534 92
9928 1987 1008 74
9929 1987 639 72
9930 1987 1838 28
9931 1987 136 22
9932 1987 385 19
9933 1987 16 16
9934 1987 1520 6
9935 1988 43 15
9936 1988 1549 2
9937 1988 912 24
9938 1988 590 30
9939 1988 773 23
9940 1989 8 1
9941 1989 32 3
9942 1990 1025 9
9943 1990 1589 89
9944 1990 938 67
9945 1990 1010 50
9946 1990 433 60
9947 1990 342 56
9948 1990 1164 49
9949 1990 1012 15
9950 1991 1762 6
9951 1991 291 4
9952 1991 209 66
9953 1991 1579 81
9954 1991 736 77
9955 1991 1420 86
9956 1991 755 72
9957 1991 161 87
9958 1992 1888 62
9959 1992 609 92
9960 1992 1858 50
9961 1992 847 16
9962 1993 100 2
9963 1993 359 71
9964 1993 801 11
9965 1993 882 38
9966 1994 1271 25
9967 1994 1889 48
9968 1994 987 50
9969 1994 1612 12
9970 1994 1263 37
9971 1995 111 8
9972 1995 1571 93
9973 1995 1217 31
9974 1995 1531 71
9975 1995 389 38
9976 1995 1523 41
9977 1995 1421 84
9978 1995 947 32
9979 1995 1419 83
9980 1995 124 11
9981 1995 758 76
9982 1996 198 66
9983 1996 216 97
9984 1996 926 7
9985 1997 816 62
9986 1997 552 36
9987 1997 60 54
9988 1997 729 97
9989 1997 527 99
9990 1997 835 71
9991 1998 322 83
9992 1998 1039 18
9993 1998 1066 25
9994 1999 1518 41
9995 1999 536 40
9996 1999 410 53
9997 1999 1222 76
9998 1999 979 41
9999 1999 574 87
