0 1 2427 33
1 1 5880 77
2 2 642 55
3 2 3054 36
4 2 827 7
5 2 6200 82
6 3 226 89
7 3 4369 46
8 3 7357 55
9 3 6189 44
10 4 7887 15
11 4 3665 13
12 4 6642 69
13 4 3953 35
14 4 8402 17
15 4 77 91
16 5 6072 64
17 5 2123 99
18 5 4116 45
19 5 9206 31
20 5 2395 88
21 5 4951 80
22 5 1073 45
23 6 3170 32
24 6 8294 80
25 6 90 20
26 6 8789 25
27 7 9893 37
28 7 4165 14
29 7 2500 96
30 7 7894 42
31 7 94 17
32 7 5691 67
33 8 1514 53
34 8 3182 23
35 9 6275 19
36 9 6759 64
37 9 7934 18
38 9 1655 54
39 9 8912 59
40 10 5864 55
41 10 774 4
42 10 6103 79
43 11 9981 20
44 11 4563 38
45 11 5794 61
46 12 3799 96
47 12 8709 63
48 12 1413 24
49 12 2035 79
50 12 8432 12
51 13 4089 31
52 13 1092 11
53 13 868 67
54 13 8036 6
55 13 5137 38
56 13 7622 3
57 13 6434 95
58 14 8132 59
59 14 2722 15
60 15 875 29
61 15 9414 79
62 15 4061 76
63 15 5097 87
64 15 8677 51
65 15 7244 76
66 16 7418 6
67 16 2197 53
68 16 6261 12
69 16 4925 35
70 16 1086 26
71 17 6601 86
72 17 570 19
73 17 8395 16
74 17 7827 66
75 18 1488 9
76 18 623 6
77 19 1651 4
78 19 6020 91
79 19 899 87
80 19 9587 78
81 19 3575 60
82 20 6876 16
83 20 6938 89
84 20 5064 69
85 20 2436 66
86 20 5844 80
87 21 3516 25
88 21 6518 16
89 21 4529 84
90 21 5931 75
91 22 9155 86
92 22 2549 29
93 22 1203 39
94 22 5134 5
95 22 8141 62
96 22 4477 20
97 22 6344 76
98 22 4105 92
99 23 5614 40
100 23 9144 48
101 24 7498 14
102 24 8918 80
103 25 7017 78
104 25 9717 58
105 26 7023 6
106 26 7514 35
107 26 3444 29
108 26 7099 30
109 26 7341 8
110 26 3608 95
111 26 2665 2
112 27 8047 96
113 27 702 48
114 27 3084 3
115 27 918 61
116 28 5727 91
117 28 9230 61
118 28 8750 10
119 28 9094 56
120 29 3552 73
121 29 7177 66
122 30 4174 57
123 30 1095 80
124 30 1625 10
125 31 6857 73
126 31 3016 6
127 31 4592 46
128 31 3656 33
129 31 8199 39
130 31 697 69
131 31 4749 63
132 32 686 4
133 32 6747 11
134 32 3173 10
135 32 9667 2
136 32 3730 46
137 32 7763 48
138 32 3562 29
139 32 3389 56
140 32 6426 18
141 33 9631 29
142 33 859 50
143 33 1231 65
144 33 8134 49
145 34 950 55
146 34 4532 29
147 34 1285 26
148 34 1923 49
149 34 119 88
150 35 1062 11
151 36 726 24
152 36 387 86
153 36 8639 32
154 36 3784 74
155 37 1959 30
156 37 1463 9
157 37 4970 15
158 37 4608 49
159 37 252 89
160 38 1897 83
161 38 2343 94
162 38 1427 50
163 38 6210 94
164 38 6193 27
165 39 4815 94
166 39 2971 71
167 39 6292 55
168 39 4050 98
169 40 4304 64
170 40 5110 68
171 40 8516 72
172 40 5755 14
173 40 507 46
174 41 4030 80
175 41 9186 58
176 41 5446 43
177 41 8479 69
178 41 3097 54
179 41 2057 96
180 42 9799 21
181 42 7410 9
182 42 2300 31
183 42 8006 11
184 42 2405 92
185 42 7880 74
186 43 2971 81
187 43 4908 8
188 43 4521 71
189 44 5287 16
190 44 8616 1
191 45 358 75
192 45 757 5
193 45 3182 37
194 45 7730 72
195 45 3451 70
196 46 976 19
197 46 4470 27
198 46 6755 94
199 46 9353 54
200 46 568 14
201 47 2486 74
202 47 2329 48
203 47 2550 74
204 47 5360 20
205 47 8544 10
206 47 2290 83
207 47 2056 24
208 47 7591 94
209 47 677 76
210 48 3664 18
211 48 7621 68
212 48 9366 97
213 48 4390 4
214 48 8129 13
215 49 3624 63
216 49 9540 39
217 49 3932 4
218 49 1822 95
219 50 482 81
220 50 4025 78
221 50 6954 62
222 50 8705 93
223 50 813 31
224 50 8913 65
225 51 506 16
226 51 9085 86
227 51 5018 59
228 51 5738 12
229 52 8775 38
230 52 3193 79
231 52 6166 14
232 53 1962 33
233 53 584 84
234 53 9967 74
235 53 843 47
236 53 3492 64
237 53 8829 87
238 54 5917 59
239 54 8862 74
240 54 7116 52
241 54 6863 34
242 54 4547 56
243 54 6107 28
244 55 4054 92
245 55 130 88
246 55 3130 49
247 55 4928 50
248 55 4090 73
249 55 9674 24
250 56 149 80
251 57 8166 15
252 57 6655 87
253 57 4828 100
254 58 3754 66
255 58 1391 83
256 58 7953 94
257 58 3120 38
258 58 4006 29
259 58 4413 5
260 58 6876 26
261 58 5449 7
262 58 4438 23
263 59 3484 4
264 59 4600 82
265 59 7103 99
266 59 5228 65
267 59 9794 33
268 59 9752 95
269 59 5241 24
270 59 538 78
271 59 8 8
272 59 1290 15
273 59 172 35
274 59 3709 5
275 59 3539 53
276 60 1139 60
277 60 6674 89
278 60 9141 43
279 60 1219 48
280 60 1875 71
281 60 9076 20
282 61 2417 96
283 61 727 72
284 61 2597 30
285 62 9673 37
286 62 4292 87
287 62 9169 100
288 62 5227 98
289 62 5819 84
290 62 9217 61
291 62 2814 56
292 63 8165 14
293 63 6344 54
294 63 3476 50
295 63 7995 7
296 63 6418 84
297 63 7103 43
298 64 1085 40
299 64 1940 48
300 64 9961 40
301 64 664 64
302 64 5086 34
303 65 6078 90
304 65 7052 35
305 65 1056 72
306 65 9538 97
307 65 9268 81
308 65 8070 97
309 65 7062 63
310 66 7360 67
311 66 4630 94
312 66 8542 41
313 66 470 22
314 66 1536 81
315 67 2179 96
316 67 9874 86
317 67 1299 28
318 67 689 50
319 68 201 56
320 68 509 39
321 68 7536 16
322 68 6039 83
323 68 6333 91
324 68 9052 94
325 68 3639 42
326 69 7528 21
327 69 4471 86
328 69 4557 77
329 69 3444 91
330 69 724 31
331 70 9466 10
332 70 8559 77
333 70 574 19
334 70 5722 10
335 70 7596 33
336 70 8625 51
337 70 2391 54
338 70 3899 6
339 71 9495 31
340 71 8920 12
341 71 5318 94
342 72 686 45
343 72 7798 27
344 72 9784 68
345 73 5085 58
346 73 2171 96
347 73 3847 53
348 73 2226 58
349 73 6330 30
350 73 2948 20
351 74 7767 3
352 74 3892 80
353 74 6866 65
354 74 2913 27
355 74 4871 59
356 75 2528 25
357 75 9207 61
358 75 534 66
359 75 3829 29
360 75 5531 51
361 75 4224 78
362 76 2364 27
363 76 2970 44
364 76 860 40
365 77 4849 14
366 77 251 98
367 77 1916 81
368 77 4752 100
369 77 2443 37
370 77 3192 27
371 77 6183 12
372 78 8532 39
373 78 5927 32
374 78 612 28
375 79 3884 2
376 79 8017 57
377 79 205 73
378 80 2264 55
379 80 8360 79
380 81 3060 39
381 81 7176 20
382 81 7830 55
383 81 3068 78
384 81 6092 18
385 81 1707 89
386 81 2105 41
387 81 8070 23
388 81 2848 17
389 82 521 87
390 82 641 17
391 82 898 100
392 82 944 100
393 82 8752 55
394 83 4641 74
395 83 9894 28
396 83 5014 43
397 83 4552 26
398 84 2713 3
399 84 4870 13
400 84 7287 23
401 84 1034 62
402 84 4914 41
403 84 2463 22
404 84 143 45
405 84 6873 69
406 85 8796 61
407 85 4019 42
408 85 7963 92
409 85 7792 88
410 85 8118 29
411 85 610 67
412 85 3355 21
413 85 814 95
414 86 371 87
415 86 3194 59
416 86 5800 35
417 86 1866 34
418 86 9595 82
419 86 1258 31
420 87 1337 16
421 87 3052 84
422 87 6260 1
423 87 934 21
424 87 9122 62
425 88 9994 10
426 88 4671 52
427 88 7384 76
428 88 4612 5
429 88 1704 69
430 88 9058 64
431 88 6345 8
432 88 4535 30
433 88 6540 6
434 89 6099 36
435 89 9920 33
436 90 8749 26
437 90 4274 34
438 90 3361 99
439 91 5799 40
440 91 3408 39
441 91 7020 60
442 91 2487 21
443 91 4294 98
444 91 2954 40
445 92 8487 27
446 92 4007 94
447 92 2452 97
448 92 2096 58
449 92 7439 90
450 92 8848 58
451 92 7849 44
452 93 8528 44
453 93 1005 24
454 93 5424 79
455 93 9000 22
456 94 9186 97
457 94 3005 42
458 94 1056 79
459 94 7112 35
460 94 6674 25
461 95 186 92
462 95 8081 81
463 95 9602 97
464 95 3055 27
465 95 7827 85
466 96 2236 24
467 96 3620 99
468 96 2715 49
469 97 2088 96
470 97 208 14
471 97 7800 17
472 97 6678 67
473 97 6392 78
474 98 1757 79
475 98 8869 85
476 98 202 100
477 98 3215 48
478 98 1767 32
479 99 1712 76
480 99 2670 93
481 99 6845 12
482 100 4473 59
483 100 8457 93
484 100 1972 60
485 100 7093 67
486 100 976 50
487 100 8683 70
488 101 4214 92
489 102 2032 99
490 102 9499 43
491 102 8776 49
492 102 9413 77
493 102 177 49
494 103 1383 44
495 103 2386 76
496 103 5757 66
497 103 234 17
498 103 8266 3
499 104 5137 84
500 104 5332 67
501 104 595 56
502 104 9756 27
503 104 796 29
504 105 3709 36
505 105 2995 24
506 105 6403 73
507 105 2189 80
508 105 958 62
509 106 7389 23
510 107 591 54
511 107 5709 58
512 107 6184 36
513 107 6147 10
514 107 1596 61
515 108 2520 87
516 108 1245 65
517 108 6460 60
518 108 8423 67
519 109 7654 91
520 109 4429 5
521 109 7248 40
522 109 7930 22
523 109 4714 80
524 110 7199 5
525 110 4501 70
526 111 7060 34
527 111 9655 16
528 111 3719 66
529 111 2829 33
530 111 2494 28
531 111 6706 65
532 111 9650 36
533 111 9965 26
534 111 6826 67
535 111 6075 93
536 112 8718 27
537 112 8080 74
538 112 9448 74
539 112 2139 45
540 112 5235 8
541 112 5003 68
542 112 1475 36
543 113 3161 56
544 113 5755 40
545 113 8404 91
546 113 1232 89
547 113 7352 28
548 114 1117 58
549 114 2683 46
550 114 8331 99
551 114 5514 57
552 115 1385 29
553 115 9095 89
554 116 9271 36
555 116 586 39
556 116 8613 36
557 116 2450 8
558 116 5286 8
559 116 4949 52
560 116 7603 60
561 116 215 68
562 117 8943 44
563 117 6793 34
564 117 4139 45
565 117 2255 44
566 117 9531 24
567 117 51 12
568 117 4784 42
569 118 3670 8
570 118 2268 94
571 118 2961 75
572 118 2399 90
573 118 3048 65
574 118 6707 47
575 118 2488 86
576 118 9666 85
577 118 7771 53
578 118 6856 37
579 118 5339 9
580 118 5109 99
581 119 6726 95
582 119 1830 86
583 119 1784 19
584 119 9241 10
585 119 1680 97
586 120 3231 56
587 120 2301 32
588 120 9518 24
589 120 2071 55
590 120 1644 68
591 120 313 65
592 121 5044 98
593 121 8550 34
594 121 6861 45
595 121 8359 24
596 121 7372 86
597 121 251 36
598 121 3176 4
599 121 580 36
600 122 4822 62
601 122 3780 74
602 122 2609 87
603 123 2954 73
604 123 4278 54
605 123 6337 80
606 123 1605 44
607 123 6842 49
608 123 3899 58
609 123 3669 18
610 124 9852 93
611 124 3212 84
612 124 42 22
613 124 6332 91
614 124 3424 29
615 125 1922 81
616 125 1863 85
617 125 9756 76
618 125 7203 5
619 126 4508 79
620 126 1727 2
621 126 2124 51
622 126 2410 22
623 126 8544 31
624 126 1367 59
625 126 9596 25
626 127 3630 68
627 127 3890 75
628 127 4836 3
629 127 588 10
630 127 2016 48
631 127 1895 40
632 127 8558 37
633 128 9809 59
634 128 1546 91
635 128 8849 75
636 128 1706 44
637 129 4642 47
638 129 7274 43
639 129 2208 77
640 129 7193 22
641 130 5656 70
642 130 9658 44
643 130 7402 79
644 131 3789 72
645 131 4119 77
646 131 4166 43
647 131 5541 41
648 132 7983 24
649 132 8437 12
650 132 3888 22
651 132 7364 64
652 132 2710 92
653 132 215 49
654 132 7070 17
655 133 9051 46
656 133 6985 78
657 133 2277 68
658 133 1929 83
659 133 3718 95
660 133 7962 99
661 134 3051 97
662 134 6393 48
663 135 6186 13
664 135 6161 5
665 135 556 70
666 135 4459 30
667 136 752 11
668 136 5631 47
669 136 4434 13
670 137 3199 89
671 137 881 19
672 137 176 3
673 137 9781 81
674 137 3956 93
675 137 2513 6
676 138 1091 96
677 138 3450 2
678 138 3901 67
679 138 7186 54
680 138 5747 6
681 138 1700 9
682 139 3568 68
683 139 2468 78
684 139 4020 43
685 139 636 29
686 139 4493 28
687 139 1718 6
688 139 7806 59
689 139 9344 74
690 140 3279 25
691 140 1805 59
692 140 4004 80
693 141 468 24
694 141 240 10
695 141 1259 30
696 141 4097 68
697 141 1110 62
698 141 1529 26
699 141 7179 3
700 142 6091 49
701 142 9136 85
702 142 4084 31
703 142 7323 8
704 142 784 99
705 142 1541 62
706 142 729 12
707 142 6999 51
708 143 8939 75
709 143 218 94
710 143 2838 93
711 144 6405 24
712 144 5524 13
713 144 7344 84
714 145 7420 19
715 145 8883 21
716 145 4015 55
717 145 3542 67
718 146 3760 70
719 146 1684 24
720 146 7787 8
721 146 6339 12
722 147 9347 75
723 147 9978 7
724 147 9798 97
725 147 9168 85
726 147 8385 45
727 147 1070 29
728 147 8916 58
729 147 8712 65
730 147 8482 99
731 148 1962 81
732 148 6607 27
733 148 6144 27
734 149 2119 99
735 149 2462 92
736 149 5706 33
737 149 9225 35
738 150 7529 18
739 150 7540 32
740 150 1969 82
741 150 8738 83
742 150 6973 93
743 150 950 70
744 150 3144 86
745 151 9655 69
746 151 9487 13
747 151 6539 65
748 151 8909 38
749 152 7705 54
750 152 8224 31
751 152 2843 15
752 152 6967 21
753 153 8581 84
754 153 6954 56
755 153 1991 18
756 153 4778 20
757 154 4007 14
758 154 3312 77
759 154 5303 83
760 154 5051 31
761 154 5411 55
762 154 365 53
763 155 2517 86
764 155 7789 99
765 155 9226 100
766 155 71 8
767 156 8333 87
768 156 1991 71
769 156 9792 24
770 157 579 87
771 157 2409 63
772 157 3794 61
773 158 8975 4
774 158 1790 28
775 158 3890 51
776 158 1088 90
777 159 7029 88
778 159 4452 23
779 159 1481 1
780 159 3897 72
781 159 9084 50
782 159 9766 52
783 159 8589 13
784 159 6326 87
785 160 9904 85
786 160 9916 14
787 160 4275 66
788 160 4813 13
789 160 3130 8
790 161 917 66
791 161 8817 47
792 161 6021 20
793 161 2210 45
794 162 3810 53
795 162 8438 55
796 162 6614 77
797 162 4933 60
798 162 9627 24
799 163 8657 84
800 163 230 36
801 163 6493 11
802 163 4493 65
803 163 9079 51
804 164 8077 95
805 164 9735 45
806 164 6466 93
807 164 5221 5
808 164 571 20
809 164 9178 20
810 164 3271 61
811 164 4177 20
812 164 7916 78
813 165 9505 6
814 165 6767 7
815 166 1566 32
816 166 911 44
817 166 4863 37
818 166 5106 26
819 166 1755 21
820 166 3389 64
821 167 498 19
822 167 3039 14
823 167 170 24
824 168 3544 75
825 168 9319 42
826 168 3670 93
827 168 7643 24
828 168 618 59
829 168 1250 83
830 168 1552 35
831 169 1383 4
832 169 4368 48
833 169 3757 8
834 169 9919 42
835 169 3387 1
836 169 4887 9
837 169 7360 79
838 169 1608 87
839 169 8427 59
840 169 7689 71
841 169 5985 25
842 169 7389 60
843 169 1767 61
844 169 4093 93
845 170 2481 93
846 170 9837 94
847 170 6739 20
848 170 6962 9
849 170 3833 15
850 171 1559 17
851 171 207 10
852 171 2009 18
853 172 5332 13
854 173 5978 42
855 173 303 78
856 173 8980 65
857 174 1424 53
858 174 5754 28
859 174 7480 37
860 174 5442 14
861 174 2314 72
862 174 3182 98
863 175 3785 10
864 175 3966 17
865 175 2570 44
866 175 5641 36
867 175 9221 55
868 176 5238 70
869 176 6989 18
870 176 2396 63
871 176 1317 10
872 176 3442 94
873 177 840 45
874 177 4813 38
875 177 6503 66
876 177 4895 78
877 177 8335 56
878 177 2713 77
879 178 2459 96
880 178 4689 26
881 178 1569 72
882 178 5253 87
883 178 3020 87
884 178 6827 52
885 178 6724 58
886 178 8474 28
887 178 9651 54
888 179 8115 38
889 179 2995 66
890 179 3591 40
891 179 6163 6
892 179 4777 88
893 179 7083 60
894 180 810 97
895 180 8905 85
896 180 6470 5
897 180 3646 8
898 180 572 61
899 180 8632 90
900 180 1403 58
901 181 4725 53
902 181 7715 3
903 181 6088 22
904 181 2375 92
905 181 6759 78
906 181 7082 56
907 181 5220 50
908 182 7125 81
909 182 2984 54
910 182 2294 19
911 182 2342 42
912 182 3295 24
913 182 4840 58
914 183 348 5
915 183 5981 57
916 183 6983 79
917 183 7557 69
918 183 7099 2
919 184 635 76
920 184 8961 85
921 184 5177 43
922 184 5141 38
923 184 6815 58
924 184 3547 91
925 184 3104 74
926 184 7661 91
927 184 50 65
928 185 5600 84
929 185 7810 5
930 186 5486 60
931 187 6106 70
932 187 3422 50
933 187 2399 56
934 187 2750 29
935 187 7513 80
936 188 143 27
937 188 7030 89
938 188 5675 89
939 188 8463 3
940 189 86 85
941 189 7979 86
942 189 4128 39
943 189 9004 25
944 190 7167 58
945 190 8932 7
946 190 1044 6
947 190 464 77
948 190 5002 65
949 191 9949 42
950 191 5329 19
951 191 259 40
952 191 221 7
953 191 1431 36
954 191 1420 15
955 192 242 81
956 192 6613 54
957 192 7949 5
958 193 267 97
959 193 5112 74
960 193 8294 57
961 193 8578 29
962 193 9350 55
963 193 6736 82
964 193 9928 17
965 193 9307 91
966 193 8057 7
967 193 9467 86
968 194 5241 3
969 194 4908 45
970 194 5101 36
971 194 8230 64
972 194 1705 42
973 195 3156 81
974 195 9733 55
975 195 3195 9
976 196 61 9
977 196 5570 42
978 196 5541 48
979 196 636 63
980 197 1897 20
981 197 7569 91
982 197 2665 68
983 197 4233 23
984 197 5011 39
985 197 2805 9
986 197 8571 19
987 198 2228 46
988 198 6605 26
989 198 8701 74
990 198 2655 83
991 198 4972 57
992 199 2802 80
993 199 9456 45
994 200 5381 55
995 200 9220 2
996 200 3355 25
997 200 4316 30
998 200 9769 70
999 200 8358 11
1000 201 8652 86
1001 201 8223 52
1002 201 7943 95
1003 201 4222 72
1004 201 6653 92
1005 201 7496 62
1006 201 4609 89
1007 202 1509 40
1008 203 7374 10
1009 203 2250 12
1010 203 6953 31
1011 203 9475 83
1012 204 8253 17
1013 204 1168 76
1014 204 4918 41
1015 205 2912 18
1016 205 8615 95
1017 205 1207 14
1018 205 8676 69
1019 205 92 22
1020 205 6850 62
1021 205 2735 25
1022 206 4145 48
1023 206 8585 31
1024 206 3381 21
1025 206 3540 7
1026 207 6759 99
1027 207 5042 8
1028 207 1042 6
1029 207 1799 97
1030 207 2358 29
1031 208 7033 63
1032 208 5940 79
1033 208 5542 88
1034 208 9949 74
1035 208 6319 42
1036 208 425 23
1037 208 3172 71
1038 208 4205 3
1039 208 1003 55
1040 209 6982 27
1041 209 2652 53
1042 209 9980 26
1043 209 9033 43
1044 210 1467 24
1045 210 8491 95
1046 211 2688 87
1047 211 6455 66
1048 211 3880 7
1049 211 3945 11
1050 211 7430 42
1051 211 5012 93
1052 211 1308 60
1053 211 6840 56
1054 211 9449 36
1055 211 6194 7
1056 212 6979 75
1057 212 3499 73
1058 212 9674 71
1059 212 4898 60
1060 212 3723 22
1061 213 4887 63
1062 213 6139 49
1063 213 7844 14
1064 213 2119 3
1065 213 4928 89
1066 213 3507 56
1067 213 3647 71
1068 214 1414 58
1069 214 6644 10
1070 214 6844 75
1071 214 1271 89
1072 214 1116 48
1073 214 9205 95
1074 214 9246 27
1075 214 6604 96
1076 214 5756 81
1077 215 7039 47
1078 215 5502 100
1079 215 7930 10
1080 215 3343 74
1081 216 3001 93
1082 216 2267 25
1083 217 8605 42
1084 217 3616 2
1085 217 6637 93
1086 218 122 6
1087 218 4687 24
1088 218 9109 29
1089 218 1362 6
1090 218 9172 58
1091 218 3526 95
1092 219 9348 75
1093 219 3477 26
1094 219 7177 14
1095 219 4436 33
1096 219 776 55
1097 219 9012 59
1098 219 4323 92
1099 220 8987 94
1100 220 4068 90
1101 220 1568 88
1102 220 7694 30
1103 220 4463 100
1104 221 1138 63
1105 221 2952 18
1106 221 166 81
1107 221 9282 51
1108 221 913 35
1109 221 603 92
1110 221 2799 82
1111 221 7240 68
1112 222 4511 5
1113 222 1617 58
1114 222 6239 16
1115 222 9571 79
1116 223 8311 65
1117 223 2259 27
1118 223 1065 23
1119 223 4349 91
1120 223 2644 37
1121 224 8916 55
1122 224 3832 85
1123 224 8764 61
1124 224 8954 96
1125 224 471 43
1126 224 8938 48
1127 224 1429 8
1128 225 7026 19
1129 226 4592 92
1130 226 8709 71
1131 226 7511 48
1132 226 8442 87
1133 227 8077 27
1134 227 5429 38
1135 227 2310 7
1136 228 831 88
1137 228 8303 70
1138 228 1110 17
1139 228 9417 72
1140 228 8651 85
1141 229 3569 34
1142 229 1166 97
1143 229 7030 47
1144 229 3683 9
1145 229 8718 92
1146 229 5491 70
1147 229 1728 41
1148 230 8445 16
1149 230 3220 80
1150 230 7850 94
1151 230 3078 54
1152 230 2040 3
1153 230 8082 61
1154 231 2347 74
1155 231 7656 45
1156 231 7403 6
1157 231 7337 28
1158 231 7407 91
1159 231 9783 6
1160 232 9868 88
1161 232 5450 69
1162 233 7 42
1163 233 7536 64
1164 233 9748 55
1165 233 3005 46
1166 233 669 99
1167 234 8597 33
1168 234 1676 46
1169 234 9521 47
1170 234 578 12
1171 234 1628 70
1172 234 2539 54
1173 234 8445 98
1174 234 6434 20
1175 235 2596 74
1176 235 205 24
1177 235 5588 99
1178 235 3007 88
1179 235 5804 83
1180 235 5633 82
1181 236 8362 74
1182 236 5884 79
1183 236 4747 18
1184 236 6395 70
1185 236 9079 39
1186 236 4313 89
1187 237 1537 96
1188 237 5395 57
1189 237 2561 48
1190 237 4019 49
1191 237 234 96
1192 237 911 37
1193 237 2041 95
1194 237 9211 21
1195 237 4418 28
1196 238 1164 24
1197 238 158 75
1198 238 8388 43
1199 238 2863 100
1200 238 4263 29
1201 238 9504 58
1202 238 6291 75
1203 239 2999 23
1204 239 4300 24
1205 239 1122 46
1206 239 913 19
1207 239 248 60
1208 239 5905 37
1209 239 9730 98
1210 240 9291 74
1211 240 6088 96
1212 240 1812 7
1213 240 2748 91
1214 240 3340 36
1215 241 412 28
1216 242 696 87
1217 242 1759 11
1218 242 4277 47
1219 243 8830 11
1220 243 4130 92
1221 243 1765 12
1222 243 9855 3
1223 244 2719 95
1224 244 9626 42
1225 244 1501 53
1226 244 3465 66
1227 244 5812 33
1228 244 7980 55
1229 244 5479 86
1230 245 2829 3
1231 245 1406 21
1232 245 4729 17
1233 245 4268 3
1234 245 6945 4
1235 245 4357 35
1236 245 5767 20
1237 245 392 60
1238 245 5982 50
1239 245 9262 42
1240 246 7115 79
1241 246 1392 45
1242 247 4870 22
1243 247 1485 35
1244 247 9303 92
1245 247 8429 19
1246 247 5389 41
1247 247 7128 8
1248 247 7773 83
1249 247 8883 43
1250 247 6926 76
1251 248 8999 88
1252 248 9581 82
1253 248 1153 70
1254 248 6103 76
1255 248 2185 92
1256 248 3914 81
1257 249 5950 54
1258 249 6944 76
1259 249 3006 92
1260 249 4328 87
1261 249 3120 41
1262 249 7908 74
1263 249 7833 94
1264 249 6133 20
1265 249 5517 75
1266 250 113 57
1267 250 510 31
1268 250 3552 98
1269 250 1990 79
1270 251 6136 28
1271 251 6599 17
1272 251 220 47
1273 251 4930 38
1274 252 3769 27
1275 252 8052 56
1276 252 3120 55
1277 252 5245 56
1278 253 8866 84
1279 253 8903 64
1280 253 7153 74
1281 253 943 84
1282 253 5133 29
1283 253 7328 96
1284 254 1991 75
1285 254 6062 59
1286 254 3549 67
1287 254 3718 26
1288 254 6623 74
1289 255 7439 60
1290 255 8238 88
1291 255 5422 4
1292 255 3387 41
1293 255 1590 59
1294 255 4417 94
1295 255 3391 27
1296 256 8343 57
1297 256 4304 66
1298 256 381 24
1299 256 5885 85
1300 256 3917 24
1301 256 9272 87
1302 257 2296 86
1303 257 7629 55
1304 257 9415 44
1305 257 5538 59
1306 257 87 83
1307 257 9933 98
1308 257 4971 4
1309 257 3275 94
1310 257 8140 34
1311 258 6326 57
1312 258 8924 41
1313 258 9252 74
1314 259 570 95
1315 259 6487 98
1316 259 8534 18
1317 259 8643 60
1318 260 9795 99
1319 260 9893 73
1320 260 7054 99
1321 261 6269 27
1322 261 1420 81
1323 261 8049 43
1324 262 4387 62
1325 262 6147 91
1326 262 5825 89
1327 262 7509 18
1328 262 9769 95
1329 263 3056 83
1330 263 4306 42
1331 263 6450 72
1332 263 7264 56
1333 263 6268 49
1334 264 2245 6
1335 264 4206 68
1336 264 9984 79
1337 264 6558 15
1338 264 2589 4
1339 264 8028 38
1340 265 5592 96
1341 265 8412 91
1342 265 5055 98
1343 266 9393 28
1344 266 7662 4
1345 266 5693 20
1346 267 8684 48
1347 267 8259 71
1348 267 4578 52
1349 267 5148 72
1350 267 39 43
1351 267 9065 56
1352 268 9053 33
1353 268 605 75
1354 268 4808 91
1355 268 1091 51
1356 268 4981 61
1357 269 8936 99
1358 269 6920 55
1359 269 4921 71
1360 269 387 1
1361 269 2629 93
1362 270 776 95
1363 270 2508 83
1364 270 3183 33
1365 270 9612 93
1366 271 8993 42
1367 271 4451 55
1368 271 3417 78
1369 271 7039 89
1370 271 4433 23
1371 272 6638 75
1372 272 2411 25
1373 272 7382 81
1374 272 7336 100
1375 272 9669 58
1376 273 9980 50
1377 273 3850 94
1378 273 1792 61
1379 274 607 55
1380 274 6651 18
1381 274 2105 45
1382 274 6806 62
1383 274 3282 46
1384 275 4822 89
1385 275 8663 87
1386 275 2296 82
1387 275 2821 21
1388 275 1669 86
1389 275 988 30
1390 275 6674 42
1391 275 8139 37
1392 276 6591 3
1393 276 367 92
1394 276 1032 5
1395 277 4509 92
1396 277 3055 10
1397 278 7359 28
1398 278 4011 33
1399 278 903 59
1400 278 9908 96
1401 279 9515 41
1402 279 4048 10
1403 279 7419 51
1404 279 9772 18
1405 279 7578 19
1406 279 3807 61
1407 280 6494 89
1408 280 7075 12
1409 280 5032 66
1410 280 4163 4
1411 280 4104 10
1412 280 3326 64
1413 280 3545 37
1414 280 1931 37
1415 280 4639 30
1416 281 2206 16
1417 281 9383 84
1418 282 6760 100
1419 282 48 94
1420 282 8211 75
1421 282 6486 35
1422 282 7215 77
1423 282 6354 36
1424 283 6876 40
1425 284 9273 91
1426 284 7733 85
1427 284 653 49
1428 284 7406 13
1429 284 1037 71
1430 285 1697 82
1431 285 4060 83
1432 286 6201 35
1433 286 6767 54
1434 286 5417 50
1435 286 2877 41
1436 286 7705 49
1437 286 1732 46
1438 286 3391 90
1439 288 8075 37
1440 288 4319 6
1441 288 4058 45
1442 288 9558 65
1443 288 487 72
1444 288 508 10
1445 289 7344 11
1446 289 9879 37
1447 289 3341 8
1448 289 2579 1
1449 289 329 74
1450 289 7099 3
1451 290 9260 41
1452 290 5353 10
1453 290 6386 81
1454 290 9850 63
1455 291 4966 60
1456 291 6302 23
1457 292 8481 50
1458 292 8260 73
1459 292 4014 98
1460 292 6671 6
1461 292 9465 32
1462 292 100 39
1463 293 5876 63
1464 293 8564 58
1465 293 8806 81
1466 293 8219 53
1467 293 5134 25
1468 293 4266 30
1469 293 2879 69
1470 294 3931 52
1471 294 3751 80
1472 295 2273 55
1473 295 5716 97
1474 295 9685 53
1475 295 8721 46
1476 296 5979 14
1477 296 8771 35
1478 296 6652 76
1479 296 9325 35
1480 296 6535 99
1481 296 5356 13
1482 296 7888 69
1483 296 9760 87
1484 297 6561 65
1485 297 6172 17
1486 298 5453 4
1487 298 2525 93
1488 298 9399 46
1489 298 7886 42
1490 298 7065 25
1491 298 8072 56
1492 298 6582 16
1493 299 5699 64
1494 299 5572 17
1495 299 7952 85
1496 299 3344 94
1497 299 9861 21
1498 299 981 47
1499 300 4767 75
1500 300 8806 44
1501 300 1137 7
1502 300 8777 52
1503 300 6283 4
1504 301 9252 40
1505 301 7940 58
1506 301 3023 73
1507 301 7598 92
1508 302 1841 97
1509 302 7126 13
1510 302 1173 45
1511 303 2508 89
1512 303 4898 78
1513 303 1282 91
1514 303 1602 52
1515 303 86 87
1516 303 3112 25
1517 304 6771 75
1518 304 4273 15
1519 304 2271 20
1520 304 9068 17
1521 304 4655 95
1522 304 1512 88
1523 305 4823 71
1524 305 1582 95
1525 305 931 21
1526 305 231 89
1527 306 3588 74
1528 306 5606 42
1529 307 4344 8
1530 307 4601 18
1531 307 4245 83
1532 307 7600 98
1533 307 9507 87
1534 308 8376 4
1535 308 9080 63
1536 308 3577 92
1537 308 4506 14
1538 308 6861 12
1539 308 5899 30
1540 309 520 71
1541 309 835 35
1542 309 2052 9
1543 309 2093 26
1544 309 686 53
1545 309 5844 26
1546 310 8724 71
1547 310 2415 94
1548 310 5533 99
1549 310 9943 52
1550 311 2645 37
1551 311 7727 54
1552 311 8802 25
1553 311 514 80
1554 311 3749 2
1555 311 7959 40
1556 311 2555 40
1557 311 780 85
1558 312 2502 34
1559 312 3786 23
1560 312 3628 17
1561 312 1437 12
1562 313 1786 68
1563 313 8503 81
1564 313 7560 28
1565 313 6397 23
1566 313 3369 24
1567 314 7075 49
1568 314 1436 35
1569 315 3382 15
1570 315 613 37
1571 315 5775 71
1572 315 3526 21
1573 315 6553 22
1574 316 3149 76
1575 316 1863 33
1576 316 666 79
1577 316 1324 65
1578 316 989 100
1579 316 2591 37
1580 316 2964 64
1581 316 1899 19
1582 317 8405 23
1583 317 3966 48
1584 318 3099 91
1585 318 5789 4
1586 318 2601 79
1587 318 4965 64
1588 319 3814 48
1589 319 7817 43
1590 319 8062 9
1591 319 4314 53
1592 319 1434 63
1593 319 5943 40
1594 319 6720 89
1595 320 2312 98
1596 320 814 70
1597 320 2060 24
1598 320 7245 1
1599 321 5231 92
1600 321 4825 99
1601 321 2260 49
1602 321 5882 81
1603 322 4441 30
1604 322 7872 56
1605 322 3108 52
1606 322 5021 100
1607 322 6368 80
1608 322 4736 73
1609 322 9384 21
1610 322 7512 65
1611 323 554 40
1612 323 4932 45
1613 323 5299 71
1614 323 5446 19
1615 323 7291 27
1616 323 8051 34
1617 324 3260 21
1618 324 7439 27
1619 324 6267 70
1620 324 7535 84
1621 324 7198 38
1622 324 7549 11
1623 325 386 7
1624 325 8148 89
1625 325 1217 74
1626 325 8943 9
1627 325 6358 4
1628 325 7216 50
1629 326 5016 5
1630 326 5118 79
1631 326 6101 87
1632 327 4560 32
1633 327 8747 74
1634 327 7200 20
1635 327 2934 41
1636 328 156 27
1637 328 5852 62
1638 328 1373 41
1639 329 6315 14
1640 329 7521 23
1641 329 4098 13
1642 329 3263 30
1643 329 1386 97
1644 329 2863 91
1645 329 4700 4
1646 329 2244 69
1647 329 514 46
1648 329 9086 9
1649 330 4365 52
1650 330 805 27
1651 330 3418 64
1652 331 887 63
1653 331 9074 86
1654 331 4859 61
1655 331 7980 94
1656 332 1320 72
1657 332 7541 34
1658 332 6378 3
1659 332 5940 94
1660 333 5341 77
1661 333 9126 16
1662 333 8676 38
1663 334 908 68
1664 334 3352 7
1665 334 6622 79
1666 334 4375 19
1667 334 7387 96
1668 334 1646 51
1669 334 1367 64
1670 334 4370 21
1671 334 8465 73
1672 335 9250 69
1673 335 7334 45
1674 336 9866 98
1675 336 3944 82
1676 336 3724 35
1677 336 1117 86
1678 336 7669 7
1679 337 7547 31
1680 337 5788 91
1681 337 6178 79
1682 338 9056 19
1683 338 834 31
1684 338 6629 9
1685 338 2697 73
1686 338 4612 49
1687 338 9759 22
1688 339 8541 20
1689 339 6428 99
1690 339 2869 56
1691 339 6238 17
1692 339 7166 97
1693 340 9050 33
1694 340 635 43
1695 340 9717 36
1696 340 3308 24
1697 340 2794 83
1698 340 5090 54
1699 340 2413 47
1700 340 4904 16
1701 340 3015 56
1702 340 9268 54
1703 341 9843 95
1704 341 279 87
1705 341 6974 87
1706 341 4555 69
1707 341 764 67
1708 341 8288 13
1709 342 4179 98
1710 342 4932 29
1711 342 1958 3
1712 343 1028 74
1713 343 2923 20
1714 343 975 13
1715 343 6055 20
1716 344 3782 56
1717 344 9809 95
1718 344 2775 70
1719 344 5444 22
1720 344 8661 75
1721 345 8096 25
1722 345 1958 81
1723 345 6691 100
1724 346 8441 24
1725 346 3198 52
1726 346 250 58
1727 346 7985 74
1728 347 5962 23
1729 347 5541 24
1730 347 9470 51
1731 347 6064 68
1732 348 1718 68
1733 348 2087 23
1734 348 5051 66
1735 349 5779 36
1736 349 469 25
1737 350 4488 99
1738 350 4506 100
1739 350 9713 19
1740 351 4539 75
1741 351 8733 29
1742 351 6435 34
1743 352 7168 86
1744 352 994 33
1745 352 8494 29
1746 352 3677 54
1747 352 7283 28
1748 352 7561 11
1749 353 732 51
1750 353 7076 99
1751 353 6168 2
1752 353 1727 40
1753 353 8169 4
1754 354 2786 5
1755 354 8833 30
1756 354 2355 59
1757 354 7296 60
1758 354 8340 91
1759 354 4973 9
1760 354 6007 51
1761 355 5008 92
1762 355 1403 22
1763 355 7317 55
1764 355 4350 25
1765 355 6541 28
1766 355 365 70
1767 355 9240 29
1768 355 6627 25
1769 356 7122 38
1770 356 3030 29
1771 356 6217 81
1772 356 6643 40
1773 356 5176 77
1774 356 4902 6
1775 356 5390 52
1776 357 5975 29
1777 357 2506 26
1778 357 168 81
1779 357 4907 28
1780 358 7731 54
1781 358 3961 88
1782 358 50 6
1783 358 7382 86
1784 358 7681 76
1785 359 913 10
1786 359 3293 23
1787 359 2700 71
1788 359 2822 77
1789 359 8212 72
1790 359 3052 67
1791 359 66 6
1792 360 5207 55
1793 360 4591 100
1794 360 6673 26
1795 360 2659 15
1796 361 2747 40
1797 361 1543 55
1798 361 1740 61
1799 362 2402 22
1800 362 1920 88
1801 362 1190 7
1802 362 2115 96
1803 362 1487 20
1804 362 1684 99
1805 362 2574 71
1806 363 4025 21
1807 363 4791 82
1808 363 754 18
1809 363 57 9
1810 363 4805 57
1811 363 8050 78
1812 364 8323 36
1813 364 2439 45
1814 364 7537 15
1815 364 2077 4
1816 364 3776 80
1817 365 3647 84
1818 365 8248 37
1819 365 5549 89
1820 365 8909 6
1821 366 1542 99
1822 366 4921 1
1823 367 3553 46
1824 367 4315 23
1825 367 1712 99
1826 368 9458 81
1827 368 5313 7
1828 369 42 44
1829 369 6315 84
1830 369 8247 25
1831 369 2277 43
1832 369 8808 52
1833 369 8643 90
1834 370 5805 50
1835 370 3122 51
1836 370 8184 41
1837 370 7202 12
1838 370 7384 33
1839 371 5681 90
1840 371 9120 88
1841 371 688 88
1842 371 7946 12
1843 371 3336 45
1844 371 3974 34
1845 371 224 66
1846 372 3619 48
1847 372 7517 35
1848 372 230 97
1849 373 5515 69
1850 373 1907 41
1851 373 5758 61
1852 373 7789 17
1853 373 8541 97
1854 374 8097 10
1855 374 9994 49
1856 374 3116 2
1857 374 8606 7
1858 374 2896 59
1859 374 5977 46
1860 374 6884 68
1861 374 1555 82
1862 374 9550 95
1863 374 8410 55
1864 374 4532 42
1865 374 2210 54
1866 375 9422 43
1867 375 633 13
1868 375 4268 62
1869 375 7994 59
1870 376 4347 66
1871 376 8833 19
1872 376 9683 82
1873 376 6560 16
1874 376 1060 97
1875 376 5676 32
1876 376 2014 46
1877 377 3454 78
1878 377 111 100
1879 377 4755 34
1880 377 8382 7
1881 378 7012 97
1882 379 593 73
1883 379 8919 98
1884 379 5317 11
1885 379 609 98
1886 379 4162 63
1887 379 7415 55
1888 380 5946 54
1889 380 5016 18
1890 380 3463 51
1891 380 5810 46
1892 380 2834 56
1893 381 5451 8
1894 381 3003 10
1895 381 4864 18
1896 381 9705 18
1897 381 4510 91
1898 381 8305 63
1899 381 2409 15
1900 381 7106 81
1901 381 6577 69
1902 381 9658 11
1903 382 5636 24
1904 382 1658 64
1905 382 9803 42
1906 382 484 6
1907 382 2438 50
1908 382 8368 65
1909 383 3095 60
1910 383 8523 17
1911 383 8178 70
1912 383 9748 93
1913 383 7695 27
1914 383 6991 9
1915 383 3492 13
1916 384 3296 83
1917 384 8498 89
1918 384 2578 65
1919 384 7530 12
1920 385 2301 95
1921 385 4896 30
1922 385 107 7
1923 385 4539 26
1924 386 6400 28
1925 386 5296 64
1926 386 8675 23
1927 386 8554 85
1928 386 6089 69
1929 386 524 20
1930 387 6847 48
1931 387 6506 32
1932 387 9166 50
1933 387 7509 19
1934 388 1212 3
1935 389 3078 22
1936 389 2022 92
1937 389 4862 48
1938 389 6161 67
1939 389 5221 76
1940 390 5396 11
1941 390 5568 13
1942 390 7165 82
1943 390 5269 28
1944 390 6554 53
1945 390 8965 56
1946 390 2386 68
1947 391 4100 84
1948 391 6056 70
1949 391 6037 7
1950 391 1118 61
1951 391 6598 69
1952 391 4667 89
1953 391 8671 78
1954 392 2676 4
1955 392 5004 85
1956 392 2997 63
1957 392 1475 6
1958 393 3015 4
1959 393 667 6
1960 393 4331 3
1961 393 1581 96
1962 393 4969 21
1963 393 6245 44
1964 393 9255 81
1965 394 8151 50
1966 394 5396 70
1967 394 5425 57
1968 394 9567 16
1969 394 7114 35
1970 394 5256 3
1971 394 4409 90
1972 395 6076 7
1973 395 4669 34
1974 395 6002 65
1975 395 3351 1
1976 395 2885 76
1977 396 3174 7
1978 396 362 76
1979 396 2017 49
1980 396 1676 42
1981 396 7280 35
1982 396 6576 93
1983 396 6011 13
1984 396 8287 13
1985 397 3100 17
1986 397 757 9
1987 397 2653 87
1988 397 4246 8
1989 397 3127 94
1990 397 3743 8
1991 397 665 46
1992 398 9546 98
1993 398 8491 39
1994 398 4062 4
1995 400 9567 9
1996 400 2375 17
1997 400 4087 27
1998 401 3623 2
1999 401 585 72
2000 401 3025 95
2001 401 457 11
2002 401 8772 92
2003 401 5386 38
2004 401 8422 56
2005 402 3354 9
2006 402 4351 7
2007 402 9793 17
2008 402 9927 89
2009 402 5201 92
2010 402 6099 90
2011 403 9026 93
2012 403 4087 12
2013 403 181 55
2014 403 7666 14
2015 403 9920 69
2016 403 5944 48
2017 403 4689 53
2018 403 7119 28
2019 404 9591 28
2020 404 6828 92
2021 405 9840 61
2022 405 6431 37
2023 405 6467 51
2024 405 472 38
2025 406 583 50
2026 406 567 91
2027 406 8089 8
2028 406 351 75
2029 407 6093 25
2030 407 160 93
2031 407 874 19
2032 407 2056 87
2033 407 6568 39
2034 407 4313 31
2035 408 5953 75
2036 408 9271 42
2037 408 693 37
2038 408 1745 48
2039 409 6482 32
2040 409 3619 16
2041 409 8173 50
2042 410 2985 25
2043 410 441 12
2044 410 5708 3
2045 411 3382 23
2046 411 5270 26
2047 411 3346 63
2048 411 2034 50
2049 411 7048 4
2050 412 7229 23
2051 412 4550 88
2052 412 1547 1
2053 412 802 10
2054 413 7759 52
2055 413 2844 30
2056 413 4795 99
2057 413 918 12
2058 413 8435 82
2059 414 3158 63
2060 414 7928 69
2061 414 7092 12
2062 414 7302 39
2063 414 4280 73
2064 414 6076 82
2065 414 1864 95
2066 415 7188 21
2067 415 5521 79
2068 415 4407 37
2069 416 8650 29
2070 416 8313 14
2071 416 7375 52
2072 416 774 65
2073 417 9978 4
2074 417 3869 40
2075 417 7055 86
2076 417 1820 23
2077 418 2335 97
2078 418 9087 57
2079 418 6724 45
2080 419 8489 33
2081 419 7867 59
2082 419 7127 95
2083 419 8187 8
2084 419 2242 100
2085 419 6703 8
2086 420 741 74
2087 420 9770 49
2088 421 1971 61
2089 421 2649 35
2090 421 8159 28
2091 421 6413 60
2092 421 4879 67
2093 421 5198 68
2094 422 2282 68
2095 422 2924 91
2096 422 7747 47
2097 422 3009 80
2098 423 7803 93
2099 424 4572 14
2100 424 2788 49
2101 424 6336 8
2102 425 4432 91
2103 425 790 91
2104 425 4521 70
2105 425 5333 24
2106 425 8832 61
2107 425 7354 28
2108 425 2621 44
2109 425 2712 89
2110 426 1923 15
2111 426 662 69
2112 426 3380 67
2113 426 6788 83
2114 426 815 18
2115 426 8336 65
2116 426 5833 16
2117 426 7871 67
2118 427 7348 53
2119 427 2097 4
2120 427 5366 52
2121 427 6504 97
2122 427 483 93
2123 427 3964 94
2124 428 9224 11
2125 428 4412 50
2126 428 7599 43
2127 428 9187 82
2128 428 458 62
2129 428 3280 57
2130 429 7169 88
2131 429 6200 34
2132 429 2817 76
2133 429 8803 19
2134 429 7525 48
2135 429 8440 39
2136 429 7036 84
2137 429 7384 33
2138 430 5217 29
2139 430 9282 11
2140 430 1812 6
2141 431 6207 44
2142 431 1171 37
2143 431 1119 21
2144 431 6422 49
2145 431 4403 84
2146 431 9125 23
2147 432 1305 17
2148 432 1733 12
2149 432 891 16
2150 432 7917 47
2151 432 7737 56
2152 432 8056 4
2153 432 127 5
2154 433 7101 48
2155 433 5840 22
2156 433 3726 98
2157 433 4072 73
2158 433 3664 68
2159 433 9435 22
2160 433 4477 10
2161 433 1246 2
2162 434 218 25
2163 434 2163 64
2164 434 227 67
2165 434 3006 1
2166 435 9507 90
2167 435 6069 6
2168 435 4572 78
2169 436 6403 74
2170 436 8429 27
2171 436 3420 38
2172 436 5708 77
2173 436 5541 82
2174 436 340 25
2175 436 2525 12
2176 437 4054 52
2177 437 8563 17
2178 437 2417 8
2179 437 5395 37
2180 437 5616 61
2181 437 5413 5
2182 437 90 10
2183 438 1698 35
2184 438 171 79
2185 438 7342 43
2186 438 6683 67
2187 438 9258 35
2188 439 5976 41
2189 439 3772 61
2190 440 4859 9
2191 440 5466 69
2192 440 9653 20
2193 440 7846 41
2194 440 7664 29
2195 440 7978 73
2196 440 5901 47
2197 440 3107 61
2198 441 2265 1
2199 442 1557 2
2200 442 1759 65
2201 442 8672 67
2202 442 2222 35
2203 442 3833 15
2204 443 7903 14
2205 443 7907 39
2206 443 1248 90
2207 443 1827 18
2208 443 9677 26
2209 444 9113 35
2210 444 6879 32
2211 444 3432 65
2212 445 4820 84
2213 445 208 78
2214 445 7936 15
2215 445 7019 29
2216 446 9947 42
2217 446 4802 99
2218 446 7494 59
2219 446 6183 38
2220 446 1170 56
2221 447 3353 42
2222 447 8350 58
2223 447 1099 92
2224 447 2104 23
2225 448 2637 14
2226 448 1150 22
2227 449 9800 32
2228 449 9226 14
2229 449 7885 6
2230 449 4053 57
2231 450 6841 69
2232 450 5038 63
2233 450 7851 74
2234 450 5548 56
2235 450 927 58
2236 450 2784 72
2237 450 3083 31
2238 450 3639 26
2239 450 6947 41
2240 450 1544 63
2241 451 29 35
2242 451 3854 75
2243 451 1957 77
2244 451 6055 74
2245 451 3542 8
2246 451 2498 12
2247 451 7182 37
2248 451 1507 25
2249 451 8254 26
2250 451 6562 38
2251 452 9818 49
2252 452 1110 49
2253 452 8510 94
2254 452 6101 15
2255 452 867 69
2256 452 5876 56
2257 452 5560 84
2258 452 9941 53
2259 452 3531 79
2260 452 6979 78
2261 453 8833 34
2262 453 8220 11
2263 453 5634 69
2264 453 9143 88
2265 453 7324 28
2266 453 7894 42
2267 453 1823 73
2268 454 3191 68
2269 454 7331 50
2270 455 2086 33
2271 455 9684 93
2272 455 9909 24
2273 455 1775 33
2274 456 6552 75
2275 456 3018 72
2276 456 4511 19
2277 456 7668 14
2278 456 1029 7
2279 457 6306 25
2280 457 7210 14
2281 457 3249 42
2282 457 2010 36
2283 457 3952 52
2284 457 3728 98
2285 457 2515 62
2286 457 2438 44
2287 458 2728 56
2288 458 1744 66
2289 458 6137 64
2290 459 5219 72
2291 459 9811 69
2292 459 6769 33
2293 459 1213 78
2294 459 3664 49
2295 460 6749 12
2296 460 6658 52
2297 460 6604 31
2298 460 208 34
2299 461 1389 19
2300 461 9658 85
2301 461 672 54
2302 461 5073 16
2303 461 5480 71
2304 461 9432 82
2305 461 3919 33
2306 461 1908 59
2307 462 166 99
2308 462 4499 43
2309 462 8113 73
2310 462 5057 74
2311 462 5103 23
2312 463 7484 81
2313 463 3764 26
2314 463 4785 16
2315 464 8938 2
2316 464 6609 40
2317 464 5192 43
2318 464 7739 96
2319 465 2469 93
2320 465 9030 87
2321 465 8359 77
2322 465 8395 1
2323 465 7889 10
2324 465 4913 6
2325 466 4997 6
2326 466 8583 1
2327 466 3677 33
2328 466 120 33
2329 466 363 8
2330 466 8366 63
2331 466 5066 17
2332 467 232 40
2333 467 5429 78
2334 467 8312 12
2335 468 5134 36
2336 468 6735 53
2337 468 3167 27
2338 469 8353 7
2339 469 6589 90
2340 470 6837 61
2341 470 7979 54
2342 470 3062 55
2343 471 7710 92
2344 471 3929 69
2345 471 1467 41
2346 471 2313 24
2347 471 8845 31
2348 471 1324 3
2349 472 5630 30
2350 472 5884 98
2351 472 7817 93
2352 473 6841 49
2353 473 9576 3
2354 473 8439 67
2355 474 5165 54
2356 474 6640 53
2357 474 5872 52
2358 474 1080 22
2359 474 1668 57
2360 474 2261 55
2361 474 6880 21
2362 475 5780 27
2363 475 4084 83
2364 475 6280 55
2365 475 5182 76
2366 475 2554 29
2367 475 3363 69
2368 476 1336 20
2369 476 8951 48
2370 476 2708 26
2371 476 4773 8
2372 476 9326 78
2373 477 5853 5
2374 477 3300 67
2375 478 6746 8
2376 478 8188 26
2377 478 2078 37
2378 479 124 41
2379 479 8398 31
2380 479 776 85
2381 479 6264 31
2382 480 2574 91
2383 480 5709 6
2384 480 9264 45
2385 480 8866 94
2386 480 4137 18
2387 481 3429 50
2388 481 782 79
2389 481 3101 84
2390 482 7498 95
2391 482 8008 5
2392 482 5336 84
2393 482 4977 83
2394 482 8365 88
2395 482 6460 81
2396 482 51 33
2397 482 2037 47
2398 482 2462 69
2399 482 9789 3
2400 482 1320 91
2401 482 2061 90
2402 483 6456 99
2403 483 1989 11
2404 483 5486 10
2405 483 1320 90
2406 484 9307 66
2407 484 3261 3
2408 484 916 56
2409 485 2577 91
2410 485 7458 14
2411 485 1840 73
2412 485 7958 28
2413 485 3067 90
2414 485 6401 90
2415 486 6448 21
2416 486 7065 60
2417 486 9811 29
2418 486 8461 46
2419 486 2033 87
2420 486 585 45
2421 487 2830 54
2422 487 6018 26
2423 487 8402 86
2424 488 6859 59
2425 488 2307 39
2426 489 7893 75
2427 489 6422 86
2428 489 2467 47
2429 489 5065 64
2430 489 5846 22
2431 489 4520 86
2432 489 9273 70
2433 489 8787 75
2434 490 4328 21
2435 490 1233 48
2436 491 3234 45
2437 491 8492 86
2438 491 221 22
2439 491 322 73
2440 491 5644 96
2441 491 6819 48
2442 492 3690 32
2443 492 4840 94
2444 492 2383 78
2445 492 9566 30
2446 492 9520 60
2447 493 6070 86
2448 493 2657 92
2449 494 9666 73
2450 494 9231 47
2451 494 6383 79
2452 494 4170 15
2453 494 8779 5
2454 494 9584 69
2455 494 4724 63
2456 494 7435 81
2457 495 6653 59
2458 495 7044 21
2459 495 3726 54
2460 496 4097 55
2461 496 7357 18
2462 497 5800 26
2463 498 3166 90
2464 498 9434 13
2465 498 8249 10
2466 498 336 82
2467 498 1215 54
2468 498 6784 88
2469 498 598 24
2470 499 2084 52
2471 499 8578 7
2472 499 8665 73
2473 499 6348 3
2474 499 1171 63
2475 500 7071 4
2476 500 702 84
2477 500 6463 56
2478 500 124 66
2479 500 1437 23
2480 500 1419 91
2481 500 6098 71
2482 500 5824 90
2483 500 9639 34
2484 500 7017 43
2485 501 541 51
2486 501 6969 56
2487 501 3260 24
2488 501 6524 9
2489 501 4967 16
2490 501 7167 66
2491 502 4396 1
2492 502 1617 16
2493 502 5666 100
2494 502 1643 3
2495 502 3018 68
2496 503 2424 26
2497 503 8141 33
2498 503 7300 4
2499 503 5529 16
2500 503 8547 29
2501 503 1234 100
2502 504 1154 72
2503 504 5550 93
2504 504 7051 5
2505 504 6958 52
2506 504 1071 92
2507 505 3573 34
2508 505 4394 11
2509 505 1327 25
2510 505 8383 18
2511 505 2104 33
2512 506 2412 64
2513 507 28 13
2514 507 4218 1
2515 507 6211 52
2516 507 8955 76
2517 507 3365 94
2518 507 2205 50
2519 507 4167 29
2520 507 9297 64
2521 508 8798 47
2522 509 3362 50
2523 509 3482 62
2524 509 426 84
2525 509 2929 48
2526 509 1001 33
2527 510 1022 37
2528 510 1511 28
2529 510 3272 38
2530 510 3797 80
2531 510 86 55
2532 510 1464 25
2533 510 4370 46
2534 511 3522 28
2535 511 1610 77
2536 511 6109 33
2537 511 8248 7
2538 512 2560 5
2539 512 9363 93
2540 512 309 15
2541 512 3908 83
2542 512 1687 94
2543 513 6317 5
2544 513 5636 22
2545 513 7083 30
2546 514 3103 62
2547 514 2332 80
2548 514 7006 56
2549 515 830 87
2550 515 8381 1
2551 515 2906 75
2552 515 42 25
2553 515 2953 40
2554 515 7462 78
2555 516 9930 22
2556 516 5878 78
2557 516 2221 40
2558 516 3320 46
2559 516 1226 81
2560 516 9663 35
2561 516 3245 15
2562 517 2522 14
2563 517 5342 54
2564 517 8274 54
2565 517 1034 82
2566 517 5260 83
2567 518 6749 33
2568 518 9373 57
2569 519 7139 92
2570 519 4089 53
2571 519 1926 22
2572 519 4014 6
2573 519 9737 53
2574 519 5008 96
2575 519 1432 56
2576 519 9137 36
2577 520 2775 83
2578 520 1294 48
2579 520 2522 90
2580 520 9356 88
2581 520 5868 53
2582 520 5033 17
2583 521 7803 6
2584 521 6564 41
2585 521 8137 21
2586 521 4226 18
2587 521 5343 36
2588 521 2665 24
2589 521 7130 63
2590 522 8096 6
2591 522 9053 6
2592 522 5761 15
2593 522 1624 20
2594 522 4402 61
2595 523 4910 88
2596 523 2505 22
2597 523 9870 53
2598 523 5907 39
2599 523 7050 9
2600 524 2914 9
2601 524 7001 32
2602 524 3106 72
2603 524 6659 31
2604 524 3755 49
2605 525 8126 59
2606 525 5410 56
2607 525 8552 83
2608 525 8017 51
2609 525 2344 96
2610 525 4 62
2611 526 6747 59
2612 526 2006 25
2613 527 272 56
2614 527 8879 41
2615 527 9475 100
2616 527 2019 93
2617 527 5366 30
2618 528 9404 57
2619 528 6738 97
2620 528 1560 82
2621 528 1605 23
2622 529 1782 63
2623 529 984 6
2624 530 5437 14
2625 530 8004 24
2626 530 5120 66
2627 530 8170 87
2628 531 8821 89
2629 531 4369 97
2630 531 5803 34
2631 531 5569 93
2632 531 736 82
2633 531 4383 41
2634 531 9004 55
2635 532 3802 72
2636 532 6514 15
2637 532 391 75
2638 532 4706 60
2639 532 4443 1
2640 532 5567 5
2641 533 4894 53
2642 533 8663 23
2643 533 5235 86
2644 534 4685 97
2645 534 3629 25
2646 534 1964 33
2647 534 1695 30
2648 534 199 7
2649 534 6771 22
2650 534 1007 9
2651 535 3479 24
2652 535 3387 78
2653 535 6542 92
2654 535 2799 11
2655 536 2942 64
2656 536 9228 16
2657 536 5285 96
2658 536 3805 39
2659 536 4316 57
2660 536 837 56
2661 536 5209 44
2662 536 8843 64
2663 536 3007 25
2664 537 1166 15
2665 537 8224 10
2666 537 7641 46
2667 537 4085 65
2668 537 8526 46
2669 537 7721 30
2670 537 1665 57
2671 538 6875 3
2672 538 4372 12
2673 539 8773 72
2674 539 1817 74
2675 539 226 18
2676 539 9742 39
2677 539 9189 5
2678 539 4928 18
2679 540 5029 100
2680 540 7474 55
2681 540 8222 28
2682 540 7608 33
2683 540 9721 25
2684 541 5936 24
2685 541 133 46
2686 541 3370 65
2687 541 6953 58
2688 541 5699 27
2689 541 7233 53
2690 541 1163 74
2691 542 5080 71
2692 542 6178 66
2693 542 5033 93
2694 542 4430 70
2695 542 3307 95
2696 543 481 27
2697 543 8528 23
2698 543 5863 5
2699 543 5704 50
2700 543 3178 79
2701 544 2181 98
2702 544 2622 72
2703 544 8916 68
2704 544 8660 57
2705 544 582 69
2706 544 703 66
2707 544 724 54
2708 544 1081 55
2709 544 7302 2
2710 545 7180 36
2711 545 8580 6
2712 545 3601 72
2713 545 3614 32
2714 545 1850 29
2715 546 7613 32
2716 546 1653 25
2717 546 9926 72
2718 546 1337 19
2719 546 6294 42
2720 546 938 12
2721 547 7632 28
2722 547 4318 93
2723 547 7761 1
2724 547 3807 36
2725 548 5448 11
2726 548 8610 15
2727 548 1948 92
2728 548 492 74
2729 548 1614 33
2730 548 5740 13
2731 549 7032 44
2732 549 9767 7
2733 549 1693 42
2734 549 527 14
2735 550 5294 82
2736 550 4355 45
2737 550 7770 21
2738 550 930 85
2739 550 6814 33
2740 550 9491 6
2741 550 5201 29
2742 550 7955 19
2743 550 1637 97
2744 550 722 66
2745 551 5788 47
2746 551 5649 37
2747 551 5300 84
2748 551 1992 51
2749 551 22 24
2750 551 9546 62
2751 551 7273 2
2752 551 7790 65
2753 552 3359 42
2754 552 3948 48
2755 552 8020 27
2756 552 9199 15
2757 552 3617 99
2758 552 293 100
2759 553 4537 77
2760 553 7382 22
2761 553 2815 57
2762 553 1065 97
2763 554 607 79
2764 554 5101 54
2765 554 2129 8
2766 554 4982 86
2767 555 3093 44
2768 555 5653 88
2769 555 4312 5
2770 556 4620 50
2771 556 7388 2
2772 557 8323 33
2773 557 2006 76
2774 557 8024 74
2775 557 5075 71
2776 557 7705 83
2777 557 9572 11
2778 557 5712 40
2779 557 393 3
2780 558 1591 40
2781 558 185 97
2782 558 1252 37
2783 558 2854 18
2784 558 8016 71
2785 558 7994 100
2786 559 5609 65
2787 559 2336 51
2788 559 6919 67
2789 559 7858 47
2790 560 9132 59
2791 560 6938 52
2792 560 9609 85
2793 560 8340 31
2794 560 1858 46
2795 561 3755 53
2796 561 5117 10
2797 561 7945 52
2798 561 8269 39
2799 561 9260 16
2800 562 6962 36
2801 562 77 50
2802 562 7955 96
2803 562 7183 95
2804 562 4435 28
2805 562 2759 91
2806 562 3604 46
2807 563 889 41
2808 563 3233 24
2809 564 5250 66
2810 564 3194 44
2811 564 1048 31
2812 565 2440 65
2813 565 472 47
2814 565 3182 76
2815 565 9416 80
2816 565 1987 16
2817 565 8587 89
2818 565 5115 35
2819 565 9363 46
2820 565 8875 57
2821 565 5611 54
2822 565 6841 13
2823 566 6910 70
2824 566 6409 1
2825 566 5235 78
2826 566 7659 73
2827 567 8978 2
2828 567 873 12
2829 567 4440 24
2830 567 7573 66
2831 567 5248 23
2832 567 4160 51
2833 567 3546 60
2834 567 9614 29
2835 568 3232 62
2836 568 4637 53
2837 569 3234 54
2838 569 3627 51
2839 569 2390 82
2840 569 7250 27
2841 569 8069 61
2842 569 4640 59
2843 570 1025 13
2844 570 2436 50
2845 571 4891 58
2846 571 3503 13
2847 571 428 51
2848 571 8427 89
2849 571 6660 83
2850 572 2252 62
2851 572 359 96
2852 572 6898 84
2853 573 779 62
2854 573 4962 31
2855 573 7242 19
2856 574 1747 40
2857 574 6761 51
2858 574 4041 71
2859 574 1315 15
2860 574 2977 55
2861 574 9720 97
2862 575 9116 37
2863 575 8082 35
2864 575 486 82
2865 575 1069 3
2866 575 5748 39
2867 575 9296 88
2868 575 4590 96
2869 575 1586 37
2870 575 6428 87
2871 576 2903 76
2872 576 3518 73
2873 577 4466 72
2874 577 9126 61
2875 578 5238 45
2876 578 9395 53
2877 578 5282 95
2878 578 9291 51
2879 578 381 83
2880 578 522 17
2881 579 6631 24
2882 579 6524 25
2883 579 5192 43
2884 579 8820 3
2885 579 6322 58
2886 579 6836 96
2887 579 1713 61
2888 580 1059 95
2889 580 7680 51
2890 580 533 12
2891 580 9855 29
2892 580 5295 9
2893 581 1183 37
2894 581 6706 61
2895 581 2967 89
2896 582 6363 28
2897 582 2365 37
2898 582 5362 80
2899 583 8535 35
2900 583 4792 94
2901 583 5128 80
2902 583 1439 60
2903 583 5564 54
2904 583 3528 27
2905 583 5680 28
2906 583 2380 4
2907 583 1964 4
2908 583 9290 16
2909 583 6070 96
2910 584 3071 12
2911 584 4072 74
2912 584 2076 84
2913 584 1828 58
2914 584 9607 19
2915 584 3764 72
2916 585 9699 78
2917 585 9184 90
2918 585 8809 86
2919 585 7074 64
2920 586 2163 84
2921 586 4254 27
2922 586 8363 33
2923 586 9735 56
2924 586 7813 48
2925 586 5778 84
2926 587 448 55
2927 587 9178 82
2928 587 9994 31
2929 587 617 31
2930 587 7716 18
2931 587 3294 90
2932 587 2215 29
2933 588 6546 55
2934 588 2822 34
2935 588 4937 83
2936 588 7145 22
2937 588 781 14
2938 588 2840 57
2939 588 3685 11
2940 588 6428 16
2941 588 9879 59
2942 588 7886 15
2943 588 6746 59
2944 589 1683 39
2945 589 444 40
2946 590 7532 94
2947 590 7183 84
2948 591 5380 64
2949 591 3654 72
2950 591 2276 21
2951 591 8955 55
2952 591 8097 66
2953 592 3247 93
2954 592 2695 21
2955 592 9411 35
2956 593 8758 29
2957 593 8274 29
2958 593 4987 18
2959 594 4363 49
2960 594 9609 67
2961 594 5125 38
2962 594 5962 97
2963 595 4269 88
2964 595 4389 91
2965 595 3503 50
2966 595 6023 93
2967 595 2737 71
2968 596 6443 100
2969 596 2653 97
2970 596 892 62
2971 596 3071 12
2972 596 5258 21
2973 596 1623 73
2974 596 4837 62
2975 597 5601 7
2976 597 8153 66
2977 597 1743 41
2978 597 841 21
2979 597 3231 66
2980 597 6438 78
2981 597 1066 58
2982 597 6612 45
2983 597 5784 28
2984 598 2635 3
2985 598 97 8
2986 598 139 38
2987 598 54 75
2988 598 8815 17
2989 598 3686 39
2990 598 456 91
2991 598 7005 79
2992 599 3396 43
2993 599 5454 10
2994 599 3593 62
2995 599 7649 30
2996 600 4171 27
2997 600 4991 11
2998 601 7989 49
2999 601 3027 71
3000 602 4173 27
3001 602 5785 36
3002 603 8604 71
3003 603 4620 62
3004 603 9570 99
3005 603 3377 8
3006 603 4930 79
3007 604 6361 62
3008 604 4421 21
3009 604 1738 88
3010 604 6657 18
3011 605 3510 31
3012 605 3861 20
3013 605 9937 14
3014 605 8714 8
3015 605 9953 48
3016 605 834 57
3017 605 7277 73
3018 605 3408 62
3019 605 7331 71
3020 606 2830 18
3021 606 9267 18
3022 606 5626 82
3023 606 8516 1
3024 607 1451 11
3025 607 342 44
3026 607 8301 32
3027 607 4010 48
3028 608 1143 56
3029 608 5601 87
3030 608 780 86
3031 608 80 68
3032 608 7193 69
3033 608 3201 83
3034 608 761 22
3035 608 3823 4
3036 608 9196 58
3037 609 3535 84
3038 609 7743 40
3039 609 83 59
3040 609 628 53
3041 609 1156 64
3042 610 9114 63
3043 610 7443 4
3044 610 6427 88
3045 610 5901 82
3046 610 6782 77
3047 611 3526 1
3048 611 9632 28
3049 611 7226 32
3050 611 5000 74
3051 612 7647 31
3052 612 8087 87
3053 612 9507 10
3054 612 6462 80
3055 612 4912 46
3056 613 285 17
3057 613 9590 33
3058 614 5331 17
3059 614 1142 57
3060 614 9519 2
3061 615 1965 23
3062 615 6690 15
3063 615 3817 97
3064 615 9667 19
3065 615 8860 63
3066 615 4160 60
3067 616 8100 78
3068 617 7757 83
3069 617 4952 3
3070 617 4928 31
3071 617 6873 11
3072 618 7879 40
3073 618 2367 4
3074 618 5944 67
3075 618 7800 92
3076 618 7327 74
3077 618 4922 40
3078 618 3952 40
3079 619 8698 3
3080 619 1312 3
3081 619 8320 97
3082 620 6060 59
3083 620 79 56
3084 620 3082 26
3085 621 1665 11
3086 621 1661 93
3087 621 7589 3
3088 621 3837 58
3089 621 7087 90
3090 622 3164 20
3091 622 8071 65
3092 622 9238 94
3093 622 150 9
3094 622 7516 63
3095 622 2338 24
3096 622 4602 86
3097 623 9802 83
3098 623 9045 48
3099 623 6297 78
3100 623 113 94
3101 624 4371 54
3102 624 7276 10
3103 624 6248 69
3104 624 8651 98
3105 624 3542 50
3106 625 9819 45
3107 625 3200 87
3108 625 5293 37
3109 625 9286 5
3110 625 892 83
3111 625 2978 73
3112 625 416 69
3113 626 5067 79
3114 626 7957 33
3115 626 1572 31
3116 626 5588 17
3117 627 9685 42
3118 627 866 93
3119 627 7656 15
3120 627 8577 84
3121 627 3067 67
3122 628 9343 34
3123 628 3146 58
3124 628 3093 48
3125 628 2422 2
3126 628 3398 54
3127 629 2104 15
3128 629 2413 31
3129 629 7571 68
3130 629 7312 39
3131 629 1324 86
3132 630 2263 11
3133 630 9399 36
3134 631 4047 88
3135 631 7229 62
3136 631 7299 56
3137 631 1251 16
3138 631 3617 40
3139 631 7803 81
3140 632 8712 68
3141 632 77 57
3142 632 1033 67
3143 632 2150 36
3144 632 8614 19
3145 633 64 25
3146 633 5979 18
3147 633 365 57
3148 633 3569 60
3149 633 7026 14
3150 633 5737 38
3151 633 4490 4
3152 634 3144 37
3153 634 6910 70
3154 634 8683 16
3155 635 6688 10
3156 635 582 94
3157 635 5217 63
3158 635 1208 77
3159 635 4336 30
3160 636 5853 43
3161 636 5945 93
3162 636 494 79
3163 636 6807 76
3164 636 1091 27
3165 636 426 14
3166 637 2585 63
3167 637 6699 48
3168 637 6713 67
3169 637 586 22
3170 637 9616 83
3171 638 1103 4
3172 638 8327 34
3173 638 6615 48
3174 638 4821 62
3175 639 1014 78
3176 639 4576 15
3177 640 8511 66
3178 640 9240 92
3179 640 8590 48
3180 640 6319 32
3181 640 3035 10
3182 640 9617 87
3183 641 4550 6
3184 641 4715 55
3185 641 8339 71
3186 641 3104 32
3187 641 5141 26
3188 642 3540 64
3189 642 5620 43
3190 642 8139 1
3191 642 9818 6
3192 642 9996 83
3193 643 2223 80
3194 643 745 17
3195 643 5811 33
3196 644 4130 24
3197 644 8407 18
3198 644 467 32
3199 645 7054 6
3200 645 292 41
3201 646 7695 33
3202 646 5701 9
3203 646 3765 61
3204 646 6293 23
3205 647 635 3
3206 647 8866 89
3207 647 8952 76
3208 647 1567 39
3209 647 9206 71
3210 648 8281 45
3211 648 7430 17
3212 648 8407 88
3213 648 2030 76
3214 648 730 7
3215 649 7950 40
3216 649 5090 97
3217 649 9806 19
3218 650 3953 20
3219 650 9973 97
3220 650 7572 46
3221 650 9699 36
3222 650 9956 85
3223 650 7773 33
3224 651 1880 50
3225 651 7069 46
3226 651 3213 80
3227 651 8970 27
3228 651 2557 11
3229 651 8767 24
3230 651 7908 8
3231 651 4358 8
3232 652 1571 87
3233 652 8544 42
3234 652 7953 34
3235 652 916 75
3236 652 9914 37
3237 652 8252 14
3238 653 518 45
3239 653 6898 75
3240 654 6129 11
3241 654 3144 43
3242 654 609 25
3243 654 6717 57
3244 654 7765 74
3245 654 9657 56
3246 654 5452 28
3247 654 2960 35
3248 654 2235 80
3249 655 1831 49
3250 655 192 97
3251 655 2883 79
3252 655 6383 69
3253 655 5238 96
3254 656 342 1
3255 656 8736 95
3256 656 3131 36
3257 656 293 65
3258 657 9206 40
3259 657 8072 94
3260 657 1474 19
3261 657 2653 56
3262 657 643 29
3263 657 4863 88
3264 658 4450 86
3265 658 3833 74
3266 658 9616 74
3267 658 2359 71
3268 659 8039 21
3269 659 6945 85
3270 659 6232 50
3271 659 8820 56
3272 659 2259 90
3273 659 6114 75
3274 659 409 30
3275 660 1075 84
3276 660 3349 55
3277 660 6145 49
3278 660 7232 29
3279 660 6468 9
3280 660 5399 52
3281 660 9814 33
3282 660 9036 79
3283 661 3845 33
3284 661 7978 18
3285 661 556 64
3286 661 7743 3
3287 661 9227 18
3288 661 4818 65
3289 661 5691 24
3290 661 5777 22
3291 662 6997 4
3292 662 772 17
3293 662 7300 57
3294 662 9256 83
3295 662 2831 38
3296 662 6359 11
3297 663 4918 83
3298 663 3061 72
3299 663 9696 81
3300 663 2766 82
3301 664 3932 81
3302 664 1739 6
3303 664 5547 63
3304 665 8825 20
3305 665 8855 58
3306 665 9828 50
3307 665 5513 11
3308 665 141 80
3309 665 8732 9
3310 665 9491 74
3311 666 151 76
3312 666 1385 47
3313 667 5353 15
3314 667 9311 22
3315 667 4587 11
3316 667 1389 41
3317 667 1917 8
3318 667 2612 60
3319 667 6444 25
3320 668 4302 64
3321 668 8880 31
3322 668 3971 71
3323 669 9889 77
3324 669 5294 58
3325 669 9141 17
3326 669 3959 6
3327 669 1877 25
3328 669 1057 1
3329 669 238 6
3330 670 4069 15
3331 670 7814 34
3332 670 5720 91
3333 670 9915 8
3334 671 6389 35
3335 671 8566 5
3336 671 949 84
3337 672 1094 90
3338 672 3173 98
3339 672 6484 38
3340 672 6280 9
3341 672 9756 60
3342 672 973 47
3343 672 6363 38
3344 672 5536 94
3345 672 1925 51
3346 674 4506 43
3347 674 751 44
3348 674 3107 78
3349 674 8320 61
3350 674 747 7
3351 674 5584 34
3352 675 5128 9
3353 675 5629 2
3354 675 8555 1
3355 675 739 89
3356 675 3418 67
3357 675 3036 93
3358 676 1327 5
3359 676 2039 50
3360 676 9990 1
3361 676 208 30
3362 676 4432 40
3363 676 4983 31
3364 676 2499 23
3365 676 1950 59
3366 677 5455 16
3367 678 6283 66
3368 678 9150 7
3369 678 638 85
3370 678 5248 29
3371 678 244 6
3372 679 6698 23
3373 679 544 3
3374 679 5569 67
3375 679 9917 24
3376 679 3455 74
3377 679 2492 19
3378 680 7756 92
3379 680 9295 73
3380 680 6881 26
3381 680 8907 57
3382 680 4923 27
3383 681 2161 49
3384 682 886 51
3385 682 8522 84
3386 682 1992 5
3387 682 4110 35
3388 682 5485 58
3389 682 9743 7
3390 683 1551 83
3391 683 1489 6
3392 683 7546 24
3393 683 3513 1
3394 683 1748 51
3395 683 8696 68
3396 684 1220 86
3397 684 9863 30
3398 685 4149 62
3399 685 4843 29
3400 685 2700 28
3401 685 6479 99
3402 685 8589 73
3403 686 4278 44
3404 686 6965 38
3405 686 302 5
3406 686 3486 78
3407 687 741 83
3408 687 5812 39
3409 687 9302 80
3410 687 1347 29
3411 687 9821 73
3412 687 4940 88
3413 688 3489 41
3414 688 6812 86
3415 688 7992 19
3416 688 1666 86
3417 688 6310 21
3418 688 3200 16
3419 688 1773 55
3420 688 3755 68
3421 688 3322 14
3422 689 60 64
3423 689 5728 33
3424 689 2084 81
3425 690 6129 66
3426 690 1706 24
3427 690 7150 78
3428 690 6627 67
3429 690 4564 48
3430 691 3866 85
3431 691 5375 32
3432 692 7950 58
3433 692 1527 21
3434 692 8746 29
3435 692 8081 79
3436 692 9121 26
3437 693 6716 96
3438 693 1021 40
3439 693 2952 100
3440 693 6673 25
3441 693 1582 34
3442 693 8973 62
3443 694 9264 8
3444 694 8329 83
3445 694 576 19
3446 694 2339 2
3447 695 4662 7
3448 695 8710 92
3449 696 8218 5
3450 696 9568 38
3451 696 7253 60
3452 696 2731 29
3453 696 3719 96
3454 697 4602 31
3455 697 3415 67
3456 697 3831 45
3457 697 990 49
3458 698 2475 84
3459 698 478 28
3460 698 8077 37
3461 698 3001 29
3462 698 3135 86
3463 699 8431 25
3464 699 4659 35
3465 699 5446 61
3466 699 9568 49
3467 699 6671 23
3468 700 3479 94
3469 701 7570 7
3470 701 1617 72
3471 701 8036 70
3472 701 7667 66
3473 701 7843 16
3474 701 2582 73
3475 701 8719 74
3476 702 650 27
3477 702 2225 50
3478 702 2054 75
3479 702 4888 48
3480 703 1229 67
3481 703 3764 37
3482 703 6458 72
3483 704 9667 33
3484 704 4763 65
3485 704 8205 62
3486 704 9884 40
3487 705 288 28
3488 705 7348 60
3489 705 9319 77
3490 705 105 80
3491 705 686 70
3492 705 2359 80
3493 705 5691 75
3494 705 2730 84
3495 705 2353 84
3496 706 8760 97
3497 706 674 17
3498 706 1922 76
3499 706 494 86
3500 706 9532 40
3501 706 2234 69
3502 706 2938 14
3503 707 454 56
3504 707 4344 68
3505 707 426 16
3506 707 2689 90
3507 707 5076 87
3508 707 2098 51
3509 708 2573 17
3510 708 3922 11
3511 708 3674 77
3512 709 1388 30
3513 709 7663 60
3514 709 3669 30
3515 710 5141 74
3516 710 1390 83
3517 710 9384 63
3518 710 9992 71
3519 710 9732 11
3520 710 6363 17
3521 710 5102 1
3522 710 9328 18
3523 710 5387 92
3524 710 8664 12
3525 711 356 62
3526 711 5740 61
3527 712 3215 69
3528 712 1578 7
3529 712 9909 35
3530 712 6099 59
3531 712 4829 53
3532 713 288 62
3533 713 8398 55
3534 713 1037 24
3535 713 4724 84
3536 713 3862 74
3537 713 3020 46
3538 713 4522 39
3539 714 7966 11
3540 714 211 95
3541 714 6013 67
3542 715 523 38
3543 715 3280 6
3544 715 1296 51
3545 715 5256 93
3546 715 3408 13
3547 715 4036 32
3548 716 4601 77
3549 716 9422 21
3550 716 3237 65
3551 717 6841 59
3552 717 6764 42
3553 717 6601 18
3554 717 2464 58
3555 717 2118 93
3556 717 2437 15
3557 718 4997 35
3558 718 4507 13
3559 718 7632 100
3560 719 5751 60
3561 719 6527 12
3562 719 574 54
3563 719 4592 34
3564 719 8769 14
3565 720 1109 9
3566 720 8286 99
3567 720 9385 1
3568 720 6387 39
3569 721 8264 17
3570 721 4198 39
3571 721 6578 8
3572 723 8150 54
3573 723 902 78
3574 723 1508 26
3575 723 2208 28
3576 723 9784 27
3577 723 4322 47
3578 724 3570 82
3579 724 1087 80
3580 724 90 79
3581 724 8287 28
3582 725 7855 40
3583 725 4865 4
3584 725 8948 75
3585 725 694 19
3586 725 1266 39
3587 725 9149 32
3588 725 7202 42
3589 726 1945 5
3590 726 3408 24
3591 726 9358 78
3592 726 5664 77
3593 726 2579 37
3594 726 9162 3
3595 726 9272 8
3596 726 5175 55
3597 727 7820 61
3598 727 4473 78
3599 727 4985 30
3600 727 3865 81
3601 727 7706 11
3602 728 1723 85
3603 728 3363 46
3604 728 4108 84
3605 728 3708 45
3606 728 6014 31
3607 728 9093 70
3608 729 1950 52
3609 729 4421 80
3610 729 764 55
3611 729 6047 17
3612 729 8425 23
3613 730 7705 70
3614 730 1988 53
3615 730 5693 56
3616 730 2430 86
3617 730 4792 25
3618 730 2346 45
3619 730 8408 28
3620 731 9167 84
3621 731 921 95
3622 732 5200 60
3623 732 5242 75
3624 732 795 88
3625 732 2330 26
3626 733 1560 6
3627 733 4578 90
3628 733 9446 77
3629 733 9803 88
3630 734 4119 38
3631 734 4408 81
3632 734 5962 66
3633 734 7596 62
3634 734 3575 63
3635 734 3924 67
3636 734 2755 6
3637 735 8530 88
3638 735 326 64
3639 735 7358 89
3640 736 7709 15
3641 736 8291 38
3642 737 5544 29
3643 737 433 92
3644 737 2944 79
3645 738 5240 14
3646 738 7821 73
3647 738 1218 47
3648 738 5574 90
3649 738 6240 18
3650 738 2664 40
3651 739 5966 67
3652 739 7157 25
3653 739 8143 59
3654 739 4512 23
3655 739 5609 21
3656 739 3039 59
3657 739 5149 74
3658 740 9970 67
3659 740 4942 64
3660 740 6699 76
3661 741 2116 48
3662 741 7981 37
3663 741 4766 61
3664 742 8901 51
3665 742 2952 24
3666 743 531 73
3667 743 5701 57
3668 743 8349 95
3669 743 1993 53
3670 744 382 95
3671 744 9420 41
3672 744 2998 46
3673 744 7512 86
3674 744 8514 63
3675 745 92 85
3676 745 6190 40
3677 745 9565 79
3678 745 8003 58
3679 745 1630 88
3680 745 1622 14
3681 745 2661 73
3682 746 9239 78
3683 746 5898 75
3684 747 878 30
3685 747 5802 61
3686 747 1321 2
3687 747 9555 17
3688 747 626 75
3689 747 3611 3
3690 748 753 78
3691 748 2334 64
3692 748 3521 9
3693 748 5970 84
3694 748 7834 48
3695 748 8265 27
3696 749 908 13
3697 749 5611 34
3698 749 192 36
3699 749 3364 73
3700 749 9614 90
3701 749 6670 62
3702 749 4847 90
3703 749 6243 82
3704 750 9238 41
3705 750 7930 93
3706 750 7658 22
3707 750 3209 65
3708 750 4040 98
3709 750 7108 91
3710 751 7376 64
3711 751 9669 95
3712 751 5455 17
3713 751 6367 82
3714 752 5965 89
3715 752 2978 16
3716 752 2644 23
3717 752 742 82
3718 753 8617 76
3719 753 3902 41
3720 753 9275 4
3721 753 7131 43
3722 753 514 95
3723 754 8784 45
3724 754 7770 85
3725 754 5481 40
3726 755 3982 8
3727 755 4207 87
3728 755 5785 28
3729 755 9483 63
3730 755 9368 52
3731 756 2325 18
3732 756 9987 11
3733 756 8263 91
3734 757 2796 34
3735 757 8249 17
3736 757 6707 14
3737 758 2679 16
3738 758 8910 3
3739 758 278 26
3740 758 4398 91
3741 758 8637 25
3742 758 1201 5
3743 759 1564 28
3744 759 7003 39
3745 759 7005 13
3746 759 3335 32
3747 759 1101 2
3748 760 6722 63
3749 761 9039 76
3750 761 7540 67
3751 761 1577 3
3752 761 5349 65
3753 761 4526 58
3754 761 1148 77
3755 761 9860 8
3756 762 4296 62
3757 762 4720 48
3758 762 2895 71
3759 763 4823 91
3760 763 4806 66
3761 763 161 37
3762 763 4506 57
3763 763 2194 30
3764 763 7958 94
3765 763 748 8
3766 764 6025 25
3767 765 6940 4
3768 765 6441 40
3769 765 4019 71
3770 765 789 47
3771 765 8740 73
3772 766 6882 35
3773 766 6379 30
3774 766 8453 60
3775 766 3752 41
3776 766 5685 42
3777 767 9284 26
3778 767 3877 99
3779 767 5794 60
3780 767 9205 82
3781 767 5409 29
3782 768 302 52
3783 768 3846 96
3784 769 999 12
3785 769 3805 85
3786 769 7672 39
3787 769 8652 3
3788 770 826 40
3789 770 66 16
3790 770 4193 42
3791 770 953 14
3792 770 2947 39
3793 770 4800 83
3794 770 193 85
3795 770 3701 74
3796 770 9087 84
3797 771 7976 13
3798 771 315 58
3799 771 5510 62
3800 771 4620 67
3801 771 3819 84
3802 772 565 74
3803 772 732 26
3804 772 3579 22
3805 772 6355 12
3806 772 8053 58
3807 772 6169 62
3808 772 4871 97
3809 773 9736 42
3810 773 5790 25
3811 773 2144 52
3812 773 1473 17
3813 773 7130 25
3814 773 2865 22
3815 774 4778 81
3816 774 8842 50
3817 774 3239 91
3818 774 5812 57
3819 774 3856 8
3820 774 5449 95
3821 775 8018 70
3822 775 2267 69
3823 775 9150 45
3824 775 3545 95
3825 775 3684 84
3826 775 7723 92
3827 776 8081 63
3828 776 1087 4
3829 776 1919 56
3830 777 3147 69
3831 777 7929 70
3832 777 5093 65
3833 777 6648 56
3834 777 7684 44
3835 777 7027 38
3836 778 9668 90
3837 778 9639 56
3838 778 7116 63
3839 778 1427 20
3840 778 5391 32
3841 778 9876 96
3842 778 7382 23
3843 778 8779 10
3844 778 2427 30
3845 779 2843 42
3846 779 8202 27
3847 780 9845 72
3848 780 3067 26
3849 780 7210 98
3850 780 3388 25
3851 780 8970 24
3852 780 3640 2
3853 780 4546 59
3854 780 8295 28
3855 781 4835 91
3856 781 2862 67
3857 781 1477 3
3858 781 4486 8
3859 781 432 71
3860 781 4047 92
3861 782 647 74
3862 782 6686 39
3863 782 2989 47
3864 783 832 58
3865 783 4424 53
3866 783 300 20
3867 783 5335 75
3868 783 6534 36
3869 783 9086 16
3870 783 232 14
3871 783 4126 18
3872 783 9891 77
3873 784 8461 23
3874 784 5167 52
3875 784 4417 53
3876 784 2542 94
3877 784 9671 95
3878 784 483 11
3879 784 3289 14
3880 784 4051 44
3881 785 9275 98
3882 785 4931 20
3883 785 4046 46
3884 785 2323 45
3885 785 1746 76
3886 786 4192 89
3887 786 4453 99
3888 786 6022 11
3889 786 6921 79
3890 787 3208 31
3891 787 3053 96
3892 787 974 98
3893 787 2398 47
3894 787 2422 80
3895 788 4581 21
3896 788 615 6
3897 788 7070 33
3898 789 9414 59
3899 789 143 46
3900 789 3768 81
3901 789 8371 84
3902 790 4774 37
3903 790 3936 64
3904 790 6152 28
3905 790 2018 7
3906 790 4156 28
3907 790 7925 54
3908 790 3659 62
3909 790 6956 79
3910 790 263 37
3911 791 300 32
3912 791 907 51
3913 791 7804 62
3914 791 8138 46
3915 792 196 59
3916 792 9104 38
3917 793 3132 26
3918 793 5026 49
3919 793 5287 51
3920 794 5991 59
3921 794 2280 69
3922 795 2515 3
3923 795 8776 15
3924 795 8341 94
3925 795 4878 17
3926 795 5061 42
3927 796 6663 95
3928 796 4897 31
3929 796 1803 13
3930 796 4097 93
3931 796 2328 71
3932 797 8041 69
3933 797 9067 73
3934 797 7213 34
3935 798 7532 58
3936 798 9956 24
3937 798 985 93
3938 799 8620 53
3939 799 776 12
3940 799 7259 8
3941 799 215 8
3942 799 5551 33
3943 799 6045 13
3944 800 2393 90
3945 800 5028 86
3946 800 101 28
3947 801 2841 51
3948 801 5338 39
3949 801 2492 60
3950 802 2467 43
3951 802 7973 17
3952 803 1995 18
3953 803 4783 63
3954 803 3170 48
3955 803 6699 96
3956 804 7713 31
3957 804 3759 86
3958 804 6662 77
3959 804 1833 99
3960 804 7313 56
3961 804 9196 35
3962 804 6471 2
3963 805 6235 95
3964 805 2431 46
3965 805 2722 56
3966 806 9275 66
3967 806 6373 46
3968 806 7468 44
3969 806 2143 78
3970 807 2422 95
3971 807 6949 64
3972 807 8675 83
3973 807 6741 38
3974 807 1824 77
3975 808 9497 26
3976 808 3079 14
3977 808 3592 45
3978 808 3876 89
3979 808 4447 6
3980 808 8391 30
3981 808 5249 38
3982 809 2306 87
3983 809 4419 38
3984 810 8936 94
3985 810 756 43
3986 810 6631 3
3987 811 4628 90
3988 811 7566 61
3989 811 3422 62
3990 812 3076 51
3991 812 601 26
3992 812 5047 60
3993 812 9706 67
3994 812 6772 50
3995 812 9383 5
3996 812 6519 91
3997 812 2325 10
3998 812 84 65
3999 812 1703 36
4000 813 9968 77
4001 813 1381 74
4002 813 345 66
4003 813 6034 65
4004 814 7545 52
4005 814 2375 14
4006 814 3668 1
4007 814 2719 81
4008 815 8219 36
4009 815 8607 58
4010 816 8659 17
4011 816 4602 67
4012 816 4160 50
4013 816 4249 2
4014 816 8472 1
4015 816 9892 78
4016 816 8787 75
4017 816 9285 72
4018 816 307 7
4019 816 7438 6
4020 817 3506 87
4021 817 2797 67
4022 817 2400 84
4023 818 6148 56
4024 818 930 92
4025 818 3557 28
4026 818 5302 52
4027 818 5857 29
4028 818 3094 46
4029 818 5543 53
4030 819 9826 6
4031 819 6855 26
4032 819 2775 81
4033 819 5566 90
4034 820 8803 47
4035 820 4707 45
4036 820 499 96
4037 820 919 6
4038 820 4590 99
4039 821 1462 41
4040 821 6931 18
4041 821 4188 47
4042 821 5963 10
4043 822 1299 82
4044 822 7214 21
4045 823 8536 24
4046 823 3328 28
4047 824 1644 85
4048 824 5208 53
4049 824 6435 74
4050 824 1251 58
4051 824 2463 94
4052 824 4177 39
4053 824 3072 76
4054 825 2962 22
4055 825 1551 52
4056 825 413 73
4057 825 1531 67
4058 826 4087 58
4059 826 3058 80
4060 826 4730 42
4061 826 3155 91
4062 826 1598 25
4063 826 2563 51
4064 827 3191 6
4065 827 5287 65
4066 827 3818 8
4067 827 549 83
4068 827 8124 38
4069 827 6062 81
4070 828 7426 67
4071 828 7624 14
4072 828 7691 88
4073 828 6493 88
4074 829 4648 100
4075 829 8664 42
4076 829 9492 56
4077 829 1667 99
4078 830 2145 67
4079 830 9281 73
4080 830 6646 23
4081 831 8645 9
4082 831 2695 52
4083 831 3697 52
4084 832 5091 66
4085 832 5305 81
4086 833 1869 70
4087 833 5858 40
4088 833 1038 74
4089 833 1762 16
4090 833 3318 32
4091 833 3623 7
4092 833 9304 36
4093 834 9988 6
4094 834 1876 41
4095 834 2352 78
4096 834 4187 44
4097 834 2253 48
4098 834 4194 57
4099 834 217 12
4100 835 4124 30
4101 835 2903 32
4102 835 8678 45
4103 835 6024 5
4104 835 7185 92
4105 835 9484 30
4106 835 6095 78
4107 835 6669 34
4108 835 4348 35
4109 836 4524 58
4110 836 8541 22
4111 836 2513 79
4112 836 3985 56
4113 836 5087 21
4114 836 4986 19
4115 836 3986 27
4116 836 9863 74
4117 836 3404 19
4118 836 7858 91
4119 836 9018 24
4120 837 6005 97
4121 837 1437 42
4122 837 4700 60
4123 837 6805 45
4124 838 7749 34
4125 838 2728 69
4126 838 5093 83
4127 838 8292 46
4128 838 3659 13
4129 838 2535 82
4130 839 9236 76
4131 839 8009 71
4132 839 8731 63
4133 839 3876 79
4134 840 1053 59
4135 840 3366 12
4136 840 9948 41
4137 840 9319 55
4138 841 1313 25
4139 841 704 93
4140 841 814 81
4141 841 6567 49
4142 841 9974 79
4143 842 9369 6
4144 842 8810 90
4145 842 5770 7
4146 842 6669 16
4147 842 3412 42
4148 842 9585 26
4149 843 3950 76
4150 843 1485 57
4151 843 3457 96
4152 844 129 36
4153 844 1744 26
4154 844 6572 57
4155 845 8136 40
4156 845 2369 79
4157 845 3427 3
4158 845 703 86
4159 845 306 3
4160 845 6276 26
4161 846 2811 85
4162 846 8230 46
4163 846 6306 39
4164 846 1166 99
4165 847 4649 45
4166 847 1789 38
4167 847 9374 58
4168 847 8598 79
4169 847 1449 78
4170 848 4586 76
4171 848 987 17
4172 848 2539 66
4173 848 4034 90
4174 849 1141 18
4175 849 6701 80
4176 849 4460 32
4177 849 1383 48
4178 850 678 22
4179 850 4778 60
4180 850 2229 84
4181 850 6560 32
4182 850 7802 19
4183 850 1395 50
4184 850 2214 46
4185 850 5339 47
4186 851 842 90
4187 851 9979 24
4188 851 8318 26
4189 851 864 27
4190 851 727 25
4191 851 9941 54
4192 852 2284 29
4193 852 5326 59
4194 852 9058 57
4195 852 9572 44
4196 852 3870 46
4197 853 874 75
4198 853 2000 15
4199 853 3463 89
4200 853 6467 75
4201 854 7562 69
4202 854 4568 92
4203 854 7055 85
4204 854 5972 13
4205 854 1034 47
4206 854 467 40
4207 855 9135 25
4208 855 1461 91
4209 855 7024 88
4210 855 2051 80
4211 856 1278 92
4212 856 7302 31
4213 856 2930 30
4214 856 1589 80
4215 856 9534 91
4216 857 2933 66
4217 857 3110 51
4218 857 9304 73
4219 858 2328 90
4220 858 7264 58
4221 859 3655 54
4222 859 7655 14
4223 859 7111 6
4224 859 8170 33
4225 860 8159 100
4226 860 5747 80
4227 860 2903 21
4228 860 6211 82
4229 860 1421 88
4230 860 8055 94
4231 860 5183 8
4232 860 4586 39
4233 860 4832 49
4234 860 9042 26
4235 861 3356 78
4236 861 1043 48
4237 861 1298 89
4238 861 549 34
4239 861 38 29
4240 861 8690 78
4241 862 8947 61
4242 862 3292 56
4243 862 538 74
4244 862 2031 2
4245 862 769 50
4246 862 8784 81
4247 863 2729 72
4248 863 4815 81
4249 863 4905 10
4250 863 3157 53
4251 863 7128 51
4252 863 8327 28
4253 863 7488 90
4254 864 604 72
4255 864 7963 17
4256 864 7237 92
4257 864 3903 76
4258 864 8226 62
4259 864 721 19
4260 864 8639 71
4261 864 6849 11
4262 864 5846 29
4263 864 9805 15
4264 864 9025 47
4265 864 841 30
4266 865 838 92
4267 865 5500 11
4268 866 890 75
4269 866 5598 55
4270 867 1957 20
4271 867 881 22
4272 867 6133 14
4273 867 6152 49
4274 867 2885 31
4275 867 4355 19
4276 868 820 39
4277 868 2465 72
4278 869 7867 85
4279 869 6547 33
4280 869 4914 78
4281 869 462 37
4282 870 9332 38
4283 870 5343 39
4284 870 1589 18
4285 870 2839 38
4286 870 8867 77
4287 870 6260 79
4288 871 8812 81
4289 871 8036 77
4290 871 8141 84
4291 871 6069 65
4292 871 6401 66
4293 871 3436 16
4294 871 3608 26
4295 871 3389 93
4296 872 353 48
4297 872 9722 66
4298 872 5873 64
4299 873 2005 39
4300 873 6285 29
4301 873 3807 21
4302 873 9144 46
4303 873 3974 37
4304 873 3172 23
4305 873 9240 57
4306 874 217 72
4307 874 1690 96
4308 874 9375 57
4309 874 6718 88
4310 875 5769 56
4311 875 2356 38
4312 875 7360 19
4313 875 2795 28
4314 875 481 45
4315 875 2067 69
4316 875 7575 97
4317 875 7145 76
4318 876 3848 40
4319 876 8643 53
4320 876 3911 56
4321 876 6360 67
4322 876 4986 85
4323 876 1525 28
4324 877 9643 4
4325 877 158 99
4326 879 4770 53
4327 879 6349 80
4328 879 4040 2
4329 879 8492 81
4330 879 3639 34
4331 879 8933 65
4332 879 8002 49
4333 880 9078 72
4334 880 4 21
4335 880 6251 79
4336 880 1827 58
4337 881 2662 71
4338 881 437 93
4339 882 2340 45
4340 882 9208 69
4341 882 5642 36
4342 883 4942 16
4343 883 9578 61
4344 883 7929 54
4345 884 9030 91
4346 884 8782 75
4347 884 9404 16
4348 884 3828 36
4349 884 3491 90
4350 884 7997 17
4351 885 7678 55
4352 885 9868 32
4353 885 3041 52
4354 885 6450 33
4355 886 1257 59
4356 886 4768 39
4357 886 2406 81
4358 886 8827 82
4359 886 7980 80
4360 886 6067 5
4361 886 9568 4
4362 886 5537 71
4363 886 6897 24
4364 886 8348 63
4365 886 749 70
4366 887 5259 98
4367 887 219 57
4368 887 4718 98
4369 887 3174 85
4370 887 7880 7
4371 888 610 52
4372 888 5206 7
4373 888 1209 54
4374 889 5046 4
4375 889 8141 17
4376 889 8518 78
4377 890 4013 96
4378 890 4558 85
4379 890 2371 26
4380 891 5249 32
4381 891 4600 44
4382 891 7 45
4383 891 2156 82
4384 892 9499 38
4385 892 7966 46
4386 892 7866 74
4387 893 4683 53
4388 893 8706 36
4389 893 4029 69
4390 894 7395 6
4391 894 7092 92
4392 894 331 51
4393 894 1326 39
4394 894 7485 27
4395 894 189 78
4396 894 7495 65
4397 894 3710 2
4398 894 3132 56
4399 894 3479 99
4400 895 8954 96
4401 895 331 16
4402 895 5482 43
4403 895 1411 70
4404 895 1593 77
4405 895 3401 22
4406 896 6266 81
4407 896 5288 46
4408 896 2274 47
4409 896 5490 25
4410 896 3845 8
4411 896 8180 54
4412 896 4436 78
4413 896 7901 70
4414 896 5594 20
4415 897 6395 75
4416 897 6034 76
4417 897 1745 30
4418 897 254 13
4419 897 9032 94
4420 897 4593 36
4421 898 6651 49
4422 898 4975 50
4423 898 2987 82
4424 898 3657 50
4425 898 5617 13
4426 898 8703 94
4427 898 2432 76
4428 899 3287 69
4429 899 4939 83
4430 899 3450 94
4431 899 7005 25
4432 900 2996 80
4433 900 4256 20
4434 900 3921 38
4435 900 2539 18
4436 900 5284 79
4437 900 441 47
4438 900 1241 96
4439 900 2796 89
4440 901 3313 18
4441 901 7801 94
4442 901 2778 60
4443 902 688 66
4444 902 3490 32
4445 902 5618 28
4446 902 7922 85
4447 902 7931 56
4448 902 3840 51
4449 903 7103 1
4450 903 8025 46
4451 903 5487 66
4452 903 5398 59
4453 903 8059 4
4454 903 1167 24
4455 903 4947 69
4456 903 271 100
4457 904 9305 56
4458 904 8327 40
4459 904 7471 54
4460 904 376 34
4461 904 9751 56
4462 904 6414 82
4463 905 9175 72
4464 905 4395 57
4465 905 4649 51
4466 905 8304 48
4467 905 9630 94
4468 905 3993 43
4469 905 48 31
4470 905 5547 85
4471 906 1278 52
4472 906 1454 50
4473 906 2224 40
4474 906 7074 69
4475 907 9030 30
4476 907 8361 74
4477 907 2318 80
4478 907 7112 17
4479 907 7783 86
4480 907 9606 22
4481 908 6826 72
4482 908 4635 70
4483 908 9363 34
4484 909 4410 8
4485 909 5248 27
4486 909 1932 91
4487 909 8311 34
4488 909 1436 17
4489 910 9983 87
4490 910 1989 2
4491 910 3976 65
4492 910 7410 19
4493 910 4275 24
4494 910 3076 11
4495 911 1971 61
4496 911 3088 85
4497 911 432 1
4498 911 8736 63
4499 911 3633 16
4500 912 389 67
4501 912 4635 49
4502 912 8846 17
4503 912 3696 48
4504 912 6773 81
4505 912 6913 25
4506 912 8021 11
4507 912 8795 82
4508 913 4023 82
4509 913 9958 81
4510 913 4243 21
4511 913 7529 42
4512 913 8300 97
4513 913 7764 65
4514 913 6678 1
4515 914 7949 67
4516 914 1404 57
4517 914 369 92
4518 915 1912 34
4519 915 1585 97
4520 915 1390 82
4521 916 4024 45
4522 916 5435 14
4523 916 6623 89
4524 916 7807 17
4525 916 692 7
4526 916 4257 29
4527 916 2216 27
4528 916 2505 63
4529 916 2362 32
4530 917 2880 30
4531 917 1609 20
4532 917 9816 47
4533 918 3824 48
4534 918 582 76
4535 918 5260 26
4536 918 6677 84
4537 918 897 18
4538 918 5636 98
4539 918 9572 54
4540 918 2353 5
4541 919 490 80
4542 919 1195 95
4543 919 5223 9
4544 919 5484 92
4545 919 7947 80
4546 919 5558 49
4547 919 2924 66
4548 919 9558 25
4549 920 1202 4
4550 920 225 3
4551 920 5811 1
4552 920 9261 10
4553 921 9059 80
4554 921 5662 68
4555 921 1661 3
4556 922 7339 46
4557 922 6889 60
4558 922 3331 40
4559 922 5004 71
4560 923 6011 36
4561 923 5125 82
4562 923 1418 50
4563 923 4559 54
4564 923 6753 19
4565 923 3747 27
4566 923 243 36
4567 923 5646 99
4568 923 8410 90
4569 924 5845 25
4570 924 6689 17
4571 924 1683 31
4572 924 7861 76
4573 924 9359 57
4574 924 6307 23
4575 925 5291 79
4576 925 8243 39
4577 926 6721 13
4578 926 3749 32
4579 926 493 73
4580 926 1673 90
4581 926 4683 46
4582 926 3252 52
4583 926 5229 87
4584 927 9528 74
4585 927 3169 86
4586 927 1628 80
4587 928 6608 54
4588 928 3043 19
4589 928 6074 100
4590 928 5551 90
4591 928 3832 53
4592 928 5565 8
4593 928 87 99
4594 929 9127 24
4595 929 3816 7
4596 929 7668 4
4597 929 5380 55
4598 930 2437 59
4599 930 1389 62
4600 930 2211 13
4601 930 4165 24
4602 931 6136 89
4603 931 204 28
4604 931 5971 95
4605 931 5009 7
4606 931 3213 66
4607 931 9307 62
4608 932 8432 2
4609 932 4057 34
4610 932 1866 35
4611 932 3151 85
4612 933 4911 6
4613 933 2904 95
4614 933 7826 36
4615 933 3864 6
4616 933 7262 31
4617 933 9511 77
4618 933 795 28
4619 934 6172 59
4620 934 4276 91
4621 934 4472 5
4622 934 1065 83
4623 934 1795 69
4624 934 5143 47
4625 935 3518 57
4626 935 2129 57
4627 935 1237 84
4628 935 1428 64
4629 935 424 16
4630 935 6118 68
4631 936 6390 38
4632 936 817 4
4633 936 639 27
4634 936 9914 20
4635 936 8080 22
4636 936 4308 27
4637 936 7727 13
4638 937 2020 67
4639 937 3387 56
4640 937 3241 68
4641 937 5214 90
4642 938 2097 55
4643 938 3662 34
4644 938 2291 30
4645 938 8098 31
4646 938 4433 61
4647 939 3399 11
4648 939 6240 26
4649 939 4479 98
4650 939 9430 11
4651 939 9751 87
4652 940 6564 48
4653 940 157 48
4654 941 5010 16
4655 941 5344 19
4656 941 8410 63
4657 941 5706 40
4658 941 7607 7
4659 941 3337 3
4660 941 6700 77
4661 942 5528 26
4662 942 4605 35
4663 942 488 34
4664 942 4539 85
4665 942 5615 96
4666 942 3649 82
4667 942 4208 16
4668 943 1369 11
4669 943 4567 71
4670 943 4110 92
4671 943 9864 56
4672 944 8155 52
4673 944 2055 51
4674 944 4697 5
4675 944 5340 64
4676 944 7120 65
4677 945 8731 97
4678 945 9149 6
4679 946 8718 54
4680 946 7996 39
4681 946 7922 34
4682 946 5703 85
4683 946 2694 100
4684 946 5082 87
4685 946 7345 53
4686 946 8385 8
4687 947 3444 28
4688 947 3993 32
4689 947 9080 95
4690 947 3315 44
4691 947 5430 68
4692 947 1656 79
4693 948 5104 14
4694 948 1131 45
4695 948 1646 35
4696 949 3008 99
4697 949 5106 97
4698 949 771 53
4699 949 3152 54
4700 949 445 61
4701 949 243 14
4702 950 4670 7
4703 950 3494 2
4704 950 1196 66
4705 950 9004 37
4706 951 8050 91
4707 951 1989 33
4708 951 5275 89
4709 951 5534 59
4710 952 9483 75
4711 952 3030 15
4712 952 9082 13
4713 952 7734 9
4714 952 1321 30
4715 952 5716 77
4716 953 9309 57
4717 953 7946 34
4718 954 3950 24
4719 954 3201 62
4720 954 4160 61
4721 954 4148 29
4722 954 6384 59
4723 954 9993 6
4724 955 3164 71
4725 955 6568 80
4726 955 6870 83
4727 955 6121 52
4728 956 3847 7
4729 956 1991 12
4730 956 9716 76
4731 957 9501 17
4732 957 6409 32
4733 957 5373 85
4734 957 2634 18
4735 958 4714 82
4736 958 8574 2
4737 958 4072 7
4738 958 3157 34
4739 959 2447 54
4740 959 8318 24
4741 959 6564 85
4742 959 5724 23
4743 960 7483 64
4744 960 9247 78
4745 960 6014 86
4746 960 30 68
4747 960 4841 36
4748 960 1439 67
4749 961 9918 40
4750 961 2013 64
4751 961 7385 93
4752 961 6864 79
4753 961 4721 40
4754 962 5829 59
4755 962 8202 43
4756 962 5979 3
4757 962 3712 28
4758 963 7540 86
4759 963 2595 1
4760 963 5724 57
4761 963 8994 18
4762 963 1645 78
4763 963 9704 85
4764 963 9095 58
4765 964 8948 38
4766 964 3201 49
4767 964 5268 99
4768 964 6484 8
4769 964 9273 42
4770 965 6787 88
4771 965 9274 97
4772 965 8227 69
4773 965 5679 8
4774 966 1331 91
4775 966 237 28
4776 966 4793 47
4777 966 7260 4
4778 967 9699 27
4779 967 3746 82
4780 967 5303 23
4781 967 5495 32
4782 967 2225 29
4783 968 5440 88
4784 968 4302 38
4785 968 2303 55
4786 968 6306 90
4787 968 8360 43
4788 968 2487 81
4789 969 1695 80
4790 969 3032 37
4791 969 833 61
4792 969 6074 2
4793 969 3496 41
4794 969 762 10
4795 969 8616 76
4796 969 5483 95
4797 969 47 65
4798 970 8623 30
4799 970 9906 66
4800 970 8670 58
4801 971 1025 52
4802 971 8230 99
4803 971 9480 10
4804 971 5004 88
4805 971 6236 66
4806 971 9979 15
4807 972 9385 3
4808 972 9579 31
4809 972 9764 46
4810 973 9664 46
4811 973 5594 15
4812 973 1304 82
4813 974 1935 38
4814 974 2505 60
4815 974 54 76
4816 974 1844 86
4817 974 1121 78
4818 976 4820 9
4819 976 3281 15
4820 976 9652 68
4821 976 6249 88
4822 976 3415 61
4823 976 5164 78
4824 976 8677 55
4825 977 9424 71
4826 977 318 99
4827 977 2088 95
4828 977 9449 97
4829 977 3749 69
4830 977 1260 83
4831 977 2892 38
4832 977 9019 21
4833 977 7047 2
4834 977 5028 63
4835 978 4940 24
4836 978 5115 95
4837 978 7908 66
4838 978 8794 84
4839 979 4922 77
4840 979 7782 12
4841 979 4661 98
4842 979 9778 45
4843 980 3461 20
4844 980 5754 35
4845 980 1118 2
4846 980 4426 6
4847 980 3441 34
4848 980 9322 6
4849 980 6463 45
4850 981 3704 17
4851 981 7364 82
4852 981 1997 33
4853 981 1 3
4854 981 2784 12
4855 981 6472 62
4856 981 1964 31
4857 981 3347 3
4858 982 391 58
4859 982 4015 81
4860 982 5759 43
4861 982 6750 33
4862 982 7268 67
4863 982 6561 16
4864 983 6569 92
4865 983 5099 10
4866 984 8734 62
4867 984 4524 18
4868 984 9737 27
4869 985 5607 44
4870 985 8335 84
4871 985 1117 57
4872 985 1948 76
4873 986 8919 69
4874 986 5303 66
4875 986 6363 71
4876 986 4017 85
4877 986 7369 18
4878 986 6267 31
4879 987 6531 55
4880 987 1359 80
4881 987 2151 65
4882 987 6758 19
4883 987 3608 53
4884 987 4452 8
4885 987 1418 98
4886 987 5451 9
4887 987 5075 37
4888 987 5052 70
4889 987 8303 76
4890 988 3104 51
4891 988 9791 51
4892 988 969 99
4893 988 6666 21
4894 988 5816 100
4895 988 1267 49
4896 988 9800 6
4897 988 6226 94
4898 989 2966 18
4899 989 2545 54
4900 989 2887 64
4901 989 1924 18
4902 989 3545 46
4903 989 8081 61
4904 990 4375 87
4905 990 6833 3
4906 990 2773 24
4907 991 8779 100
4908 991 4718 96
4909 991 4773 54
4910 991 8377 18
4911 991 4145 95
4912 991 4161 6
4913 992 3234 56
4914 992 3441 40
4915 992 9566 87
4916 992 7658 51
4917 992 4544 7
4918 992 4246 14
4919 993 9431 57
4920 993 371 94
4921 993 2481 60
4922 993 2367 7
4923 993 6618 37
4924 994 5272 61
4925 994 207 72
4926 994 2644 67
4927 994 4740 9
4928 994 2193 72
4929 994 2922 42
4930 995 3116 45
4931 995 4600 87
4932 995 4795 81
4933 995 7600 39
4934 995 8091 54
4935 995 4591 62
4936 995 900 3
4937 995 7717 75
4938 995 4879 14
4939 995 5276 24
4940 996 1007 86
4941 996 4486 92
4942 996 3070 48
4943 997 2623 64
4944 997 5288 3
4945 997 2502 80
4946 997 3338 3
4947 997 202 45
4948 997 161 61
4949 997 251 48
4950 997 3195 2
4951 997 2792 28
4952 997 8162 57
4953 997 9068 55
4954 998 746 34
4955 998 1362 33
4956 998 5527 66
4957 999 2853 30
4958 999 5659 88
4959 999 791 61
4960 999 4297 99
4961 999 6148 53
4962 1000 3546 12
4963 1000 1200 37
4964 1000 4195 21
4965 1000 5101 83
4966 1000 9529 90
4967 1001 480 51
4968 1002 4363 96
4969 1002 3415 65
4970 1002 3225 57
4971 1002 9506 1
4972 1002 8454 5
4973 1002 1530 63
4974 1003 8138 37
4975 1003 4217 27
4976 1004 9823 23
4977 1004 2384 48
4978 1004 4094 1
4979 1005 2480 19
4980 1005 1592 76
4981 1005 9738 99
4982 1006 6467 82
4983 1006 338 1
4984 1006 2314 40
4985 1006 2544 99
4986 1006 3628 86
4987 1006 386 37
4988 1006 5567 65
4989 1006 6937 67
4990 1006 2318 82
4991 1006 5959 27
4992 1006 6322 45
4993 1007 649 26
4994 1007 4200 49
4995 1007 1815 100
4996 1007 8699 6
4997 1007 4931 48
4998 1007 4138 37
4999 1007 6182 74
5000 1008 8157 89
5001 1008 2879 84
5002 1008 9139 16
5003 1008 3923 49
5004 1008 3967 79
5005 1009 6849 1
5006 1009 7294 84
5007 1009 8640 49
5008 1009 4546 9
5009 1010 6967 84
5010 1010 7534 24
5011 1010 5237 80
5012 1011 8537 28
5013 1011 985 1
5014 1011 5829 23
5015 1012 790 4
5016 1012 9227 79
5017 1012 2148 68
5018 1012 2204 37
5019 1013 8169 38
5020 1013 6327 93
5021 1013 5545 37
5022 1013 8403 16
5023 1014 8347 100
5024 1014 6461 38
5025 1014 2379 3
5026 1014 1906 7
5027 1014 9847 19
5028 1014 4105 36
5029 1014 1142 82
5030 1014 541 33
5031 1015 7349 74
5032 1015 5505 73
5033 1016 439 85
5034 1016 5333 60
5035 1016 9320 72
5036 1017 3919 92
5037 1017 3731 59
5038 1017 3683 92
5039 1017 5908 41
5040 1017 635 99
5041 1017 3766 71
5042 1018 9057 86
5043 1018 5505 79
5044 1018 1124 51
5045 1018 1638 80
5046 1019 8498 33
5047 1019 8801 34
5048 1019 328 63
5049 1019 9765 48
5050 1019 6544 14
5051 1019 4691 10
5052 1019 1482 73
5053 1019 7649 54
5054 1019 1613 59
5055 1019 4188 74
5056 1020 3313 30
5057 1020 7946 74
5058 1020 9171 66
5059 1020 6985 67
5060 1020 3398 95
5061 1021 1755 61
5062 1021 2016 94
5063 1022 9672 75
5064 1022 2351 21
5065 1022 4042 27
5066 1022 1972 100
5067 1023 4570 29
5068 1023 4144 92
5069 1023 5101 47
5070 1023 7693 6
5071 1023 607 64
5072 1024 8090 60
5073 1024 6596 51
5074 1024 7127 92
5075 1025 6485 51
5076 1025 2966 59
5077 1025 7457 48
5078 1025 3513 7
5079 1025 6366 98
5080 1026 3697 9
5081 1026 1204 83
5082 1026 5008 64
5083 1026 3984 57
5084 1027 7498 69
5085 1027 8441 44
5086 1027 6626 22
5087 1027 7439 8
5088 1027 7883 5
5089 1027 7399 96
5090 1027 1099 21
5091 1028 1436 18
5092 1028 240 80
5093 1028 9822 96
5094 1028 1615 68
5095 1028 4694 28
5096 1028 5808 24
5097 1028 685 96
5098 1028 4522 29
5099 1029 1979 25
5100 1029 3623 94
5101 1029 8649 62
5102 1030 4006 93
5103 1030 4134 87
5104 1030 9175 35
5105 1031 9168 28
5106 1031 8321 65
5107 1031 7055 17
5108 1032 5653 35
5109 1032 9591 85
5110 1032 7860 38
5111 1032 1373 80
5112 1033 5223 62
5113 1034 5160 99
5114 1034 9199 92
5115 1034 1962 40
5116 1034 9919 22
5117 1035 9120 83
5118 1035 2415 41
5119 1035 3248 38
5120 1035 1010 60
5121 1035 2240 100
5122 1035 3049 6
5123 1035 222 74
5124 1035 6343 22
5125 1036 4261 85
5126 1036 8931 17
5127 1036 8687 90
5128 1036 3149 81
5129 1036 8436 86
5130 1037 9120 78
5131 1037 3189 5
5132 1037 7612 77
5133 1037 5385 39
5134 1037 5695 99
5135 1037 3732 34
5136 1038 481 1
5137 1039 5121 33
5138 1039 4129 72
5139 1039 3502 46
5140 1039 5965 63
5141 1039 1931 45
5142 1040 5134 37
5143 1040 3743 29
5144 1040 5181 23
5145 1040 3430 60
5146 1040 8982 56
5147 1040 2691 31
5148 1040 4962 15
5149 1040 7637 93
5150 1040 8032 46
5151 1040 8087 95
5152 1040 2804 27
5153 1041 9953 95
5154 1041 4935 1
5155 1041 6707 59
5156 1041 635 78
5157 1041 7728 86
5158 1042 7314 38
5159 1042 4351 27
5160 1042 7629 10
5161 1042 1560 89
5162 1042 406 83
5163 1042 1871 74
5164 1042 6921 47
5165 1042 6949 9
5166 1043 952 91
5167 1043 6142 30
5168 1043 6830 36
5169 1043 6424 67
5170 1043 4818 89
5171 1043 3029 18
5172 1043 3658 62
5173 1043 1900 23
5174 1044 6787 37
5175 1044 5023 72
5176 1044 2688 58
5177 1044 1397 81
5178 1044 470 25
5179 1044 7125 58
5180 1044 2998 64
5181 1044 7227 43
5182 1045 4214 26
5183 1046 1987 87
5184 1046 3635 55
5185 1046 8332 66
5186 1046 4229 33
5187 1047 9664 26
5188 1047 5872 45
5189 1047 8405 85
5190 1048 683 53
5191 1049 6192 6
5192 1049 2226 66
5193 1049 3112 53
5194 1049 1957 71
5195 1049 7463 64
5196 1049 1226 21
5197 1050 3451 9
5198 1050 6920 5
5199 1050 4420 43
5200 1050 7559 89
5201 1050 3937 41
5202 1051 1662 88
5203 1051 5855 32
5204 1051 8753 84
5205 1051 1784 66
5206 1052 1035 53
5207 1052 8857 5
5208 1052 8990 2
5209 1052 2979 89
5210 1052 841 45
5211 1053 9160 67
5212 1053 1313 88
5213 1053 2728 100
5214 1053 7364 47
5215 1053 269 8
5216 1053 5914 10
5217 1054 4958 96
5218 1054 3268 33
5219 1054 4650 48
5220 1054 3738 59
5221 1055 3175 28
5222 1055 1153 93
5223 1055 3214 91
5224 1055 3805 97
5225 1055 1562 52
5226 1055 859 33
5227 1056 2391 35
5228 1056 7409 48
5229 1056 5551 11
5230 1056 2092 60
5231 1056 2489 24
5232 1056 8750 88
5233 1056 2678 7
5234 1057 3441 75
5235 1057 7324 64
5236 1057 964 3
5237 1057 3822 65
5238 1057 3148 76
5239 1058 2318 5
5240 1058 604 70
5241 1058 2716 20
5242 1059 3022 43
5243 1059 1870 94
5244 1059 2963 13
5245 1059 2162 37
5246 1059 173 79
5247 1060 4 96
5248 1060 9376 15
5249 1060 6411 92
5250 1060 1356 6
5251 1060 2216 33
5252 1060 8365 3
5253 1060 2625 9
5254 1060 817 98
5255 1060 6083 32
5256 1060 9335 85
5257 1060 3749 59
5258 1061 5794 43
5259 1061 2924 60
5260 1061 4815 11
5261 1061 9721 2
5262 1062 6684 62
5263 1062 9634 27
5264 1063 1945 34
5265 1063 1328 85
5266 1063 9102 24
5267 1063 4293 66
5268 1063 9698 52
5269 1063 3126 98
5270 1063 8370 38
5271 1063 5526 56
5272 1064 572 78
5273 1064 2892 39
5274 1064 7721 63
5275 1064 1157 5
5276 1064 1912 70
5277 1065 8711 45
5278 1065 6374 87
5279 1065 7509 38
5280 1065 8680 12
5281 1066 3270 30
5282 1066 9149 33
5283 1066 7637 76
5284 1066 9445 93
5285 1066 2540 73
5286 1067 1406 96
5287 1067 5681 83
5288 1067 3472 42
5289 1067 3134 7
5290 1067 9895 37
5291 1067 7271 54
5292 1067 1024 52
5293 1067 5011 98
5294 1068 7676 23
5295 1068 1516 5
5296 1068 5799 29
5297 1068 7790 50
5298 1069 4119 88
5299 1069 7965 78
5300 1069 7284 7
5301 1069 1652 63
5302 1070 4496 63
5303 1071 2940 38
5304 1071 4980 55
5305 1071 363 53
5306 1071 297 49
5307 1072 5833 69
5308 1072 2480 29
5309 1072 9889 68
5310 1073 6204 73
5311 1073 1904 8
5312 1073 8751 50
5313 1073 8310 91
5314 1073 5543 38
5315 1073 7799 94
5316 1073 9676 54
5317 1073 1728 26
5318 1074 8035 62
5319 1074 2159 21
5320 1074 952 62
5321 1074 6954 79
5322 1074 2008 46
5323 1075 7030 82
5324 1075 6188 35
5325 1075 8807 74
5326 1075 4654 30
5327 1075 5640 8
5328 1075 4965 12
5329 1075 1344 19
5330 1075 3151 68
5331 1076 4903 90
5332 1076 9347 57
5333 1076 7217 85
5334 1076 1240 48
5335 1076 2950 100
5336 1076 3029 1
5337 1076 5156 58
5338 1077 4692 51
5339 1078 2702 25
5340 1078 9484 31
5341 1078 6266 79
5342 1078 8760 51
5343 1078 8849 65
5344 1078 215 97
5345 1079 169 80
5346 1079 7677 24
5347 1079 5110 93
5348 1079 2391 38
5349 1079 6215 99
5350 1079 6970 55
5351 1079 9138 65
5352 1079 2393 50
5353 1079 8366 26
5354 1080 1382 28
5355 1080 2752 22
5356 1080 9141 87
5357 1080 246 9
5358 1080 4069 82
5359 1080 8441 29
5360 1080 7926 56
5361 1080 2441 67
5362 1080 2839 94
5363 1081 3828 27
5364 1081 469 30
5365 1081 5056 34
5366 1081 7248 34
5367 1081 6203 27
5368 1082 3857 84
5369 1082 5332 97
5370 1082 2964 50
5371 1083 4293 25
5372 1083 4551 36
5373 1083 3497 100
5374 1084 6853 46
5375 1084 2193 58
5376 1084 6201 74
5377 1085 7649 48
5378 1085 7674 30
5379 1085 417 10
5380 1085 7932 99
5381 1086 2096 28
5382 1086 4705 79
5383 1086 2280 44
5384 1086 9665 80
5385 1086 2858 34
5386 1087 3060 65
5387 1087 3369 59
5388 1087 7135 28
5389 1087 8905 7
5390 1087 4472 27
5391 1087 6600 83
5392 1087 8734 52
5393 1088 6391 14
5394 1088 9980 28
5395 1088 9086 12
5396 1089 4947 55
5397 1089 1118 77
5398 1089 8731 73
5399 1089 771 20
5400 1090 5882 77
5401 1090 4613 86
5402 1090 957 12
5403 1090 8324 87
5404 1091 3178 54
5405 1091 352 77
5406 1091 1629 39
5407 1091 822 53
5408 1091 2963 53
5409 1091 703 22
5410 1091 990 90
5411 1091 5161 65
5412 1091 8680 92
5413 1092 7309 11
5414 1092 5803 67
5415 1093 4500 86
5416 1093 7926 55
5417 1093 2513 98
5418 1093 1577 36
5419 1093 437 82
5420 1093 8952 34
5421 1093 8753 66
5422 1093 6880 53
5423 1093 8877 97
5424 1093 6420 78
5425 1093 7661 73
5426 1093 9431 100
5427 1094 8081 76
5428 1094 191 32
5429 1094 9279 28
5430 1094 4212 49
5431 1094 9453 23
5432 1094 9441 53
5433 1094 1283 73
5434 1095 6458 79
5435 1095 4774 63
5436 1095 8431 19
5437 1095 8214 99
5438 1095 7750 44
5439 1095 656 49
5440 1095 6789 66
5441 1096 6451 61
5442 1096 4386 68
5443 1097 8316 50
5444 1097 913 78
5445 1097 4756 24
5446 1097 5560 80
5447 1097 4939 88
5448 1098 6588 89
5449 1098 9943 73
5450 1098 1384 57
5451 1099 646 89
5452 1099 4731 71
5453 1099 3764 84
5454 1100 9682 43
5455 1100 7385 28
5456 1100 1843 18
5457 1100 3702 53
5458 1100 6104 15
5459 1101 1036 80
5460 1101 2599 90
5461 1101 4166 42
5462 1101 4416 42
5463 1101 5245 15
5464 1102 7023 53
5465 1102 4965 70
5466 1102 7230 92
5467 1102 4101 44
5468 1102 1105 19
5469 1102 4779 98
5470 1102 924 73
5471 1103 6145 53
5472 1103 9579 47
5473 1103 8792 26
5474 1104 8507 51
5475 1104 7867 43
5476 1104 271 23
5477 1104 3454 21
5478 1104 8264 33
5479 1104 545 26
5480 1104 2083 99
5481 1104 5492 68
5482 1105 5157 86
5483 1105 4027 39
5484 1105 6214 45
5485 1105 1677 53
5486 1106 3325 65
5487 1106 9097 19
5488 1106 5336 46
5489 1106 8322 49
5490 1106 4917 90
5491 1106 9179 52
5492 1107 8176 94
5493 1107 649 84
5494 1107 5211 43
5495 1107 7157 48
5496 1107 5785 56
5497 1108 1628 95
5498 1108 7 70
5499 1109 14 72
5500 1109 1476 76
5501 1109 1296 21
5502 1109 8955 12
5503 1109 7733 11
5504 1109 2314 54
5505 1109 4736 40
5506 1110 9538 10
5507 1110 2989 46
5508 1111 1664 33
5509 1111 6566 3
5510 1112 9242 74
5511 1112 9223 60
5512 1112 4590 67
5513 1112 9806 32
5514 1113 9911 62
5515 1113 4943 86
5516 1113 181 7
5517 1113 657 74
5518 1113 4028 73
5519 1113 2109 1
5520 1113 8821 61
5521 1114 1908 2
5522 1114 3353 18
5523 1114 5865 68
5524 1114 6478 7
5525 1114 9617 27
5526 1114 180 8
5527 1114 1734 46
5528 1114 4160 97
5529 1114 2453 16
5530 1115 4162 97
5531 1115 3264 23
5532 1116 1902 69
5533 1116 700 43
5534 1116 6369 33
5535 1116 416 49
5536 1116 298 65
5537 1116 8178 25
5538 1116 4547 11
5539 1116 7606 59
5540 1117 2903 40
5541 1117 6520 44
5542 1117 5609 59
5543 1117 9006 13
5544 1117 3683 16
5545 1117 8025 78
5546 1118 1750 29
5547 1118 831 57
5548 1118 6651 94
5549 1118 5141 54
5550 1118 8590 70
5551 1118 6510 73
5552 1119 130 1
5553 1119 206 56
5554 1120 9390 2
5555 1120 2191 40
5556 1120 3911 100
5557 1120 4250 45
5558 1120 1477 55
5559 1120 2156 37
5560 1120 9640 26
5561 1120 4065 27
5562 1121 2388 20
5563 1121 6719 4
5564 1121 5447 57
5565 1121 6794 42
5566 1121 6367 93
5567 1121 2816 59
5568 1121 7817 95
5569 1121 1350 98
5570 1121 5507 8
5571 1121 9060 17
5572 1121 5770 77
5573 1121 8048 69
5574 1121 2453 58
5575 1121 1084 99
5576 1122 2318 3
5577 1122 79 41
5578 1122 9908 52
5579 1122 6432 100
5580 1122 2859 13
5581 1122 346 90
5582 1122 236 51
5583 1122 7015 5
5584 1123 4198 63
5585 1123 6403 42
5586 1124 3784 98
5587 1124 4790 57
5588 1124 2306 45
5589 1124 520 67
5590 1124 1791 74
5591 1124 8623 77
5592 1125 180 39
5593 1125 6337 91
5594 1125 9826 44
5595 1125 6163 78
5596 1125 7353 91
5597 1125 7538 23
5598 1125 5758 73
5599 1126 7949 93
5600 1126 9580 90
5601 1126 7247 13
5602 1126 2668 83
5603 1126 6881 9
5604 1127 2427 52
5605 1127 6274 18
5606 1127 120 20
5607 1127 1269 87
5608 1127 3279 9
5609 1128 1216 10
5610 1128 7176 42
5611 1128 4215 3
5612 1128 5404 30
5613 1129 671 82
5614 1129 5666 51
5615 1129 3074 8
5616 1129 58 31
5617 1130 7358 23
5618 1131 2659 81
5619 1131 3604 51
5620 1131 4646 90
5621 1131 9496 83
5622 1131 8401 21
5623 1132 1659 3
5624 1132 5956 5
5625 1132 982 92
5626 1132 9496 10
5627 1132 9899 67
5628 1133 4487 94
5629 1133 3858 43
5630 1133 3593 86
5631 1134 4172 16
5632 1134 4956 94
5633 1134 4414 20
5634 1135 2672 6
5635 1135 8803 66
5636 1135 7235 75
5637 1135 8189 69
5638 1135 6696 24
5639 1135 8418 60
5640 1135 9900 90
5641 1135 4715 71
5642 1136 9491 46
5643 1136 1599 40
5644 1136 787 15
5645 1136 1767 12
5646 1136 7999 43
5647 1137 6739 97
5648 1137 5799 52
5649 1137 7354 80
5650 1137 2427 10
5651 1137 925 60
5652 1138 3656 47
5653 1139 9494 33
5654 1139 1404 90
5655 1139 4815 77
5656 1139 7659 43
5657 1140 3297 45
5658 1141 664 50
5659 1141 5238 7
5660 1141 7656 26
5661 1141 5565 17
5662 1141 4160 15
5663 1142 9325 64
5664 1142 3686 21
5665 1142 8783 66
5666 1142 4686 64
5667 1142 2386 41
5668 1142 2073 78
5669 1142 7406 34
5670 1142 3962 17
5671 1143 9727 33
5672 1143 7782 54
5673 1143 1838 45
5674 1143 3187 60
5675 1143 4238 89
5676 1143 512 98
5677 1143 7102 1
5678 1143 9906 87
5679 1144 1562 10
5680 1144 9358 5
5681 1144 5428 5
5682 1144 4158 88
5683 1144 4270 76
5684 1144 3110 8
5685 1144 6426 82
5686 1145 6938 65
5687 1145 6916 1
5688 1145 71 18
5689 1146 8671 7
5690 1146 8227 37
5691 1146 5690 25
5692 1146 4389 87
5693 1146 6689 74
5694 1146 3272 99
5695 1146 4219 78
5696 1147 132 25
5697 1147 5492 12
5698 1147 9353 100
5699 1147 5009 12
5700 1147 4546 78
5701 1147 9571 31
5702 1147 464 1
5703 1147 852 97
5704 1147 4265 59
5705 1148 8470 56
5706 1148 1981 52
5707 1148 8143 47
5708 1148 7956 87
5709 1148 7518 64
5710 1149 4089 13
5711 1149 6551 89
5712 1149 7535 81
5713 1150 4723 56
5714 1150 8991 13
5715 1150 6237 2
5716 1150 5772 62
5717 1150 2884 25
5718 1150 5604 16
5719 1150 6977 9
5720 1151 4585 17
5721 1151 875 43
5722 1151 4100 50
5723 1151 8978 39
5724 1151 4257 83
5725 1151 8392 7
5726 1151 2574 35
5727 1152 1224 8
5728 1152 157 79
5729 1152 5808 64
5730 1152 4416 71
5731 1152 7129 58
5732 1153 8711 60
5733 1153 6983 86
5734 1153 5046 82
5735 1154 1942 29
5736 1154 7589 70
5737 1154 2444 3
5738 1154 9872 54
5739 1155 8022 34
5740 1155 3970 63
5741 1155 7134 74
5742 1155 4530 61
5743 1156 1108 26
5744 1156 258 30
5745 1156 4037 23
5746 1156 9534 59
5747 1156 9067 60
5748 1157 1044 89
5749 1157 3965 17
5750 1157 4396 85
5751 1157 6736 89
5752 1157 4519 83
5753 1157 6741 20
5754 1157 2997 70
5755 1157 4632 91
5756 1157 4914 92
5757 1158 3241 97
5758 1158 4766 14
5759 1158 102 78
5760 1158 6246 36
5761 1158 2726 78
5762 1158 9031 51
5763 1158 5310 5
5764 1158 8235 24
5765 1158 6087 27
5766 1158 1091 81
5767 1159 4601 25
5768 1159 8131 95
5769 1159 5488 50
5770 1159 2058 82
5771 1159 4920 51
5772 1160 9405 81
5773 1160 4898 8
5774 1160 8464 93
5775 1160 4895 80
5776 1160 7257 86
5777 1161 9125 88
5778 1161 8637 36
5779 1161 8063 50
5780 1161 4912 58
5781 1161 1250 50
5782 1162 3896 25
5783 1162 1973 79
5784 1162 7091 21
5785 1162 9259 78
5786 1162 1325 100
5787 1162 2679 59
5788 1163 6870 16
5789 1163 21 13
5790 1163 3263 90
5791 1163 9105 81
5792 1163 2238 19
5793 1164 5396 61
5794 1165 1922 1
5795 1165 6464 4
5796 1165 3914 31
5797 1165 4366 79
5798 1166 7487 87
5799 1166 1865 60
5800 1166 4532 36
5801 1166 1542 78
5802 1166 1672 85
5803 1166 2628 22
5804 1166 8837 26
5805 1167 1599 67
5806 1167 6343 70
5807 1167 4716 52
5808 1167 665 43
5809 1168 3217 21
5810 1168 59 89
5811 1168 821 23
5812 1168 3 42
5813 1168 7957 25
5814 1168 753 70
5815 1168 8032 5
5816 1168 6368 62
5817 1168 6973 2
5818 1169 8972 14
5819 1169 5145 14
5820 1169 1445 45
5821 1169 4718 85
5822 1169 1575 5
5823 1169 8562 54
5824 1169 7133 45
5825 1169 9415 46
5826 1170 3877 83
5827 1170 3122 70
5828 1170 6381 65
5829 1170 2601 15
5830 1170 6773 31
5831 1170 4052 9
5832 1170 2663 59
5833 1171 1496 71
5834 1171 1856 69
5835 1171 5157 50
5836 1171 3598 79
5837 1171 9348 16
5838 1172 5592 58
5839 1172 4891 77
5840 1172 3110 89
5841 1172 4535 67
5842 1172 3223 85
5843 1172 4882 14
5844 1173 6706 15
5845 1174 7212 2
5846 1174 6237 52
5847 1174 4472 6
5848 1174 2139 71
5849 1174 9386 35
5850 1175 1570 89
5851 1175 6794 90
5852 1175 2297 43
5853 1175 4024 14
5854 1175 1825 51
5855 1176 7596 65
5856 1176 3623 26
5857 1176 7450 94
5858 1176 7346 79
5859 1176 3155 18
5860 1177 5170 16
5861 1177 5446 76
5862 1177 2693 91
5863 1177 3037 20
5864 1177 815 51
5865 1177 5515 89
5866 1178 6754 59
5867 1178 1204 10
5868 1178 1906 40
5869 1178 6258 77
5870 1178 4668 55
5871 1179 6958 49
5872 1179 329 2
5873 1179 7767 14
5874 1179 7576 66
5875 1179 1931 47
5876 1179 6645 71
5877 1180 1121 91
5878 1180 5903 29
5879 1180 6496 48
5880 1180 9460 68
5881 1181 9133 2
5882 1181 981 8
5883 1181 683 74
5884 1181 535 74
5885 1181 4601 60
5886 1182 1429 82
5887 1182 6946 14
5888 1183 5773 49
5889 1183 6541 2
5890 1183 401 91
5891 1183 6163 19
5892 1184 5580 75
5893 1184 1690 64
5894 1184 5317 53
5895 1184 7788 9
5896 1185 8649 8
5897 1185 9852 47
5898 1186 7497 57
5899 1186 1651 26
5900 1186 2545 39
5901 1187 6267 78
5902 1187 9866 57
5903 1187 1605 45
5904 1188 2044 43
5905 1188 7982 20
5906 1189 7572 3
5907 1189 5945 74
5908 1189 6957 29
5909 1189 2948 4
5910 1189 1840 90
5911 1189 1166 17
5912 1190 2393 49
5913 1190 1026 36
5914 1190 1732 14
5915 1190 1126 41
5916 1190 4234 51
5917 1191 4816 4
5918 1191 6658 81
5919 1191 9368 95
5920 1191 4454 64
5921 1191 1097 34
5922 1191 2480 100
5923 1193 7315 79
5924 1193 5998 84
5925 1193 2682 4
5926 1193 8555 91
5927 1193 2513 67
5928 1193 9544 62
5929 1193 3540 98
5930 1193 4067 2
5931 1194 3021 66
5932 1194 5926 81
5933 1194 5568 60
5934 1195 5586 96
5935 1195 1160 100
5936 1196 8125 80
5937 1196 3858 22
5938 1196 9681 76
5939 1196 2171 3
5940 1196 3217 79
5941 1197 188 48
5942 1197 8657 23
5943 1197 7660 73
5944 1197 4281 5
5945 1197 3590 6
5946 1197 9294 52
5947 1197 4042 35
5948 1198 2823 1
5949 1198 1921 36
5950 1199 1312 74
5951 1199 1796 93
5952 1199 6212 69
5953 1200 5330 21
5954 1200 388 14
5955 1200 1715 87
5956 1200 1902 42
5957 1200 9132 33
5958 1200 5654 63
5959 1201 522 21
5960 1201 9616 73
5961 1201 587 56
5962 1201 8106 63
5963 1201 8332 71
5964 1201 6736 80
5965 1201 215 32
5966 1202 7791 83
5967 1202 2539 28
5968 1202 516 85
5969 1202 6081 19
5970 1202 6050 60
5971 1202 6260 54
5972 1202 5278 73
5973 1203 5820 86
5974 1203 9399 98
5975 1203 1837 94
5976 1204 1635 37
5977 1204 1132 4
5978 1204 7480 75
5979 1204 5896 29
5980 1205 7028 30
5981 1205 4245 7
5982 1205 4343 37
5983 1205 5549 90
5984 1205 445 67
5985 1205 3926 78
5986 1205 6937 42
5987 1205 7017 98
5988 1205 9866 4
5989 1205 3886 43
5990 1205 9959 69
5991 1206 4041 50
5992 1206 6352 57
5993 1206 4926 7
5994 1206 4818 27
5995 1207 605 44
5996 1207 7045 7
5997 1207 1815 19
5998 1207 3259 76
5999 1207 3439 66
6000 1207 2596 27
6001 1207 1287 26
6002 1207 4306 4
6003 1208 3775 91
6004 1208 6213 66
6005 1208 9384 24
6006 1208 5632 44
6007 1208 8023 91
6008 1209 7244 56
6009 1209 3649 13
6010 1209 2147 78
6011 1210 2337 85
6012 1210 2968 39
6013 1210 4012 25
6014 1210 4805 48
6015 1210 9673 86
6016 1210 2233 100
6017 1210 2631 38
6018 1210 3663 47
6019 1211 9901 28
6020 1211 9006 71
6021 1211 6833 49
6022 1211 1660 4
6023 1211 8459 36
6024 1211 4280 21
6025 1211 5566 28
6026 1211 6093 68
6027 1212 6412 71
6028 1212 3942 77
6029 1212 7594 47
6030 1212 8679 24
6031 1212 1755 63
6032 1212 4192 80
6033 1213 9802 1
6034 1213 8585 86
6035 1213 4404 8
6036 1213 5318 69
6037 1213 6754 16
6038 1213 9830 82
6039 1214 2801 84
6040 1214 2859 1
6041 1214 6578 47
6042 1214 8512 81
6043 1214 5735 67
6044 1214 4853 92
6045 1214 2874 37
6046 1214 4814 6
6047 1214 9514 95
6048 1215 5776 87
6049 1215 2707 61
6050 1215 3503 41
6051 1215 1518 96
6052 1216 8631 69
6053 1216 2567 76
6054 1216 4875 60
6055 1216 7198 82
6056 1216 341 76
6057 1217 3504 72
6058 1217 6848 82
6059 1217 287 13
6060 1217 7747 4
6061 1218 5692 35
6062 1218 3493 69
6063 1219 8320 17
6064 1219 6282 47
6065 1219 5057 26
6066 1219 3362 38
6067 1219 3078 31
6068 1219 4264 19
6069 1219 3404 3
6070 1220 8233 100
6071 1220 9292 78
6072 1220 2450 49
6073 1221 2128 44
6074 1221 1093 41
6075 1221 4442 22
6076 1221 431 97
6077 1221 2952 83
6078 1221 9060 95
6079 1221 2552 100
6080 1221 2247 92
6081 1221 7867 55
6082 1222 9865 69
6083 1222 3550 79
6084 1222 1692 11
6085 1223 2643 72
6086 1223 8922 18
6087 1223 7445 64
6088 1223 4791 23
6089 1224 1554 35
6090 1224 9159 80
6091 1224 9073 53
6092 1224 1308 91
6093 1224 8281 43
6094 1224 1986 28
6095 1226 1211 3
6096 1226 1304 52
6097 1226 7182 48
6098 1226 2362 28
6099 1226 3026 31
6100 1226 1926 66
6101 1227 1120 49
6102 1227 2773 56
6103 1227 6451 54
6104 1227 8353 5
6105 1228 6462 72
6106 1228 5550 94
6107 1228 4096 89
6108 1228 4798 26
6109 1229 2802 47
6110 1229 1237 44
6111 1230 7963 58
6112 1230 3037 68
6113 1230 4955 21
6114 1230 4135 9
6115 1231 1644 95
6116 1231 5912 5
6117 1231 326 3
6118 1231 3650 78
6119 1231 6052 35
6120 1231 4514 53
6121 1231 4951 12
6122 1231 9980 26
6123 1232 2930 4
6124 1232 5454 41
6125 1232 8272 48
6126 1232 107 24
6127 1232 4061 96
6128 1233 4270 46
6129 1233 3308 51
6130 1233 9769 46
6131 1233 5881 60
6132 1233 8493 53
6133 1233 3774 93
6134 1234 9698 14
6135 1234 3057 81
6136 1234 6931 58
6137 1234 9880 68
6138 1234 2112 98
6139 1235 4964 11
6140 1235 7995 21
6141 1235 3096 69
6142 1235 7298 40
6143 1235 9945 67
6144 1235 177 63
6145 1235 2943 13
6146 1236 5561 33
6147 1236 8965 23
6148 1236 2637 57
6149 1236 8473 75
6150 1236 4379 90
6151 1237 9738 25
6152 1237 3684 49
6153 1238 487 34
6154 1238 4751 67
6155 1239 1985 77
6156 1239 5753 91
6157 1239 1410 38
6158 1239 5400 59
6159 1239 1720 31
6160 1239 5144 83
6161 1239 4774 46
6162 1240 6701 20
6163 1240 1718 76
6164 1240 4011 55
6165 1240 4711 81
6166 1240 1657 19
6167 1240 6358 98
6168 1240 2550 26
6169 1241 6508 99
6170 1241 113 13
6171 1241 7568 21
6172 1241 9208 41
6173 1241 3822 77
6174 1241 2973 75
6175 1242 4916 68
6176 1242 2398 74
6177 1242 487 90
6178 1243 8034 99
6179 1243 6032 86
6180 1243 1734 75
6181 1243 9321 50
6182 1243 2992 55
6183 1244 656 32
6184 1244 9296 75
6185 1244 363 42
6186 1244 9223 26
6187 1244 5969 43
6188 1245 3376 45
6189 1246 2143 55
6190 1246 2165 51
6191 1246 9444 34
6192 1246 3520 18
6193 1246 4871 61
6194 1247 774 10
6195 1247 6581 92
6196 1247 3775 35
6197 1247 8110 14
6198 1248 7867 99
6199 1248 8637 21
6200 1248 8239 75
6201 1248 7890 21
6202 1249 2355 97
6203 1249 7848 69
6204 1249 7405 37
6205 1249 1288 49
6206 1249 6382 82
6207 1250 3178 59
6208 1250 6545 13
6209 1250 6358 27
6210 1250 1034 23
6211 1250 4641 75
6212 1250 9419 38
6213 1250 2315 35
6214 1251 3209 49
6215 1251 9710 93
6216 1251 5347 16
6217 1251 9761 9
6218 1251 7744 15
6219 1252 2175 71
6220 1252 1980 83
6221 1252 5207 47
6222 1252 2660 54
6223 1252 9422 20
6224 1252 4724 14
6225 1253 8242 23
6226 1253 8550 9
6227 1253 9462 12
6228 1253 6732 86
6229 1253 7424 73
6230 1253 981 25
6231 1254 9935 53
6232 1254 9492 90
6233 1255 4539 81
6234 1255 6674 2
6235 1255 5189 91
6236 1256 9706 61
6237 1256 2442 32
6238 1256 8021 100
6239 1256 1175 1
6240 1256 5770 84
6241 1256 878 77
6242 1256 2965 46
6243 1256 7884 95
6244 1257 3044 7
6245 1257 8139 52
6246 1258 5527 85
6247 1258 1209 85
6248 1258 7337 33
6249 1259 6580 91
6250 1259 6815 36
6251 1259 3515 62
6252 1259 2312 83
6253 1259 1793 12
6254 1259 6118 29
6255 1260 670 24
6256 1260 7068 34
6257 1260 4816 36
6258 1260 6359 50
6259 1261 4251 73
6260 1261 5640 41
6261 1261 9118 88
6262 1261 7393 94
6263 1262 4405 41
6264 1262 8949 70
6265 1262 5184 35
6266 1262 970 21
6267 1262 5437 60
6268 1262 6211 61
6269 1262 2062 31
6270 1262 7016 64
6271 1262 1796 45
6272 1262 9223 53
6273 1263 1326 42
6274 1263 6585 60
6275 1263 8834 73
6276 1263 7361 23
6277 1263 5998 29
6278 1263 1812 61
6279 1264 233 1
6280 1264 8569 95
6281 1264 4144 90
6282 1264 3222 30
6283 1264 1749 9
6284 1264 5303 42
6285 1264 8614 31
6286 1265 9631 43
6287 1265 1930 62
6288 1265 6624 38
6289 1265 3207 2
6290 1265 9120 13
6291 1265 4356 87
6292 1266 9845 46
6293 1266 767 36
6294 1266 2898 80
6295 1266 3730 35
6296 1267 6112 2
6297 1267 3027 13
6298 1267 1090 53
6299 1267 8776 48
6300 1267 8743 35
6301 1267 8261 85
6302 1268 1469 76
6303 1268 6853 33
6304 1268 7062 1
6305 1269 4018 62
6306 1269 7025 68
6307 1269 3878 22
6308 1269 467 51
6309 1269 9248 7
6310 1270 5653 67
6311 1270 3198 33
6312 1270 1584 6
6313 1270 1237 8
6314 1270 8307 66
6315 1270 5819 34
6316 1271 1955 53
6317 1271 1815 98
6318 1271 9539 16
6319 1271 9817 30
6320 1271 2708 99
6321 1272 49 65
6322 1272 5344 44
6323 1273 3474 28
6324 1273 5604 29
6325 1273 9831 50
6326 1273 9792 23
6327 1273 7956 63
6328 1274 2530 1
6329 1274 990 19
6330 1274 6830 94
6331 1275 9231 88
6332 1275 2467 56
6333 1275 5079 27
6334 1275 9373 80
6335 1275 8883 9
6336 1276 9923 93
6337 1276 9891 74
6338 1276 3015 76
6339 1276 3621 22
6340 1277 7486 89
6341 1277 1032 40
6342 1277 5640 57
6343 1277 4533 4
6344 1277 449 19
6345 1277 510 8
6346 1278 4842 45
6347 1278 854 84
6348 1278 6329 86
6349 1278 7373 25
6350 1279 2873 37
6351 1279 1626 86
6352 1279 7323 43
6353 1279 2114 22
6354 1279 6622 16
6355 1279 1060 4
6356 1279 342 13
6357 1279 7771 51
6358 1280 1905 21
6359 1280 3011 73
6360 1280 8118 13
6361 1280 1177 29
6362 1280 4186 86
6363 1280 895 100
6364 1280 1479 37
6365 1281 3152 43
6366 1281 1377 61
6367 1281 1931 59
6368 1281 2762 40
6369 1281 9669 60
6370 1281 5748 62
6371 1281 1758 45
6372 1281 4379 4
6373 1282 6435 80
6374 1282 3916 8
6375 1282 3480 40
6376 1282 4485 69
6377 1282 1065 69
6378 1282 5785 90
6379 1282 1745 32
6380 1283 1117 87
6381 1283 9940 73
6382 1283 1016 39
6383 1283 4482 8
6384 1283 9742 36
6385 1283 3793 33
6386 1284 8731 47
6387 1284 6355 3
6388 1284 1988 45
6389 1284 6765 79
6390 1284 3451 12
6391 1284 6526 69
6392 1285 9354 38
6393 1285 1017 58
6394 1285 4350 52
6395 1285 9597 87
6396 1286 4748 58
6397 1286 167 59
6398 1286 4891 32
6399 1286 3748 27
6400 1286 1974 42
6401 1286 3898 78
6402 1287 9205 91
6403 1287 8186 74
6404 1287 8907 21
6405 1287 6174 23
6406 1288 1863 46
6407 1288 6226 46
6408 1288 6058 9
6409 1288 4942 32
6410 1288 5488 32
6411 1288 2386 25
6412 1289 6610 32
6413 1289 1156 78
6414 1289 8485 42
6415 1289 1642 13
6416 1290 7905 65
6417 1290 2589 24
6418 1290 3146 8
6419 1290 8754 9
6420 1290 8151 62
6421 1290 6940 63
6422 1290 5810 38
6423 1291 6450 97
6424 1291 3443 4
6425 1291 918 88
6426 1291 5834 60
6427 1291 7198 11
6428 1291 2035 18
6429 1292 5996 9
6430 1292 5456 96
6431 1293 5646 57
6432 1293 2821 90
6433 1293 1102 37
6434 1293 3186 58
6435 1294 2056 90
6436 1294 2122 90
6437 1294 505 23
6438 1295 524 36
6439 1295 9703 71
6440 1295 9218 100
6441 1296 6393 38
6442 1296 125 32
6443 1296 8112 93
6444 1297 6725 99
6445 1297 200 82
6446 1297 3837 13
6447 1298 3702 79
6448 1298 1140 78
6449 1298 2295 69
6450 1298 4284 40
6451 1299 8227 55
6452 1299 759 65
6453 1299 4332 67
6454 1299 10 61
6455 1299 4448 7
6456 1299 1261 14
6457 1300 6992 11
6458 1300 1043 79
6459 1300 1462 20
6460 1300 930 14
6461 1300 8066 12
6462 1301 3383 54
6463 1301 9116 5
6464 1301 9484 45
6465 1301 6348 12
6466 1302 3633 13
6467 1302 4004 79
6468 1302 8100 1
6469 1302 934 91
6470 1303 7470 31
6471 1303 3584 85
6472 1303 8526 86
6473 1303 1957 56
6474 1303 4806 46
6475 1303 7393 24
6476 1303 3539 58
6477 1303 7323 83
6478 1303 1919 90
6479 1304 6668 52
6480 1304 3598 41
6481 1304 4221 27
6482 1304 9102 84
6483 1305 3586 38
6484 1305 2011 44
6485 1305 3921 23
6486 1305 2844 97
6487 1305 9059 12
6488 1306 7832 85
6489 1306 9697 97
6490 1306 2053 65
6491 1306 212 13
6492 1306 9924 62
6493 1306 4724 100
6494 1307 4172 76
6495 1307 4943 6
6496 1307 3452 32
6497 1308 997 66
6498 1308 8127 23
6499 1308 8680 42
6500 1308 3867 42
6501 1309 9066 39
6502 1309 7109 7
6503 1309 5806 7
6504 1309 1092 28
6505 1309 6214 24
6506 1309 2740 19
6507 1310 192 55
6508 1310 7594 55
6509 1310 4287 22
6510 1310 5702 40
6511 1310 7087 54
6512 1310 629 79
6513 1310 420 60
6514 1310 1167 68
6515 1311 17 13
6516 1311 232 43
6517 1311 209 80
6518 1312 6766 53
6519 1312 7486 95
6520 1312 9239 72
6521 1313 7339 75
6522 1313 8697 78
6523 1313 2755 28
6524 1314 6320 54
6525 1314 8285 42
6526 1314 8815 77
6527 1314 2069 31
6528 1314 5114 3
6529 1315 6176 52
6530 1315 8066 71
6531 1315 4132 17
6532 1315 766 12
6533 1315 8432 12
6534 1316 2389 37
6535 1316 5653 7
6536 1316 9607 48
6537 1316 8251 61
6538 1317 2137 15
6539 1317 5095 17
6540 1317 9399 7
6541 1317 6749 39
6542 1317 8789 68
6543 1317 8319 88
6544 1317 8339 97
6545 1317 8569 5
6546 1317 6830 47
6547 1318 9500 41
6548 1318 8617 88
6549 1318 6527 86
6550 1318 6391 86
6551 1318 1559 58
6552 1318 9311 45
6553 1318 6640 7
6554 1318 6883 83
6555 1318 2111 65
6556 1319 6075 40
6557 1319 2921 86
6558 1319 1061 87
6559 1319 9049 81
6560 1319 9240 99
6561 1320 4579 66
6562 1320 3053 7
6563 1320 2691 71
6564 1320 6280 8
6565 1320 1135 14
6566 1321 7281 71
6567 1321 4212 64
6568 1322 3379 88
6569 1322 9554 95
6570 1322 7280 5
6571 1322 2522 56
6572 1323 4972 71
6573 1323 3638 18
6574 1323 107 85
6575 1323 3548 10
6576 1323 135 54
6577 1324 7360 63
6578 1324 3830 44
6579 1324 336 81
6580 1325 4965 54
6581 1325 4452 60
6582 1325 9178 82
6583 1325 9344 12
6584 1325 3492 80
6585 1325 2109 21
6586 1325 2529 89
6587 1326 2886 43
6588 1326 6127 4
6589 1326 8635 17
6590 1326 4893 68
6591 1327 26 62
6592 1327 8179 6
6593 1327 8632 80
6594 1327 1973 30
6595 1327 7397 21
6596 1327 7917 24
6597 1327 9716 49
6598 1327 214 34
6599 1328 5026 20
6600 1328 8781 32
6601 1328 26 23
6602 1328 3785 41
6603 1328 7602 38
6604 1328 6889 33
6605 1328 3146 45
6606 1329 6965 6
6607 1329 5294 1
6608 1330 9550 52
6609 1330 5198 4
6610 1330 3243 68
6611 1331 9922 57
6612 1331 5151 73
6613 1331 8095 88
6614 1331 2530 81
6615 1332 8282 47
6616 1332 1614 17
6617 1332 8621 71
6618 1333 7150 26
6619 1333 7005 49
6620 1333 3390 49
6621 1333 7066 63
6622 1333 361 42
6623 1333 1618 17
6624 1333 3768 30
6625 1333 6238 49
6626 1334 2865 92
6627 1334 6994 25
6628 1334 5227 14
6629 1334 5228 87
6630 1335 6629 93
6631 1335 509 41
6632 1335 2783 82
6633 1335 4490 86
6634 1335 6170 53
6635 1335 5167 52
6636 1335 6757 100
6637 1335 6081 25
6638 1335 9664 31
6639 1336 3811 97
6640 1336 3817 45
6641 1336 8711 13
6642 1336 9058 52
6643 1336 3311 64
6644 1337 2480 49
6645 1337 8761 84
6646 1337 5039 10
6647 1337 237 79
6648 1338 9631 4
6649 1338 6079 28
6650 1338 1328 7
6651 1338 3659 73
6652 1338 937 29
6653 1338 8195 88
6654 1338 4465 81
6655 1338 3305 24
6656 1338 7739 9
6657 1338 6680 56
6658 1338 9302 25
6659 1339 4674 47
6660 1339 4115 16
6661 1339 4791 43
6662 1340 9975 47
6663 1340 9353 39
6664 1340 9475 30
6665 1340 5901 90
6666 1340 6016 42
6667 1340 5552 61
6668 1340 8321 50
6669 1341 6759 68
6670 1341 5005 38
6671 1341 3743 52
6672 1341 8072 10
6673 1341 8807 22
6674 1341 2327 53
6675 1341 839 21
6676 1342 1477 8
6677 1342 757 91
6678 1342 3434 28
6679 1342 1354 34
6680 1342 9021 28
6681 1343 4617 83
6682 1343 6560 68
6683 1343 3410 30
6684 1343 4633 78
6685 1344 8078 6
6686 1344 2359 4
6687 1344 2964 77
6688 1344 8048 10
6689 1344 8189 27
6690 1344 8775 55
6691 1344 8460 3
6692 1344 8723 27
6693 1344 6208 36
6694 1344 1511 25
6695 1345 3409 31
6696 1345 3696 5
6697 1345 6728 91
6698 1345 505 2
6699 1345 8344 38
6700 1345 9852 30
6701 1345 6502 36
6702 1345 6411 37
6703 1345 5477 71
6704 1345 4020 15
6705 1346 7479 14
6706 1346 7299 22
6707 1346 1901 57
6708 1346 9689 96
6709 1347 1173 45
6710 1347 1855 21
6711 1347 4456 92
6712 1347 5812 90
6713 1347 1893 46
6714 1347 1623 1
6715 1347 2757 32
6716 1348 3940 73
6717 1348 7447 36
6718 1348 9573 20
6719 1348 500 34
6720 1349 1077 91
6721 1349 4771 39
6722 1349 2274 100
6723 1349 2694 44
6724 1349 3761 82
6725 1349 5045 90
6726 1350 988 21
6727 1350 1467 33
6728 1350 6326 57
6729 1350 297 22
6730 1350 2297 24
6731 1350 7112 20
6732 1350 124 98
6733 1351 1557 59
6734 1351 9755 61
6735 1351 684 10
6736 1351 6640 26
6737 1351 1804 37
6738 1351 9763 88
6739 1351 2125 60
6740 1351 197 19
6741 1352 524 82
6742 1352 9081 74
6743 1352 8213 34
6744 1352 5980 68
6745 1352 4832 99
6746 1352 2077 13
6747 1353 9828 77
6748 1353 8559 26
6749 1353 4735 12
6750 1353 2548 14
6751 1353 2546 21
6752 1354 620 42
6753 1354 6876 64
6754 1354 3704 25
6755 1354 5571 84
6756 1354 9627 70
6757 1354 9004 41
6758 1355 5125 93
6759 1355 6210 32
6760 1355 5579 54
6761 1355 9260 95
6762 1355 6029 2
6763 1356 3106 52
6764 1356 2141 16
6765 1356 9849 48
6766 1356 6646 33
6767 1356 7214 47
6768 1356 7948 88
6769 1356 5881 66
6770 1356 9055 23
6771 1356 5348 6
6772 1356 493 72
6773 1357 3196 14
6774 1357 3309 1
6775 1357 4994 66
6776 1357 3415 62
6777 1357 7268 74
6778 1357 9683 96
6779 1357 8016 56
6780 1357 4348 13
6781 1358 7918 46
6782 1358 8184 78
6783 1358 5778 93
6784 1358 4286 34
6785 1358 8113 78
6786 1358 9141 4
6787 1358 6447 59
6788 1359 8613 43
6789 1359 7398 17
6790 1359 3464 1
6791 1359 1529 57
6792 1359 5231 52
6793 1359 7302 48
6794 1359 6332 17
6795 1360 5589 66
6796 1360 731 54
6797 1360 3830 99
6798 1360 1747 36
6799 1360 9953 78
6800 1360 6688 34
6801 1360 7398 79
6802 1361 2750 31
6803 1361 652 12
6804 1361 930 36
6805 1362 3270 8
6806 1362 6128 86
6807 1362 6105 88
6808 1362 1424 92
6809 1362 215 14
6810 1363 4597 38
6811 1363 697 68
6812 1363 6207 17
6813 1364 4111 97
6814 1364 1035 34
6815 1364 5513 45
6816 1364 2183 92
6817 1365 4385 39
6818 1365 1479 25
6819 1365 2846 82
6820 1365 7610 1
6821 1366 9861 52
6822 1366 3244 35
6823 1366 7331 10
6824 1366 2162 43
6825 1366 9714 17
6826 1367 1214 15
6827 1367 8794 34
6828 1367 1737 53
6829 1367 6891 32
6830 1368 1018 68
6831 1368 1680 18
6832 1368 3362 95
6833 1369 5601 28
6834 1369 3872 7
6835 1369 2147 85
6836 1369 9214 59
6837 1369 3158 53
6838 1369 7041 20
6839 1370 8358 11
6840 1370 2635 74
6841 1370 5278 16
6842 1370 3698 19
6843 1370 7302 81
6844 1370 3299 58
6845 1371 3806 54
6846 1371 9419 37
6847 1371 8394 7
6848 1371 3189 65
6849 1371 3601 1
6850 1371 431 52
6851 1371 8381 37
6852 1371 1194 89
6853 1372 1724 32
6854 1372 4136 60
6855 1372 7894 70
6856 1372 5174 46
6857 1372 4690 39
6858 1372 1335 85
6859 1372 2574 24
6860 1372 3045 51
6861 1372 9502 94
6862 1373 4226 31
6863 1373 8286 19
6864 1373 7055 85
6865 1373 9917 1
6866 1373 6263 80
6867 1373 5853 80
6868 1373 578 62
6869 1374 8735 24
6870 1374 4540 46
6871 1374 2807 23
6872 1374 2314 17
6873 1374 4868 10
6874 1374 943 46
6875 1374 2366 78
6876 1375 8147 22
6877 1375 5854 73
6878 1375 7381 85
6879 1375 8499 71
6880 1376 273 10
6881 1376 3953 51
6882 1376 7494 44
6883 1376 7087 57
6884 1376 1850 24
6885 1376 5374 91
6886 1376 4030 73
6887 1377 7027 87
6888 1377 6816 77
6889 1378 2770 69
6890 1378 8555 71
6891 1378 3540 93
6892 1378 3056 54
6893 1378 700 42
6894 1379 5448 51
6895 1380 6603 54
6896 1380 4666 21
6897 1380 4949 78
6898 1380 8648 93
6899 1380 253 65
6900 1380 9043 94
6901 1381 921 77
6902 1381 1782 4
6903 1381 5568 8
6904 1381 8146 17
6905 1381 3677 68
6906 1381 7096 37
6907 1381 6531 33
6908 1382 5771 6
6909 1382 5649 22
6910 1382 9874 27
6911 1382 4955 42
6912 1382 5153 27
6913 1382 1782 36
6914 1382 2981 53
6915 1383 3832 16
6916 1383 9480 56
6917 1384 7499 53
6918 1384 1865 52
6919 1385 2358 46
6920 1385 198 31
6921 1385 4345 18
6922 1385 3684 33
6923 1386 5553 30
6924 1386 7044 55
6925 1386 2753 42
6926 1387 1958 98
6927 1387 7118 1
6928 1387 9223 8
6929 1387 5039 46
6930 1387 771 22
6931 1388 5107 80
6932 1388 7305 60
6933 1388 1060 71
6934 1388 5117 75
6935 1388 5078 25
6936 1388 4658 22
6937 1388 6258 18
6938 1389 8194 34
6939 1389 9585 15
6940 1389 4469 10
6941 1389 5428 99
6942 1390 9556 63
6943 1390 9342 78
6944 1390 5787 96
6945 1391 3337 36
6946 1391 5770 56
6947 1391 8822 32
6948 1391 9797 18
6949 1392 9514 11
6950 1392 9861 61
6951 1392 1119 33
6952 1392 1722 15
6953 1392 5576 75
6954 1392 9546 98
6955 1392 827 72
6956 1393 7538 75
6957 1393 4356 76
6958 1393 1931 39
6959 1394 7418 59
6960 1394 9884 4
6961 1394 4331 98
6962 1395 1308 85
6963 1395 7081 63
6964 1396 580 80
6965 1396 7525 71
6966 1396 6152 57
6967 1396 7973 50
6968 1396 5071 35
6969 1396 3932 81
6970 1397 838 63
6971 1397 3597 19
6972 1397 364 6
6973 1398 7771 79
6974 1398 7449 71
6975 1399 8761 47
6976 1399 4622 99
6977 1399 9499 39
6978 1399 6746 33
6979 1399 4131 5
6980 1399 3453 20
6981 1400 6492 21
6982 1400 2684 77
6983 1401 2795 62
6984 1401 6645 51
6985 1401 8354 38
6986 1401 4263 49
6987 1402 8084 37
6988 1402 2912 82
6989 1402 1284 46
6990 1402 8369 69
6991 1403 3095 34
6992 1403 2525 79
6993 1403 3363 24
6994 1403 9531 27
6995 1403 6118 12
6996 1403 7972 31
6997 1404 177 7
6998 1404 341 23
6999 1404 6135 88
7000 1404 679 100
7001 1404 5615 73
7002 1405 3981 70
7003 1405 2781 64
7004 1405 3694 99
7005 1405 386 68
7006 1406 8480 28
7007 1406 6473 4
7008 1406 4559 53
7009 1406 7572 74
7010 1406 4825 37
7011 1407 5447 69
7012 1407 7312 98
7013 1407 4458 9
7014 1407 2170 92
7015 1407 6128 46
7016 1407 6366 67
7017 1408 9119 16
7018 1408 890 71
7019 1409 7327 47
7020 1409 5400 33
7021 1409 7124 83
7022 1409 2704 39
7023 1409 9559 96
7024 1409 9952 37
7025 1409 847 47
7026 1409 113 3
7027 1410 1481 77
7028 1410 5277 63
7029 1410 660 49
7030 1411 8003 49
7031 1411 6718 12
7032 1411 8321 54
7033 1411 5392 49
7034 1411 9403 20
7035 1412 1746 98
7036 1412 5950 88
7037 1412 8559 82
7038 1412 344 41
7039 1412 5013 12
7040 1412 7158 93
7041 1412 3981 83
7042 1412 1862 75
7043 1413 6305 13
7044 1413 7743 87
7045 1413 2430 79
7046 1414 6199 46
7047 1414 9921 100
7048 1414 1451 73
7049 1414 2906 70
7050 1415 3238 63
7051 1415 786 13
7052 1416 1784 26
7053 1416 8126 76
7054 1416 6857 85
7055 1416 5790 41
7056 1416 8127 64
7057 1416 7216 88
7058 1416 3562 100
7059 1416 6562 95
7060 1417 7302 43
7061 1417 550 82
7062 1417 5243 9
7063 1417 9106 7
7064 1417 6282 22
7065 1417 5519 67
7066 1417 6170 91
7067 1417 934 29
7068 1417 275 85
7069 1418 167 28
7070 1418 1840 56
7071 1418 879 73
7072 1418 8172 58
7073 1419 7233 16
7074 1419 2618 88
7075 1419 4776 43
7076 1420 6286 100
7077 1420 8670 87
7078 1420 2480 22
7079 1420 3491 93
7080 1420 5440 32
7081 1420 7513 76
7082 1420 6223 12
7083 1420 1959 76
7084 1421 9416 35
7085 1421 1807 98
7086 1421 5316 83
7087 1421 928 54
7088 1421 1291 1
7089 1421 3607 76
7090 1422 9204 80
7091 1422 7185 51
7092 1423 236 35
7093 1423 347 39
7094 1423 7943 24
7095 1423 6565 3
7096 1423 8672 46
7097 1423 5377 83
7098 1423 2773 8
7099 1423 6111 71
7100 1424 6122 29
7101 1424 7574 29
7102 1424 4844 91
7103 1425 2838 12
7104 1425 6 99
7105 1425 2096 87
7106 1426 7292 12
7107 1426 99 1
7108 1426 6666 13
7109 1426 3972 48
7110 1426 6406 71
7111 1426 5301 4
7112 1426 3483 94
7113 1426 2319 46
7114 1426 1740 27
7115 1427 9728 64
7116 1427 1499 30
7117 1427 6861 76
7118 1427 4192 71
7119 1427 888 39
7120 1427 1526 57
7121 1428 7848 21
7122 1428 885 27
7123 1428 7223 68
7124 1428 2999 53
7125 1428 2558 55
7126 1429 8879 21
7127 1429 7534 65
7128 1429 1612 33
7129 1429 3048 17
7130 1430 3249 66
7131 1430 6027 89
7132 1430 6408 70
7133 1430 5129 62
7134 1430 749 16
7135 1430 408 52
7136 1431 3771 80
7137 1431 5125 82
7138 1431 5892 69
7139 1431 3844 28
7140 1431 349 71
7141 1431 43 60
7142 1431 3732 15
7143 1431 2235 7
7144 1432 5387 35
7145 1432 2203 16
7146 1432 9097 61
7147 1433 3823 92
7148 1433 265 72
7149 1433 1808 14
7150 1433 7293 18
7151 1433 555 92
7152 1434 272 86
7153 1434 6798 10
7154 1434 6922 59
7155 1434 458 3
7156 1434 8790 71
7157 1434 1632 5
7158 1435 6196 21
7159 1435 7973 5
7160 1435 1472 71
7161 1435 4911 11
7162 1436 9983 49
7163 1436 985 34
7164 1436 9260 76
7165 1436 4788 33
7166 1436 470 67
7167 1436 7261 2
7168 1437 1250 65
7169 1437 567 79
7170 1437 1104 36
7171 1437 7581 21
7172 1438 7562 33
7173 1438 527 6
7174 1438 2375 19
7175 1438 4489 24
7176 1438 5693 18
7177 1438 101 10
7178 1438 5192 71
7179 1439 1933 38
7180 1439 1608 12
7181 1439 7683 83
7182 1440 8603 20
7183 1440 3600 80
7184 1440 6697 35
7185 1440 6774 57
7186 1440 7190 54
7187 1440 925 14
7188 1440 2900 40
7189 1441 9627 38
7190 1441 8476 2
7191 1441 3098 89
7192 1442 5025 89
7193 1442 6558 49
7194 1442 9767 46
7195 1442 2320 37
7196 1443 1518 4
7197 1443 3751 81
7198 1444 3389 68
7199 1444 2718 23
7200 1444 111 72
7201 1444 4848 16
7202 1445 4238 29
7203 1445 1721 3
7204 1445 7981 3
7205 1445 9051 31
7206 1446 8331 53
7207 1446 8648 35
7208 1446 5705 71
7209 1446 8147 50
7210 1447 4244 94
7211 1447 127 8
7212 1447 5109 9
7213 1447 3358 36
7214 1448 2728 43
7215 1448 8153 18
7216 1448 472 2
7217 1449 9566 4
7218 1449 3027 30
7219 1450 2927 75
7220 1450 3478 9
7221 1450 1456 61
7222 1450 9880 93
7223 1450 4049 86
7224 1450 7843 7
7225 1450 3149 58
7226 1450 9588 31
7227 1450 3484 32
7228 1450 4780 64
7229 1451 2880 88
7230 1451 7096 56
7231 1451 1390 1
7232 1451 5725 61
7233 1451 6638 17
7234 1451 6809 45
7235 1452 1379 93
7236 1452 49 18
7237 1452 7309 82
7238 1452 8653 57
7239 1452 5773 34
7240 1452 9181 27
7241 1453 4432 98
7242 1453 1406 34
7243 1454 4419 45
7244 1454 9276 5
7245 1454 4281 41
7246 1454 5495 31
7247 1455 5024 73
7248 1455 6109 88
7249 1455 9277 54
7250 1455 7586 57
7251 1456 6928 51
7252 1456 9302 5
7253 1456 3133 36
7254 1456 3663 57
7255 1456 5042 68
7256 1456 6665 54
7257 1457 7864 49
7258 1457 2842 75
7259 1457 8327 84
7260 1457 3910 31
7261 1457 3230 21
7262 1457 5652 87
7263 1457 5939 88
7264 1457 3706 61
7265 1458 8273 84
7266 1458 8768 61
7267 1459 1364 19
7268 1459 4167 78
7269 1459 1365 74
7270 1460 6794 21
7271 1460 7938 74
7272 1460 4219 36
7273 1460 5876 47
7274 1460 2044 78
7275 1460 584 79
7276 1460 1204 18
7277 1461 127 73
7278 1461 9426 87
7279 1461 8951 93
7280 1461 2287 88
7281 1461 7880 81
7282 1461 1588 86
7283 1461 6032 32
7284 1461 2238 41
7285 1462 704 75
7286 1462 3911 65
7287 1463 3967 31
7288 1463 9565 18
7289 1463 3567 16
7290 1463 9448 66
7291 1463 18 21
7292 1463 2800 29
7293 1463 5327 13
7294 1464 3900 67
7295 1464 6053 6
7296 1464 9759 33
7297 1464 3811 17
7298 1465 6376 27
7299 1465 1785 4
7300 1465 9979 89
7301 1465 5578 6
7302 1465 1098 88
7303 1466 7060 54
7304 1466 3132 50
7305 1467 8722 22
7306 1467 6740 26
7307 1467 4308 94
7308 1467 5992 75
7309 1467 7460 50
7310 1467 2686 28
7311 1467 2676 24
7312 1467 7652 23
7313 1468 4226 25
7314 1468 4071 94
7315 1468 968 80
7316 1468 2077 36
7317 1468 7559 90
7318 1468 3336 99
7319 1468 6957 61
7320 1469 5910 25
7321 1469 6290 57
7322 1469 8345 71
7323 1469 6795 80
7324 1469 3351 56
7325 1469 2340 23
7326 1470 4125 32
7327 1470 9091 93
7328 1470 7036 31
7329 1470 8076 68
7330 1470 6827 60
7331 1471 7492 76
7332 1471 5195 79
7333 1471 9633 6
7334 1471 3889 54
7335 1471 5655 86
7336 1471 7494 66
7337 1471 5395 86
7338 1471 8785 11
7339 1472 6361 94
7340 1472 6634 92
7341 1472 6881 45
7342 1472 2301 52
7343 1472 6491 22
7344 1473 3337 16
7345 1473 9450 77
7346 1473 5798 46
7347 1473 4785 29
7348 1473 8147 39
7349 1474 8029 50
7350 1474 7362 43
7351 1474 8895 30
7352 1474 8901 20
7353 1474 2170 85
7354 1474 1443 98
7355 1474 6533 51
7356 1474 1079 20
7357 1475 3954 21
7358 1475 8144 91
7359 1475 5046 99
7360 1475 1376 48
7361 1475 6141 96
7362 1475 8781 21
7363 1476 1599 15
7364 1476 2381 75
7365 1476 7197 96
7366 1476 8725 26
7367 1476 9883 60
7368 1476 2695 53
7369 1477 6183 70
7370 1477 5592 47
7371 1478 6825 23
7372 1478 2028 28
7373 1478 4463 94
7374 1478 3507 93
7375 1478 5965 21
7376 1478 5131 45
7377 1479 4480 88
7378 1479 1062 87
7379 1479 4779 7
7380 1479 7872 32
7381 1479 997 27
7382 1480 5446 72
7383 1480 956 33
7384 1480 2079 80
7385 1480 8419 18
7386 1480 4197 30
7387 1480 6688 84
7388 1481 1076 16
7389 1481 7835 72
7390 1481 5753 90
7391 1481 5235 36
7392 1481 8674 89
7393 1481 8160 71
7394 1481 6656 46
7395 1481 7543 91
7396 1481 4053 73
7397 1481 6909 37
7398 1482 5212 20
7399 1482 9220 5
7400 1482 5664 42
7401 1483 3184 77
7402 1483 9903 48
7403 1483 2954 7
7404 1483 5317 8
7405 1483 2203 45
7406 1483 64 25
7407 1483 152 49
7408 1484 7357 83
7409 1484 295 46
7410 1484 6065 97
7411 1484 1940 38
7412 1485 6383 36
7413 1485 9033 92
7414 1486 8161 92
7415 1486 5203 69
7416 1486 1575 61
7417 1486 6664 43
7418 1486 8810 57
7419 1487 839 39
7420 1488 2320 76
7421 1488 5055 11
7422 1488 6495 78
7423 1489 8724 16
7424 1489 4200 7
7425 1489 9167 4
7426 1489 5539 43
7427 1489 6904 86
7428 1490 4814 38
7429 1490 9251 84
7430 1490 138 44
7431 1490 500 31
7432 1491 4184 92
7433 1491 3406 85
7434 1491 8608 61
7435 1491 6664 59
7436 1491 9748 61
7437 1491 3778 6
7438 1491 5109 2
7439 1491 6463 11
7440 1492 6781 91
7441 1492 3106 20
7442 1492 1740 67
7443 1492 1870 18
7444 1493 4142 54
7445 1493 1606 44
7446 1493 1654 90
7447 1493 6435 2
7448 1493 3742 91
7449 1493 5047 82
7450 1493 2257 87
7451 1494 3807 56
7452 1494 1839 88
7453 1494 1967 66
7454 1494 48 24
7455 1495 6500 95
7456 1495 7852 82
7457 1495 9535 54
7458 1495 8587 77
7459 1495 9505 61
7460 1495 1605 95
7461 1495 2725 95
7462 1495 7918 11
7463 1495 8960 29
7464 1496 8728 88
7465 1496 1656 27
7466 1496 8228 73
7467 1496 877 87
7468 1496 193 63
7469 1496 9367 15
7470 1496 1089 67
7471 1497 3565 11
7472 1497 139 38
7473 1497 4010 69
7474 1497 4015 21
7475 1497 8173 76
7476 1497 6401 78
7477 1497 2518 18
7478 1498 3762 59
7479 1498 8948 99
7480 1498 7506 41
7481 1498 5900 20
7482 1498 7687 9
7483 1498 1834 59
7484 1498 2370 8
7485 1498 6000 16
7486 1499 9958 48
7487 1499 8136 45
7488 1499 1510 13
7489 1500 811 39
7490 1500 9137 89
7491 1500 5367 65
7492 1500 1845 34
7493 1500 8928 32
7494 1501 6726 74
7495 1501 3025 54
7496 1501 7334 58
7497 1502 7615 59
7498 1502 908 49
7499 1502 4083 18
7500 1502 7215 19
7501 1502 5499 46
7502 1503 3243 99
7503 1503 9070 86
7504 1503 2663 45
7505 1503 5918 43
7506 1503 6750 38
7507 1504 9005 25
7508 1504 4740 4
7509 1504 3263 57
7510 1504 6695 73
7511 1505 7097 53
7512 1505 6903 7
7513 1505 8103 63
7514 1506 8827 42
7515 1506 3877 2
7516 1506 1555 25
7517 1507 6072 46
7518 1507 4512 93
7519 1507 9468 94
7520 1507 3345 57
7521 1508 1983 75
7522 1509 6478 40
7523 1509 9768 89
7524 1509 477 18
7525 1510 5297 65
7526 1510 7110 34
7527 1510 916 60
7528 1511 2160 85
7529 1511 1861 10
7530 1511 6298 74
7531 1512 7629 71
7532 1512 832 56
7533 1512 3163 59
7534 1512 9596 76
7535 1512 9395 77
7536 1512 368 9
7537 1513 8572 68
7538 1513 3513 75
7539 1514 8913 30
7540 1514 825 88
7541 1514 5027 18
7542 1515 9994 71
7543 1515 8615 39
7544 1515 1166 69
7545 1515 771 78
7546 1515 5335 57
7547 1515 1364 86
7548 1515 4886 81
7549 1516 7720 31
7550 1516 5511 4
7551 1516 5095 100
7552 1516 398 47
7553 1516 3165 15
7554 1516 2717 46
7555 1516 7080 23
7556 1516 9612 70
7557 1516 9453 66
7558 1517 3249 1
7559 1517 9150 91
7560 1517 2722 34
7561 1517 4743 74
7562 1518 5532 15
7563 1518 6567 21
7564 1519 1194 16
7565 1519 9622 83
7566 1519 8955 46
7567 1519 7322 60
7568 1520 3638 71
7569 1520 6763 10
7570 1520 5027 32
7571 1520 2674 7
7572 1521 2767 64
7573 1521 9600 25
7574 1521 7967 30
7575 1521 9808 52
7576 1521 9396 18
7577 1521 4343 14
7578 1521 919 77
7579 1522 5714 98
7580 1522 9848 41
7581 1522 847 13
7582 1522 4380 42
7583 1522 7306 100
7584 1522 7156 72
7585 1522 2097 94
7586 1522 6432 36
7587 1523 1472 23
7588 1523 6415 69
7589 1523 7537 59
7590 1523 5274 28
7591 1523 7623 44
7592 1524 4150 45
7593 1524 7068 59
7594 1524 2617 47
7595 1524 1608 94
7596 1525 3914 87
7597 1525 4454 48
7598 1525 871 33
7599 1525 1749 14
7600 1525 7229 59
7601 1525 8008 2
7602 1526 2033 64
7603 1526 1783 67
7604 1526 1617 7
7605 1526 5987 84
7606 1527 3207 25
7607 1527 8097 71
7608 1528 8351 50
7609 1528 1094 14
7610 1528 5360 58
7611 1528 405 12
7612 1528 7806 91
7613 1529 2928 22
7614 1529 5572 7
7615 1529 5922 62
7616 1530 2582 54
7617 1530 9331 65
7618 1530 7517 14
7619 1530 6574 29
7620 1530 9216 60
7621 1530 9333 40
7622 1530 2670 5
7623 1531 3946 60
7624 1531 6768 25
7625 1531 1552 8
7626 1532 2802 91
7627 1532 5136 41
7628 1532 8497 47
7629 1532 8991 74
7630 1532 2851 26
7631 1533 3970 49
7632 1533 7714 40
7633 1533 4024 66
7634 1533 6405 31
7635 1534 3720 85
7636 1534 5298 4
7637 1534 6813 49
7638 1534 285 42
7639 1534 1484 25
7640 1534 9555 84
7641 1534 8495 27
7642 1534 9095 26
7643 1534 3119 63
7644 1535 6837 5
7645 1535 5646 6
7646 1535 6150 91
7647 1535 427 25
7648 1535 2 28
7649 1536 7515 60
7650 1536 3983 19
7651 1537 8404 51
7652 1537 6359 52
7653 1537 2449 84
7654 1537 7927 52
7655 1538 3123 64
7656 1538 5808 49
7657 1538 9384 25
7658 1538 3787 26
7659 1538 5344 24
7660 1539 1853 15
7661 1539 1494 90
7662 1539 7954 45
7663 1539 6621 51
7664 1539 9210 21
7665 1539 165 71
7666 1539 4433 55
7667 1539 8188 80
7668 1540 7510 49
7669 1540 2691 19
7670 1540 6954 83
7671 1540 6767 33
7672 1541 6839 78
7673 1541 7302 57
7674 1541 9638 45
7675 1541 1538 32
7676 1542 8866 48
7677 1542 3287 19
7678 1542 8399 17
7679 1542 2457 12
7680 1543 8411 87
7681 1543 6522 28
7682 1543 1589 80
7683 1543 7049 38
7684 1544 3911 100
7685 1544 733 50
7686 1544 4029 29
7687 1545 927 13
7688 1545 5422 50
7689 1545 7304 60
7690 1545 8208 55
7691 1546 66 16
7692 1546 6935 22
7693 1546 4447 60
7694 1546 4152 8
7695 1546 0 23
7696 1547 9718 93
7697 1547 1573 78
7698 1547 8829 53
7699 1547 5317 42
7700 1548 2883 36
7701 1548 5190 14
7702 1548 3456 2
7703 1548 8929 64
7704 1548 869 61
7705 1549 3226 96
7706 1550 3355 27
7707 1550 5433 95
7708 1550 3408 8
7709 1550 2353 7
7710 1550 9370 49
7711 1550 6971 99
7712 1550 1086 20
7713 1551 948 87
7714 1551 7149 95
7715 1551 3314 55
7716 1552 1690 36
7717 1552 8666 8
7718 1552 9823 20
7719 1553 1280 21
7720 1553 7993 85
7721 1554 4757 34
7722 1554 5294 6
7723 1554 1518 48
7724 1554 8280 65
7725 1554 5062 31
7726 1554 8507 43
7727 1555 5256 21
7728 1555 980 66
7729 1555 421 93
7730 1555 2526 36
7731 1555 2353 27
7732 1555 2289 92
7733 1556 1791 13
7734 1556 3343 12
7735 1556 6509 79
7736 1556 8937 99
7737 1556 6511 3
7738 1556 1153 59
7739 1556 9085 57
7740 1556 5450 99
7741 1557 7737 79
7742 1557 1985 84
7743 1558 2511 23
7744 1558 7457 51
7745 1558 1784 46
7746 1559 6970 97
7747 1559 4196 60
7748 1559 2258 93
7749 1559 6607 80
7750 1560 5926 60
7751 1560 7350 72
7752 1560 7299 40
7753 1560 4598 1
7754 1560 5433 54
7755 1561 9106 85
7756 1561 8076 2
7757 1561 8712 82
7758 1561 2649 75
7759 1561 5831 86
7760 1561 2267 11
7761 1561 5441 100
7762 1562 1660 36
7763 1562 5246 89
7764 1563 2925 33
7765 1563 475 74
7766 1563 3217 71
7767 1563 6507 42
7768 1563 2839 85
7769 1563 7737 45
7770 1563 206 80
7771 1563 3980 73
7772 1563 998 58
7773 1563 7967 78
7774 1563 3705 44
7775 1563 7912 74
7776 1564 2404 49
7777 1564 4442 43
7778 1564 9878 49
7779 1565 2450 82
7780 1565 2373 34
7781 1565 256 38
7782 1565 7247 63
7783 1566 9926 43
7784 1566 275 73
7785 1566 728 43
7786 1566 4068 32
7787 1567 8674 97
7788 1567 5117 22
7789 1567 4188 28
7790 1567 2295 36
7791 1567 6003 75
7792 1567 9078 83
7793 1567 4338 53
7794 1567 3938 34
7795 1567 1723 94
7796 1567 3597 56
7797 1568 8485 65
7798 1568 9952 63
7799 1569 1538 69
7800 1569 3828 18
7801 1569 5839 50
7802 1569 15 32
7803 1569 9124 83
7804 1570 1450 34
7805 1570 5469 37
7806 1570 5598 58
7807 1570 6168 81
7808 1570 5422 27
7809 1570 4604 43
7810 1570 4925 14
7811 1570 6971 61
7812 1570 4576 76
7813 1570 1420 66
7814 1570 9944 35
7815 1571 6993 46
7816 1572 6541 64
7817 1572 1824 91
7818 1572 1551 12
7819 1572 5226 89
7820 1572 3604 89
7821 1572 6046 80
7822 1573 4056 18
7823 1573 9084 19
7824 1573 5593 60
7825 1573 1489 64
7826 1574 9674 19
7827 1574 6139 59
7828 1574 3054 80
7829 1574 514 35
7830 1575 1090 59
7831 1575 2361 45
7832 1575 9933 15
7833 1575 7857 98
7834 1575 6786 15
7835 1575 4656 5
7836 1576 3650 29
7837 1576 2686 2
7838 1576 4321 94
7839 1576 3116 22
7840 1576 9931 90
7841 1576 5301 8
7842 1576 3200 91
7843 1577 7958 7
7844 1577 5180 93
7845 1577 4781 62
7846 1577 201 61
7847 1578 2364 7
7848 1578 5761 55
7849 1578 857 6
7850 1579 5947 34
7851 1579 2693 42
7852 1579 2119 65
7853 1579 4918 38
7854 1580 9279 45
7855 1580 7635 77
7856 1580 496 83
7857 1580 5849 17
7858 1580 4151 90
7859 1580 9669 28
7860 1580 3985 20
7861 1581 7410 34
7862 1581 6643 83
7863 1581 2025 73
7864 1581 3806 86
7865 1581 5908 42
7866 1581 4767 4
7867 1582 9069 22
7868 1582 9299 8
7869 1582 3018 97
7870 1582 3108 35
7871 1582 934 83
7872 1582 5003 15
7873 1583 4863 29
7874 1583 2529 7
7875 1583 9473 43
7876 1583 9308 47
7877 1583 7651 57
7878 1583 7879 64
7879 1585 1250 48
7880 1585 5537 28
7881 1585 60 67
7882 1585 8546 18
7883 1586 1791 35
7884 1586 6570 85
7885 1586 3318 69
7886 1586 5209 66
7887 1586 7927 10
7888 1587 2681 36
7889 1587 3339 71
7890 1587 6665 66
7891 1588 6497 67
7892 1589 3476 58
7893 1589 9643 45
7894 1589 3623 23
7895 1589 5780 26
7896 1589 2179 41
7897 1589 9428 19
7898 1589 2653 31
7899 1590 2641 71
7900 1590 170 69
7901 1590 4292 10
7902 1590 3037 8
7903 1590 8117 23
7904 1590 5723 19
7905 1590 3102 88
7906 1591 6905 34
7907 1591 1790 70
7908 1592 2307 79
7909 1592 1965 51
7910 1592 1943 50
7911 1593 5610 8
7912 1593 5526 81
7913 1593 9661 70
7914 1594 4306 67
7915 1594 5707 21
7916 1594 711 20
7917 1594 4785 22
7918 1595 5755 68
7919 1595 6489 69
7920 1595 5679 84
7921 1595 4913 19
7922 1595 9602 99
7923 1595 6666 59
7924 1596 1179 29
7925 1596 2380 82
7926 1596 755 1
7927 1596 152 99
7928 1596 7352 14
7929 1597 2752 35
7930 1597 4485 90
7931 1597 2673 56
7932 1597 1590 71
7933 1597 1611 25
7934 1598 3505 57
7935 1598 72 75
7936 1598 3324 21
7937 1598 8924 86
7938 1598 9142 45
7939 1599 9865 75
7940 1599 8832 97
7941 1599 5335 35
7942 1599 8186 73
7943 1599 246 62
7944 1599 4558 56
7945 1599 249 72
7946 1599 9690 61
7947 1599 3467 91
7948 1599 419 26
7949 1600 852 3
7950 1600 8370 79
7951 1600 1351 5
7952 1600 4172 77
7953 1600 2407 25
7954 1600 8758 83
7955 1601 5208 56
7956 1601 6881 27
7957 1602 4550 37
7958 1602 597 16
7959 1602 5890 99
7960 1602 4069 58
7961 1602 5121 65
7962 1602 3651 7
7963 1603 7725 59
7964 1603 3181 23
7965 1604 6980 60
7966 1604 3053 71
7967 1604 441 94
7968 1604 485 3
7969 1605 6300 89
7970 1605 113 69
7971 1605 4811 1
7972 1605 5341 81
7973 1605 5053 56
7974 1606 4715 18
7975 1606 4658 88
7976 1606 9504 79
7977 1607 5590 2
7978 1607 5728 79
7979 1607 8563 46
7980 1607 1471 45
7981 1607 8207 13
7982 1607 4185 84
7983 1607 6624 41
7984 1608 9041 63
7985 1608 8438 12
7986 1608 5611 92
7987 1608 2660 29
7988 1608 9765 91
7989 1609 1787 27
7990 1609 6646 25
7991 1609 7283 29
7992 1609 2786 40
7993 1609 3746 78
7994 1609 5755 81
7995 1609 8938 97
7996 1610 8632 78
7997 1610 2599 63
7998 1610 9976 87
7999 1610 5809 18
8000 1611 4495 87
8001 1611 7047 61
8002 1611 6389 39
8003 1612 5770 92
8004 1612 7501 15
8005 1612 9562 73
8006 1613 4691 43
8007 1613 1530 22
8008 1613 72 27
8009 1613 1670 82
8010 1613 2230 63
8011 1613 6541 11
8012 1614 1962 70
8013 1614 6020 18
8014 1614 1353 28
8015 1614 4334 25
8016 1615 2258 8
8017 1615 9173 35
8018 1615 284 92
8019 1615 3559 18
8020 1615 3056 51
8021 1615 815 6
8022 1615 2069 75
8023 1616 2168 25
8024 1616 725 23
8025 1616 7757 20
8026 1616 3513 10
8027 1616 4086 21
8028 1616 6876 88
8029 1616 904 70
8030 1616 8813 58
8031 1617 8332 14
8032 1617 8740 39
8033 1617 573 9
8034 1617 1665 16
8035 1618 1591 85
8036 1618 1643 16
8037 1618 3334 30
8038 1618 156 16
8039 1618 830 67
8040 1618 4786 56
8041 1618 6939 69
8042 1619 6150 20
8043 1619 1321 62
8044 1619 4884 37
8045 1619 6275 72
8046 1620 1751 99
8047 1620 5635 63
8048 1620 2553 44
8049 1620 7352 56
8050 1621 9891 87
8051 1622 5953 40
8052 1622 4950 78
8053 1622 3169 3
8054 1622 2078 59
8055 1622 5388 46
8056 1623 9403 22
8057 1623 7598 18
8058 1623 1022 71
8059 1623 4642 84
8060 1623 8285 55
8061 1623 2549 11
8062 1623 261 78
8063 1624 6182 79
8064 1624 6658 87
8065 1624 2637 69
8066 1624 509 43
8067 1625 8328 81
8068 1626 3074 96
8069 1626 7016 75
8070 1626 9183 73
8071 1626 7250 57
8072 1626 4511 69
8073 1626 9889 15
8074 1626 2325 48
8075 1626 4757 9
8076 1626 3342 33
8077 1626 5247 5
8078 1627 6864 63
8079 1627 8090 82
8080 1627 5371 57
8081 1627 303 33
8082 1627 8200 7
8083 1628 8585 50
8084 1628 7652 67
8085 1628 4709 64
8086 1628 2351 37
8087 1628 8162 85
8088 1628 9151 13
8089 1628 2803 57
8090 1629 7283 10
8091 1629 7152 5
8092 1629 8078 69
8093 1629 8052 27
8094 1629 7737 47
8095 1629 1232 60
8096 1630 6642 33
8097 1630 6250 89
8098 1630 7322 1
8099 1631 1216 19
8100 1632 8814 52
8101 1632 4800 15
8102 1632 3035 57
8103 1633 8190 29
8104 1633 6345 97
8105 1633 5967 35
8106 1634 6963 33
8107 1634 7767 91
8108 1634 8766 6
8109 1634 8448 29
8110 1634 978 11
8111 1634 6696 91
8112 1634 9193 11
8113 1634 9028 17
8114 1635 2843 11
8115 1635 2898 45
8116 1635 5029 32
8117 1636 2413 43
8118 1636 7429 79
8119 1636 4230 45
8120 1636 4196 71
8121 1636 7162 60
8122 1636 6202 33
8123 1636 3339 95
8124 1637 3387 9
8125 1638 6306 66
8126 1638 1668 22
8127 1638 9158 79
8128 1639 3060 90
8129 1639 8248 69
8130 1639 3334 44
8131 1639 3050 53
8132 1639 5145 52
8133 1640 821 19
8134 1640 8339 79
8135 1640 5357 10
8136 1640 3358 46
8137 1641 2695 7
8138 1641 5548 75
8139 1641 279 23
8140 1642 7109 91
8141 1642 8949 51
8142 1642 8254 61
8143 1643 3261 9
8144 1643 7662 4
8145 1643 892 100
8146 1644 9014 37
8147 1644 5671 40
8148 1645 2929 71
8149 1645 7308 45
8150 1645 2891 74
8151 1645 5350 86
8152 1645 2987 84
8153 1646 6053 85
8154 1646 2935 94
8155 1646 4606 38
8156 1646 9168 21
8157 1646 3918 24
8158 1646 4019 22
8159 1646 7248 99
8160 1647 4524 44
8161 1647 1860 60
8162 1648 5486 17
8163 1648 1017 28
8164 1648 411 100
8165 1648 2538 17
8166 1648 8329 95
8167 1648 7617 75
8168 1648 5883 1
8169 1648 1597 56
8170 1648 2300 69
8171 1649 6134 11
8172 1649 2037 82
8173 1649 7165 4
8174 1649 8913 67
8175 1649 735 39
8176 1650 6582 34
8177 1650 2665 26
8178 1650 8827 98
8179 1650 2357 81
8180 1650 5650 80
8181 1651 9979 67
8182 1651 2813 32
8183 1651 9767 100
8184 1651 8307 51
8185 1652 2137 22
8186 1652 7303 32
8187 1652 1300 62
8188 1652 2458 92
8189 1652 6638 31
8190 1652 6948 29
8191 1653 9919 94
8192 1653 130 83
8193 1653 3375 16
8194 1653 3008 64
8195 1653 842 45
8196 1653 378 36
8197 1653 5792 65
8198 1653 4170 80
8199 1653 30 88
8200 1653 3552 46
8201 1654 3959 10
8202 1654 9031 77
8203 1654 1653 49
8204 1654 3986 33
8205 1654 41 14
8206 1654 6947 14
8207 1654 3505 87
8208 1655 9326 43
8209 1655 2433 19
8210 1655 6604 17
8211 1655 8986 49
8212 1655 7145 28
8213 1655 544 51
8214 1655 4246 60
8215 1656 9130 13
8216 1656 3318 29
8217 1656 4889 70
8218 1656 8527 44
8219 1656 5492 3
8220 1657 6599 100
8221 1657 3500 44
8222 1657 6109 95
8223 1657 5564 86
8224 1657 9255 59
8225 1657 5969 38
8226 1657 3853 94
8227 1657 7410 19
8228 1658 7893 65
8229 1658 2203 46
8230 1658 8480 32
8231 1658 8879 78
8232 1658 2861 68
8233 1658 3981 44
8234 1659 2845 54
8235 1659 5438 57
8236 1659 6574 48
8237 1659 5628 60
8238 1659 8607 98
8239 1660 3535 16
8240 1660 5261 22
8241 1660 8253 37
8242 1661 2491 95
8243 1661 3262 96
8244 1661 587 1
8245 1661 9093 55
8246 1661 6464 27
8247 1661 4941 48
8248 1661 4349 63
8249 1662 2949 31
8250 1662 5977 4
8251 1662 9816 39
8252 1662 6187 15
8253 1663 164 1
8254 1663 3916 75
8255 1663 472 33
8256 1663 6318 40
8257 1663 1823 57
8258 1663 1336 62
8259 1663 1417 28
8260 1664 6582 70
8261 1664 4278 21
8262 1664 8536 26
8263 1664 3865 77
8264 1664 2787 90
8265 1665 3928 83
8266 1665 3537 82
8267 1665 1815 68
8268 1665 6593 95
8269 1665 1313 67
8270 1666 8604 51
8271 1666 1510 2
8272 1667 1901 12
8273 1667 1058 79
8274 1667 4923 31
8275 1667 9623 41
8276 1667 7897 21
8277 1667 228 45
8278 1667 5458 25
8279 1667 6948 77
8280 1668 2604 90
8281 1668 9907 73
8282 1668 1307 44
8283 1668 6273 53
8284 1669 1866 29
8285 1669 9314 27
8286 1669 7773 76
8287 1669 4240 94
8288 1670 4646 51
8289 1670 5576 8
8290 1670 1315 79
8291 1670 6916 16
8292 1670 1302 96
8293 1670 1337 86
8294 1670 7216 35
8295 1670 3428 20
8296 1670 3667 31
8297 1670 721 32
8298 1671 2571 85
8299 1671 3072 24
8300 1671 8310 30
8301 1671 5330 56
8302 1671 809 84
8303 1671 4334 22
8304 1672 7183 10
8305 1672 1317 45
8306 1672 3262 73
8307 1672 4209 13
8308 1672 6010 50
8309 1672 7340 53
8310 1672 1633 77
8311 1672 1582 54
8312 1672 6945 99
8313 1673 8802 21
8314 1673 3540 89
8315 1673 6944 2
8316 1673 6416 68
8317 1673 195 82
8318 1673 54 10
8319 1673 2956 16
8320 1673 5718 91
8321 1674 9269 32
8322 1674 2152 43
8323 1674 834 53
8324 1674 8731 16
8325 1674 8159 100
8326 1675 5753 98
8327 1675 8369 3
8328 1675 7282 29
8329 1675 5614 63
8330 1675 3000 4
8331 1676 558 86
8332 1676 9696 13
8333 1676 4460 18
8334 1676 2356 25
8335 1677 2850 69
8336 1677 6924 56
8337 1677 3460 71
8338 1677 6958 79
8339 1677 9440 15
8340 1678 9745 90
8341 1678 9980 55
8342 1678 2964 58
8343 1678 4480 21
8344 1678 4766 31
8345 1678 6875 99
8346 1678 39 11
8347 1678 5041 6
8348 1679 4569 30
8349 1679 8065 72
8350 1679 1157 43
8351 1679 3016 35
8352 1679 7703 27
8353 1679 3192 24
8354 1679 411 42
8355 1679 9868 81
8356 1679 6415 90
8357 1680 3653 4
8358 1680 3896 92
8359 1680 724 29
8360 1680 1633 16
8361 1680 9471 2
8362 1680 9002 44
8363 1680 8224 59
8364 1680 6781 72
8365 1681 2154 28
8366 1681 4381 79
8367 1682 1850 46
8368 1682 1879 56
8369 1682 6294 3
8370 1683 5874 84
8371 1683 6456 82
8372 1683 8420 58
8373 1684 4926 87
8374 1684 4606 16
8375 1684 5232 41
8376 1685 9940 21
8377 1685 3629 31
8378 1685 3565 40
8379 1685 8023 6
8380 1685 8464 97
8381 1685 2696 70
8382 1685 6145 86
8383 1685 6453 49
8384 1685 8839 28
8385 1686 5366 67
8386 1686 9524 82
8387 1686 6220 82
8388 1686 955 88
8389 1686 7556 15
8390 1686 5525 21
8391 1686 7485 91
8392 1686 421 50
8393 1686 7690 45
8394 1687 2213 4
8395 1687 476 68
8396 1687 7642 4
8397 1688 1816 59
8398 1689 2673 26
8399 1689 6127 41
8400 1689 2482 37
8401 1689 537 43
8402 1689 6788 63
8403 1689 2785 13
8404 1689 2557 66
8405 1690 4654 11
8406 1690 7453 3
8407 1690 2843 84
8408 1691 5498 36
8409 1691 555 4
8410 1691 8939 17
8411 1691 6809 61
8412 1691 6079 40
8413 1692 6171 54
8414 1692 5964 79
8415 1692 85 54
8416 1692 9379 68
8417 1692 2102 32
8418 1692 6961 87
8419 1692 7995 21
8420 1692 3053 11
8421 1692 3968 22
8422 1693 5567 17
8423 1693 5142 96
8424 1693 8971 68
8425 1693 8909 31
8426 1693 7245 18
8427 1693 7648 58
8428 1694 6889 48
8429 1694 2705 100
8430 1694 2085 21
8431 1694 4615 100
8432 1695 4641 3
8433 1695 2668 82
8434 1696 212 1
8435 1696 6265 32
8436 1696 5210 29
8437 1696 3988 78
8438 1696 6184 8
8439 1696 5341 78
8440 1696 451 5
8441 1697 2469 65
8442 1697 8717 20
8443 1697 5421 60
8444 1697 9441 31
8445 1697 2192 38
8446 1697 1138 63
8447 1697 1222 69
8448 1698 3344 18
8449 1698 32 21
8450 1698 7359 1
8451 1698 3060 8
8452 1699 4458 40
8453 1699 6786 31
8454 1699 8905 71
8455 1700 4143 8
8456 1700 2650 79
8457 1700 2619 94
8458 1700 3488 97
8459 1700 6839 98
8460 1700 7829 81
8461 1700 5091 15
8462 1700 2717 95
8463 1700 7283 56
8464 1701 5003 43
8465 1701 5201 70
8466 1701 4161 65
8467 1702 2270 67
8468 1702 237 93
8469 1702 4233 74
8470 1702 5506 53
8471 1702 3379 79
8472 1702 2773 14
8473 1703 699 12
8474 1703 6049 18
8475 1703 4361 67
8476 1703 1591 14
8477 1703 2200 38
8478 1704 253 12
8479 1704 4610 64
8480 1704 3448 14
8481 1704 7079 84
8482 1704 256 7
8483 1705 1634 25
8484 1705 3122 81
8485 1705 9308 72
8486 1705 5014 92
8487 1705 6509 23
8488 1705 6564 6
8489 1705 830 75
8490 1705 2470 51
8491 1706 7122 25
8492 1706 4824 9
8493 1706 7100 34
8494 1706 3728 61
8495 1706 4576 42
8496 1706 6814 64
8497 1706 541 74
8498 1707 2771 82
8499 1707 5628 7
8500 1707 5711 67
8501 1707 530 82
8502 1707 6326 75
8503 1708 4427 96
8504 1708 1211 18
8505 1708 6562 93
8506 1708 8988 40
8507 1708 6134 13
8508 1709 7552 77
8509 1709 2897 23
8510 1709 1363 88
8511 1709 7434 98
8512 1709 1723 87
8513 1709 9520 2
8514 1710 1417 52
8515 1710 110 57
8516 1710 9528 95
8517 1710 7022 9
8518 1710 2209 94
8519 1710 3584 64
8520 1710 5784 9
8521 1710 5635 31
8522 1711 9987 49
8523 1711 8761 17
8524 1711 5982 9
8525 1712 8942 44
8526 1712 3549 80
8527 1712 9332 22
8528 1712 5641 40
8529 1712 2186 87
8530 1712 1684 47
8531 1712 2854 68
8532 1713 6254 86
8533 1713 1555 58
8534 1713 509 82
8535 1713 4846 56
8536 1714 3218 57
8537 1714 5087 52
8538 1714 5058 90
8539 1714 5051 79
8540 1714 5943 44
8541 1714 6647 83
8542 1714 7440 68
8543 1714 229 25
8544 1714 4254 42
8545 1714 1620 1
8546 1715 676 4
8547 1715 2524 36
8548 1715 1649 50
8549 1715 7354 92
8550 1715 3876 94
8551 1716 3795 78
8552 1717 5925 54
8553 1717 1222 94
8554 1717 5208 87
8555 1717 284 100
8556 1718 7589 99
8557 1718 9717 42
8558 1719 3512 63
8559 1719 9677 11
8560 1719 3662 84
8561 1719 2472 62
8562 1719 3891 8
8563 1719 7870 15
8564 1719 3976 40
8565 1720 7307 46
8566 1720 673 61
8567 1720 1471 61
8568 1720 9705 31
8569 1720 9112 97
8570 1721 9817 35
8571 1721 3469 40
8572 1721 194 100
8573 1721 6655 48
8574 1721 1238 56
8575 1722 2588 87
8576 1722 6748 1
8577 1722 4509 65
8578 1722 7707 35
8579 1722 1596 67
8580 1722 2496 83
8581 1722 5902 94
8582 1722 7380 73
8583 1723 9379 66
8584 1723 9984 52
8585 1723 4346 9
8586 1723 6277 41
8587 1723 1987 59
8588 1724 5025 17
8589 1724 7870 78
8590 1724 3976 34
8591 1724 7386 58
8592 1724 7305 97
8593 1724 2912 93
8594 1725 1834 5
8595 1725 6777 97
8596 1725 2135 100
8597 1725 538 75
8598 1725 3044 74
8599 1725 7449 35
8600 1725 7281 21
8601 1725 6489 95
8602 1725 5488 40
8603 1726 7642 72
8604 1726 8236 42
8605 1726 1391 39
8606 1726 450 71
8607 1726 5705 80
8608 1726 9673 74
8609 1726 4115 19
8610 1726 5072 76
8611 1726 8970 30
8612 1726 8594 62
8613 1726 2888 77
8614 1727 1123 33
8615 1727 4996 55
8616 1727 7965 28
8617 1727 1735 99
8618 1727 3462 89
8619 1728 8294 98
8620 1728 3405 99
8621 1728 8920 99
8622 1728 9442 41
8623 1728 8661 71
8624 1728 2789 88
8625 1729 3512 62
8626 1729 6328 79
8627 1730 3093 76
8628 1730 8980 49
8629 1730 6450 57
8630 1730 4069 100
8631 1730 3317 87
8632 1731 2512 80
8633 1731 120 45
8634 1731 8663 88
8635 1731 3167 64
8636 1731 6298 52
8637 1731 6690 14
8638 1731 968 73
8639 1731 1190 100
8640 1732 5438 12
8641 1732 1068 85
8642 1732 5451 79
8643 1732 1864 38
8644 1732 4166 9
8645 1733 9090 14
8646 1733 5732 88
8647 1733 2124 64
8648 1733 2317 52
8649 1733 3431 15
8650 1733 2029 96
8651 1734 1467 53
8652 1734 6040 59
8653 1734 7354 17
8654 1734 7859 57
8655 1734 9426 29
8656 1735 2995 88
8657 1735 2748 9
8658 1735 8161 14
8659 1735 3946 8
8660 1736 2954 32
8661 1736 291 55
8662 1736 8573 17
8663 1737 2768 16
8664 1737 2777 62
8665 1737 94 29
8666 1737 2906 27
8667 1737 8586 38
8668 1737 3919 63
8669 1737 8491 13
8670 1737 6567 12
8671 1738 4910 40
8672 1738 921 16
8673 1738 3098 64
8674 1738 6734 41
8675 1739 9298 31
8676 1739 1136 15
8677 1739 870 12
8678 1739 4910 8
8679 1740 3181 12
8680 1740 2404 83
8681 1740 5622 65
8682 1740 2617 38
8683 1741 1655 25
8684 1741 6269 62
8685 1741 3833 49
8686 1741 6054 1
8687 1741 6540 57
8688 1741 5506 31
8689 1741 5864 8
8690 1741 5869 28
8691 1742 2250 4
8692 1742 7712 76
8693 1742 1461 72
8694 1742 5974 83
8695 1743 5385 37
8696 1743 7275 23
8697 1743 164 61
8698 1744 8819 82
8699 1744 6221 40
8700 1744 94 42
8701 1745 316 49
8702 1745 4264 81
8703 1745 206 53
8704 1745 7473 6
8705 1745 8028 68
8706 1745 2251 51
8707 1745 9870 39
8708 1745 3152 45
8709 1745 5675 66
8710 1745 3887 86
8711 1745 9083 69
8712 1745 335 31
8713 1745 8286 44
8714 1746 4742 70
8715 1746 8920 95
8716 1746 1884 67
8717 1746 9398 65
8718 1746 3720 22
8719 1746 3684 69
8720 1746 2708 57
8721 1746 5274 99
8722 1746 5254 84
8723 1747 9663 59
8724 1747 5496 7
8725 1747 5480 5
8726 1747 9669 98
8727 1748 9552 27
8728 1748 7192 100
8729 1748 7425 47
8730 1749 937 72
8731 1749 1763 8
8732 1749 5395 18
8733 1749 1874 34
8734 1750 6036 80
8735 1750 4864 78
8736 1750 6840 19
8737 1750 3492 97
8738 1750 506 54
8739 1750 4775 79
8740 1750 4114 17
8741 1751 8214 39
8742 1751 6284 17
8743 1751 3443 5
8744 1751 4765 66
8745 1751 9758 7
8746 1751 314 53
8747 1751 5084 70
8748 1752 6843 15
8749 1752 3698 3
8750 1752 3241 25
8751 1752 8122 14
8752 1752 7167 18
8753 1752 5819 89
8754 1752 7618 44
8755 1752 3707 39
8756 1752 6088 24
8757 1753 8137 25
8758 1754 5119 80
8759 1754 8928 96
8760 1754 8012 36
8761 1755 7294 51
8762 1755 1108 61
8763 1755 4518 11
8764 1756 2080 93
8765 1756 7569 27
8766 1756 9254 20
8767 1756 2257 65
8768 1757 29 91
8769 1757 8213 16
8770 1757 1382 26
8771 1757 4273 90
8772 1757 2881 55
8773 1757 1635 72
8774 1757 1799 20
8775 1757 7004 27
8776 1758 4738 29
8777 1759 6062 99
8778 1759 3978 1
8779 1760 9194 31
8780 1760 8485 17
8781 1760 3083 82
8782 1760 8515 19
8783 1761 3314 71
8784 1761 8178 24
8785 1761 5966 69
8786 1761 2851 62
8787 1762 5918 7
8788 1762 6992 95
8789 1762 1393 13
8790 1763 1734 47
8791 1763 7485 60
8792 1764 2846 49
8793 1764 5072 28
8794 1764 6923 24
8795 1764 8625 84
8796 1764 3531 82
8797 1764 1557 47
8798 1765 7472 74
8799 1765 7012 57
8800 1765 233 34
8801 1765 8078 100
8802 1765 6171 100
8803 1765 2016 6
8804 1765 4712 42
8805 1766 1209 24
8806 1766 2129 26
8807 1766 5843 55
8808 1766 9974 11
8809 1767 9139 76
8810 1767 9920 56
8811 1767 8366 44
8812 1767 2212 88
8813 1768 2116 31
8814 1768 4988 99
8815 1768 2929 70
8816 1768 336 19
8817 1768 2124 69
8818 1768 3780 77
8819 1768 1524 28
8820 1768 5803 78
8821 1768 9200 84
8822 1769 9736 27
8823 1769 9142 71
8824 1769 171 53
8825 1769 90 26
8826 1769 5078 6
8827 1770 2316 62
8828 1770 3025 98
8829 1770 1399 84
8830 1770 2872 93
8831 1770 3252 17
8832 1771 8019 50
8833 1771 8976 9
8834 1771 2506 53
8835 1771 9724 89
8836 1772 5926 75
8837 1772 490 83
8838 1772 3497 3
8839 1772 5941 55
8840 1772 7555 12
8841 1772 5801 33
8842 1773 4205 75
8843 1773 8208 76
8844 1773 3172 91
8845 1773 7949 22
8846 1773 152 19
8847 1774 4839 30
8848 1774 1835 28
8849 1774 2055 77
8850 1774 6011 68
8851 1774 3298 44
8852 1774 822 37
8853 1774 3762 5
8854 1775 8428 76
8855 1775 1177 75
8856 1775 3491 8
8857 1776 2861 49
8858 1776 4135 58
8859 1776 4221 94
8860 1776 8906 72
8861 1776 3631 87
8862 1776 2520 56
8863 1777 1909 35
8864 1777 3597 74
8865 1777 9235 25
8866 1777 3959 8
8867 1777 629 55
8868 1777 6655 45
8869 1778 5989 19
8870 1778 7749 16
8871 1778 9650 66
8872 1778 1696 63
8873 1778 6230 92
8874 1779 6585 92
8875 1779 8457 42
8876 1779 5791 86
8877 1779 3747 33
8878 1779 6687 74
8879 1779 1388 55
8880 1779 3161 91
8881 1780 1866 25
8882 1780 4747 52
8883 1780 7526 97
8884 1780 2693 11
8885 1780 964 82
8886 1781 6272 45
8887 1781 3407 74
8888 1781 7181 33
8889 1781 5414 95
8890 1781 7219 70
8891 1781 1801 4
8892 1781 4494 71
8893 1782 3590 63
8894 1782 9062 74
8895 1782 6164 89
8896 1782 9992 17
8897 1783 5886 19
8898 1783 6731 45
8899 1783 613 68
8900 1783 5745 73
8901 1783 1018 65
8902 1784 3241 92
8903 1784 9462 34
8904 1784 2996 41
8905 1784 9274 3
8906 1784 7058 41
8907 1785 5619 20
8908 1785 3123 62
8909 1785 3151 80
8910 1785 7241 52
8911 1785 6881 14
8912 1785 3715 72
8913 1785 7454 100
8914 1786 9369 13
8915 1786 5094 95
8916 1786 5500 75
8917 1786 620 97
8918 1786 9226 24
8919 1786 7780 45
8920 1787 141 81
8921 1787 4296 78
8922 1787 6125 44
8923 1788 4473 28
8924 1788 9169 81
8925 1788 7727 31
8926 1788 575 43
8927 1788 3082 44
8928 1789 4409 44
8929 1789 4707 66
8930 1789 2903 63
8931 1789 4943 47
8932 1789 1951 85
8933 1790 3056 72
8934 1790 531 28
8935 1790 367 84
8936 1790 5333 84
8937 1790 2396 99
8938 1790 8396 92
8939 1790 3507 75
8940 1791 1778 24
8941 1791 4020 75
8942 1791 8913 44
8943 1791 2436 87
8944 1792 4310 94
8945 1792 687 100
8946 1792 9392 90
8947 1792 8183 61
8948 1793 7231 7
8949 1793 8836 80
8950 1793 3180 8
8951 1793 826 42
8952 1794 5392 68
8953 1794 874 46
8954 1794 8090 34
8955 1794 3888 52
8956 1794 4857 48
8957 1795 2369 86
8958 1795 9371 72
8959 1795 6833 48
8960 1795 8668 39
8961 1795 9973 10
8962 1795 8020 48
8963 1795 4993 30
8964 1796 4805 21
8965 1796 4379 95
8966 1796 2951 21
8967 1796 5836 79
8968 1797 6521 35
8969 1798 2611 16
8970 1798 36 65
8971 1798 8855 64
8972 1798 3747 70
8973 1799 9060 46
8974 1799 8208 92
8975 1799 9977 72
8976 1799 9308 40
8977 1799 889 72
8978 1799 4470 100
8979 1799 7477 68
8980 1799 3414 40
8981 1800 9498 100
8982 1800 2329 72
8983 1800 8800 72
8984 1800 2077 76
8985 1800 3737 65
8986 1801 7755 33
8987 1801 758 63
8988 1801 3876 58
8989 1801 6765 73
8990 1801 6520 74
8991 1801 5056 31
8992 1801 8321 81
8993 1801 4970 3
8994 1801 5438 9
8995 1802 5169 2
8996 1802 2672 66
8997 1802 9026 80
8998 1802 6042 21
8999 1802 9679 39
9000 1802 4690 93
9001 1803 6958 48
9002 1803 2583 60
9003 1803 2879 48
9004 1803 8204 52
9005 1803 1270 2
9006 1803 5959 13
9007 1804 4281 26
9008 1804 3436 100
9009 1805 8765 12
9010 1805 874 42
9011 1805 5751 51
9012 1805 1943 98
9013 1805 2043 32
9014 1805 8227 77
9015 1805 4229 17
9016 1805 4619 25
9017 1806 9713 74
9018 1806 4316 73
9019 1806 7418 47
9020 1806 3597 16
9021 1806 6640 35
9022 1807 1135 9
9023 1807 7826 49
9024 1807 5099 88
9025 1807 3309 86
9026 1808 2925 52
9027 1808 7660 13
9028 1808 3909 37
9029 1808 8768 28
9030 1809 2611 90
9031 1809 9618 25
9032 1810 3642 53
9033 1810 5968 31
9034 1810 1882 57
9035 1810 939 70
9036 1810 6515 33
9037 1811 7910 93
9038 1811 1014 89
9039 1811 7183 66
9040 1811 4150 87
9041 1811 7923 57
9042 1812 3807 4
9043 1812 7223 71
9044 1812 9588 59
9045 1812 4981 29
9046 1813 1769 53
9047 1813 8223 75
9048 1813 9095 79
9049 1813 4341 43
9050 1813 7807 76
9051 1814 342 86
9052 1814 1673 45
9053 1814 2329 26
9054 1814 6257 37
9055 1814 1741 10
9056 1814 6869 99
9057 1815 8375 53
9058 1815 208 42
9059 1815 4136 66
9060 1815 2542 94
9061 1815 4926 12
9062 1816 3379 51
9063 1816 534 30
9064 1816 9702 34
9065 1817 8260 55
9066 1817 3961 97
9067 1817 8043 16
9068 1818 3344 18
9069 1818 5433 27
9070 1818 8807 97
9071 1818 8988 34
9072 1819 6369 91
9073 1820 5682 34
9074 1820 2219 55
9075 1820 1645 23
9076 1820 2887 29
9077 1820 2379 29
9078 1821 8549 88
9079 1821 8210 82
9080 1821 1069 3
9081 1821 7198 63
9082 1822 8943 2
9083 1822 9531 62
9084 1822 1323 32
9085 1822 4673 61
9086 1822 2392 98
9087 1822 4217 20
9088 1822 2936 75
9089 1822 361 6
9090 1822 9144 78
9091 1822 8965 78
9092 1823 662 81
9093 1823 2582 77
9094 1823 9212 4
9095 1823 9534 21
9096 1824 4074 5
9097 1824 9197 50
9098 1824 7404 77
9099 1824 7011 71
9100 1825 831 58
9101 1825 7260 47
9102 1825 7264 63
9103 1825 1121 22
9104 1826 5379 11
9105 1826 2273 10
9106 1826 7562 68
9107 1827 1714 39
9108 1827 2139 35
9109 1827 3650 94
9110 1828 9997 19
9111 1828 3712 17
9112 1828 2337 19
9113 1828 5994 95
9114 1828 3023 52
9115 1828 5417 5
9116 1828 8004 37
9117 1828 8436 2
9118 1829 5088 55
9119 1829 6992 89
9120 1829 3398 41
9121 1829 4069 95
9122 1830 1171 81
9123 1830 917 85
9124 1830 1407 63
9125 1830 276 52
9126 1830 1857 20
9127 1830 6687 55
9128 1830 7939 92
9129 1831 9548 11
9130 1831 4573 5
9131 1832 3161 77
9132 1832 9481 23
9133 1832 6924 22
9134 1832 5242 61
9135 1832 2337 46
9136 1832 1044 8
9137 1833 655 17
9138 1834 2047 63
9139 1834 1190 12
9140 1834 5207 76
9141 1834 7108 28
9142 1834 7212 73
9143 1834 4164 73
9144 1834 9899 39
9145 1834 1420 95
9146 1834 2943 98
9147 1834 6906 84
9148 1834 5009 16
9149 1835 6814 40
9150 1835 2326 79
9151 1835 4100 71
9152 1835 9758 90
9153 1836 1775 95
9154 1836 3412 33
9155 1836 1347 94
9156 1837 8566 90
9157 1837 4071 17
9158 1837 417 61
9159 1838 6163 25
9160 1838 4182 86
9161 1838 3972 96
9162 1838 6405 19
9163 1838 1039 42
9164 1838 2778 86
9165 1838 6086 100
9166 1838 7598 18
9167 1839 3498 39
9168 1839 5519 60
9169 1839 8851 13
9170 1839 6086 65
9171 1839 6955 81
9172 1839 4249 40
9173 1839 1040 78
9174 1840 4617 34
9175 1840 4398 81
9176 1840 9834 33
9177 1840 387 65
9178 1840 2348 84
9179 1840 7967 56
9180 1840 7477 5
9181 1840 2161 71
9182 1841 4477 72
9183 1841 6787 64
9184 1841 6980 13
9185 1842 9280 71
9186 1842 3168 69
9187 1842 6911 12
9188 1842 6847 29
9189 1842 4469 25
9190 1843 3677 34
9191 1843 7943 76
9192 1843 14 83
9193 1843 7263 77
9194 1843 974 34
9195 1844 7598 92
9196 1844 5271 36
9197 1844 6488 59
9198 1845 260 89
9199 1845 4833 86
9200 1845 1853 30
9201 1845 5428 80
9202 1845 2707 9
9203 1846 2491 87
9204 1846 3001 70
9205 1846 522 69
9206 1846 4537 9
9207 1846 1697 96
9208 1847 6899 43
9209 1847 8680 25
9210 1847 445 6
9211 1847 8445 3
9212 1847 7359 47
9213 1848 9490 31
9214 1848 3403 55
9215 1849 4431 35
9216 1849 7789 87
9217 1849 5606 19
9218 1850 1792 35
9219 1850 3559 91
9220 1851 319 1
9221 1851 1720 46
9222 1851 4586 33
9223 1851 1352 15
9224 1851 9171 19
9225 1852 9174 46
9226 1852 5982 71
9227 1852 8079 26
9228 1852 5346 53
9229 1852 1826 39
9230 1852 5672 83
9231 1852 3287 13
9232 1853 9846 78
9233 1853 9048 31
9234 1853 3149 85
9235 1854 6980 37
9236 1854 5415 72
9237 1854 3052 92
9238 1854 6451 24
9239 1855 7158 79
9240 1855 6850 19
9241 1856 6284 52
9242 1856 771 54
9243 1856 8237 21
9244 1857 1259 97
9245 1857 4587 76
9246 1857 1251 83
9247 1857 6759 86
9248 1857 5932 68
9249 1857 3266 86
9250 1857 9830 85
9251 1857 300 83
9252 1857 4450 22
9253 1857 7169 36
9254 1858 4884 19
9255 1858 7908 100
9256 1859 8025 28
9257 1859 9735 18
9258 1859 544 26
9259 1859 0 16
9260 1859 7654 31
9261 1859 5679 46
9262 1860 5158 31
9263 1860 8522 96
9264 1860 1663 93
9265 1860 2090 56
9266 1861 3288 68
9267 1861 698 85
9268 1861 5257 16
9269 1861 2979 80
9270 1861 7538 59
9271 1861 1581 21
9272 1861 1877 98
9273 1862 397 83
9274 1862 841 37
9275 1862 4315 96
9276 1862 6317 76
9277 1862 7890 89
9278 1862 1355 12
9279 1862 5725 8
9280 1862 1062 23
9281 1863 2338 88
9282 1863 2713 16
9283 1863 313 15
9284 1863 3501 65
9285 1864 4828 55
9286 1864 8428 26
9287 1864 3734 63
9288 1864 4901 30
9289 1864 3524 47
9290 1864 3209 66
9291 1864 5866 22
9292 1865 5402 93
9293 1865 503 27
9294 1865 2378 4
9295 1865 7268 50
9296 1865 5121 56
9297 1865 6322 15
9298 1866 7196 38
9299 1866 4839 41
9300 1867 7130 98
9301 1867 2234 5
9302 1867 2266 98
9303 1867 409 41
9304 1867 4710 69
9305 1868 5027 42
9306 1868 3986 42
9307 1868 5780 65
9308 1868 710 9
9309 1868 6536 63
9310 1868 1447 80
9311 1868 3201 82
9312 1868 6758 61
9313 1869 6131 60
9314 1869 7787 74
9315 1869 9905 52
9316 1869 9585 79
9317 1869 1542 46
9318 1869 1723 49
9319 1869 2181 76
9320 1869 5171 81
9321 1870 4995 39
9322 1870 7877 13
9323 1870 4110 40
9324 1870 9705 19
9325 1870 4717 33
9326 1870 5276 41
9327 1870 9195 21
9328 1870 829 71
9329 1871 268 48
9330 1871 8373 1
9331 1871 3381 100
9332 1871 2129 78
9333 1872 3826 21
9334 1872 2097 14
9335 1872 6715 38
9336 1872 9320 99
9337 1872 3659 60
9338 1873 8604 27
9339 1873 6218 4
9340 1873 3123 8
9341 1873 0 74
9342 1874 521 49
9343 1875 4743 33
9344 1875 1911 75
9345 1875 2546 51
9346 1875 6753 29
9347 1875 8278 48
9348 1875 2464 82
9349 1875 6453 86
9350 1875 2421 73
9351 1876 383 18
9352 1876 1880 20
9353 1876 9171 47
9354 1876 9816 44
9355 1877 6000 85
9356 1877 1353 68
9357 1877 6079 79
9358 1877 6508 29
9359 1877 3920 94
9360 1877 2086 71
9361 1877 7679 81
9362 1877 5075 62
9363 1878 5857 39
9364 1878 6821 19
9365 1878 8423 82
9366 1878 8202 3
9367 1878 8101 49
9368 1878 4747 20
9369 1879 7716 93
9370 1879 9967 75
9371 1879 4403 25
9372 1879 2701 89
9373 1880 2912 16
9374 1880 488 41
9375 1880 8281 67
9376 1880 1905 64
9377 1880 8687 10
9378 1880 4814 39
9379 1881 5300 33
9380 1881 4905 3
9381 1881 5869 48
9382 1882 3018 38
9383 1882 9267 77
9384 1882 6851 86
9385 1883 4770 81
9386 1883 9263 86
9387 1884 6879 78
9388 1884 8003 62
9389 1884 715 13
9390 1884 5184 65
9391 1884 8445 98
9392 1884 9782 6
9393 1884 8141 56
9394 1884 1455 83
9395 1884 1544 12
9396 1885 3449 23
9397 1885 1111 72
9398 1885 5099 22
9399 1885 2183 18
9400 1886 4594 98
9401 1886 5462 98
9402 1886 4616 84
9403 1887 3940 61
9404 1887 1279 62
9405 1887 4588 52
9406 1888 4621 76
9407 1888 8610 88
9408 1888 68 13
9409 1888 302 50
9410 1888 5623 2
9411 1888 387 82
9412 1888 9435 50
9413 1888 3216 72
9414 1888 7142 10
9415 1888 3049 55
9416 1888 5262 48
9417 1890 5369 24
9418 1890 5013 90
9419 1890 1207 25
9420 1890 9051 65
9421 1891 7826 24
9422 1891 7055 38
9423 1891 1659 33
9424 1891 1212 54
9425 1892 7633 39
9426 1892 9710 76
9427 1892 1374 90
9428 1892 1165 62
9429 1892 1756 37
9430 1893 1822 23
9431 1893 4332 65
9432 1893 9473 64
9433 1893 4625 82
9434 1893 6082 30
9435 1893 5335 8
9436 1894 6540 1
9437 1894 1759 6
9438 1894 4463 97
9439 1894 1527 100
9440 1894 4105 98
9441 1894 1231 93
9442 1894 167 23
9443 1894 4914 46
9444 1895 2374 98
9445 1895 4760 9
9446 1896 9019 52
9447 1896 7248 60
9448 1896 4257 81
9449 1896 5387 22
9450 1897 6574 92
9451 1897 4573 77
9452 1897 4614 40
9453 1898 380 7
9454 1898 655 73
9455 1898 1326 5
9456 1898 6702 5
9457 1898 5506 37
9458 1898 7533 22
9459 1898 5277 2
9460 1898 8769 32
9461 1898 1063 52
9462 1899 3336 61
9463 1899 6987 74
9464 1899 9314 64
9465 1899 8313 52
9466 1899 2335 12
9467 1900 927 50
9468 1900 1600 13
9469 1902 6551 54
9470 1902 1812 43
9471 1902 9640 64
9472 1902 8197 73
9473 1903 5847 41
9474 1903 3757 66
9475 1903 2387 92
9476 1903 2845 68
9477 1903 5912 24
9478 1903 8287 34
9479 1903 6670 15
9480 1904 2425 82
9481 1904 3898 28
9482 1904 8934 83
9483 1905 7850 47
9484 1905 3440 63
9485 1905 4287 26
9486 1905 6565 9
9487 1905 8332 92
9488 1905 8629 56
9489 1905 8556 16
9490 1906 6302 95
9491 1906 7927 90
9492 1907 1829 83
9493 1907 7028 67
9494 1907 8062 86
9495 1907 8892 56
9496 1907 4717 25
9497 1908 9584 93
9498 1908 5573 60
9499 1908 221 27
9500 1908 6375 38
9501 1908 724 85
9502 1908 1477 20
9503 1908 6104 45
9504 1908 2147 58
9505 1909 7869 33
9506 1909 2647 10
9507 1909 7744 70
9508 1909 5071 56
9509 1909 7214 15
9510 1910 5021 82
9511 1910 3684 21
9512 1910 6750 98
9513 1911 2820 60
9514 1911 2726 46
9515 1911 2847 93
9516 1912 507 13
9517 1912 4879 15
9518 1912 3952 76
9519 1912 2877 73
9520 1913 2916 3
9521 1914 3964 3
9522 1914 4842 89
9523 1914 9479 53
9524 1914 6497 18
9525 1915 380 40
9526 1915 2139 30
9527 1915 8110 54
9528 1915 2784 24
9529 1915 6092 56
9530 1915 7056 11
9531 1915 7561 12
9532 1915 3741 69
9533 1916 2717 11
9534 1916 4202 6
9535 1916 7258 35
9536 1917 9540 50
9537 1917 4486 84
9538 1917 4958 10
9539 1917 7113 55
9540 1917 9627 26
9541 1918 2859 85
9542 1918 4543 87
9543 1918 5127 30
9544 1918 7940 73
9545 1919 1417 52
9546 1919 8757 97
9547 1919 3005 50
9548 1920 9250 44
9549 1920 3866 83
9550 1920 7089 88
9551 1920 5339 93
9552 1920 7114 11
9553 1921 7294 32
9554 1921 8736 83
9555 1921 2185 44
9556 1921 5779 73
9557 1921 6285 10
9558 1921 3457 80
9559 1921 6180 20
9560 1922 9287 15
9561 1922 1486 37
9562 1922 3488 76
9563 1922 155 69
9564 1922 5770 92
9565 1922 627 33
9566 1923 3533 78
9567 1923 7534 75
9568 1923 4209 73
9569 1923 6098 6
9570 1923 3223 74
9571 1924 6087 3
9572 1924 1334 40
9573 1924 7062 36
9574 1924 2077 75
9575 1925 594 19
9576 1925 2205 14
9577 1925 438 29
9578 1926 590 21
9579 1926 5490 1
9580 1926 8841 12
9581 1926 7548 42
9582 1926 6638 69
9583 1927 6321 8
9584 1927 9488 39
9585 1927 1544 1
9586 1927 1406 56
9587 1928 407 13
9588 1928 5649 30
9589 1928 3336 88
9590 1928 3388 69
9591 1928 2873 99
9592 1928 8341 3
9593 1929 5571 77
9594 1930 8403 61
9595 1930 2882 89
9596 1930 9205 88
9597 1930 3493 22
9598 1930 6551 49
9599 1930 5162 52
9600 1930 1321 27
9601 1930 7561 1
9602 1931 2976 67
9603 1931 9161 77
9604 1931 5187 52
9605 1931 3349 69
9606 1931 2939 54
9607 1931 2955 3
9608 1931 1638 45
9609 1931 4894 22
9610 1932 4693 9
9611 1932 2695 31
9612 1932 7863 77
9613 1932 1429 46
9614 1932 5704 29
9615 1932 3239 94
9616 1933 5340 66
9617 1933 5971 15
9618 1933 8427 1
9619 1934 6095 72
9620 1934 8139 80
9621 1934 7257 56
9622 1935 772 72
9623 1935 6712 97
9624 1935 3942 21
9625 1935 6989 21
9626 1935 70 91
9627 1935 362 89
9628 1936 7893 31
9629 1936 1562 93
9630 1936 852 47
9631 1936 8375 56
9632 1936 8833 45
9633 1936 5472 43
9634 1936 39 67
9635 1936 2342 26
9636 1937 4931 74
9637 1937 190 91
9638 1937 9386 48
9639 1937 5508 13
9640 1937 457 51
9641 1938 785 48
9642 1938 8844 64
9643 1938 2996 50
9644 1938 4824 37
9645 1938 1374 1
9646 1938 797 56
9647 1939 9216 2
9648 1939 8769 77
9649 1939 4696 41
9650 1939 2370 40
9651 1939 7882 70
9652 1939 7542 92
9653 1940 9967 48
9654 1940 4291 55
9655 1940 2270 21
9656 1940 3848 17
9657 1941 816 47
9658 1941 8690 97
9659 1941 4058 30
9660 1941 3011 16
9661 1942 4304 96
9662 1942 1799 75
9663 1942 3165 7
9664 1942 4863 29
9665 1942 7321 63
9666 1942 9212 68
9667 1943 4195 30
9668 1944 22 17
9669 1944 943 12
9670 1944 6170 71
9671 1944 845 93
9672 1945 2867 74
9673 1945 9935 21
9674 1945 6697 73
9675 1945 1088 98
9676 1945 5066 91
9677 1945 7553 6
9678 1945 4966 63
9679 1946 1248 22
9680 1946 2291 7
9681 1946 915 94
9682 1946 7864 10
9683 1946 1952 68
9684 1947 832 5
9685 1947 1232 12
9686 1948 9518 19
9687 1948 5367 86
9688 1948 8458 27
9689 1948 3088 1
9690 1948 5787 32
9691 1948 916 21
9692 1948 6654 75
9693 1948 8135 26
9694 1949 8082 5
9695 1949 9165 66
9696 1950 3304 80
9697 1950 6586 39
9698 1950 9723 100
9699 1950 8815 38
9700 1950 3163 50
9701 1951 980 83
9702 1951 5553 38
9703 1951 8849 97
9704 1951 3989 3
9705 1952 1821 99
9706 1952 6649 4
9707 1952 6306 98
9708 1952 6633 25
9709 1952 6540 59
9710 1952 6601 68
9711 1953 6362 97
9712 1953 7126 37
9713 1953 9155 71
9714 1953 9570 16
9715 1953 7493 51
9716 1953 9652 67
9717 1953 768 79
9718 1954 4107 81
9719 1954 736 30
9720 1954 7654 7
9721 1954 2669 22
9722 1954 5211 85
9723 1955 1076 99
9724 1955 1288 39
9725 1955 7281 12
9726 1955 894 33
9727 1955 1646 12
9728 1955 8207 86
9729 1955 769 75
9730 1955 8287 9
9731 1955 5625 63
9732 1956 3128 4
9733 1956 5257 64
9734 1956 4477 12
9735 1956 4911 65
9736 1956 6336 46
9737 1956 4036 85
9738 1956 6127 4
9739 1957 9765 50
9740 1957 8003 40
9741 1958 7724 62
9742 1958 5985 43
9743 1959 4825 49
9744 1959 5957 68
9745 1959 2752 52
9746 1959 7101 32
9747 1959 841 89
9748 1959 1139 99
9749 1959 6598 61
9750 1960 8275 43
9751 1960 6381 70
9752 1960 8073 44
9753 1960 5941 68
9754 1960 5069 88
9755 1960 7657 63
9756 1961 7777 31
9757 1961 1293 61
9758 1961 6541 5
9759 1961 4220 38
9760 1961 6310 88
9761 1962 3047 57
9762 1962 4150 33
9763 1962 6552 63
9764 1962 3899 32
9765 1962 2402 80
9766 1963 2089 79
9767 1963 8696 5
9768 1963 1990 42
9769 1963 6395 5
9770 1963 3814 70
9771 1963 419 73
9772 1964 9952 55
9773 1964 1504 36
9774 1964 9146 4
9775 1964 1142 71
9776 1964 6694 91
9777 1965 1164 23
9778 1965 3074 16
9779 1965 4112 55
9780 1965 6111 16
9781 1966 379 88
9782 1966 8580 45
9783 1966 7963 20
9784 1966 7436 74
9785 1966 5747 90
9786 1967 503 12
9787 1967 309 84
9788 1967 8296 29
9789 1967 9953 17
9790 1968 1632 63
9791 1968 6899 12
9792 1968 736 32
9793 1968 5414 57
9794 1968 4131 79
9795 1969 4561 59
9796 1969 809 74
9797 1969 3972 21
9798 1969 5988 12
9799 1970 1866 55
9800 1970 291 72
9801 1970 1458 56
9802 1971 8072 70
9803 1971 9502 8
9804 1971 104 48
9805 1971 6010 78
9806 1972 2538 12
9807 1972 3605 96
9808 1972 3292 75
9809 1973 8907 25
9810 1973 6064 92
9811 1973 1963 39
9812 1973 808 64
9813 1973 9896 2
9814 1973 7893 38
9815 1973 7228 88
9816 1973 1465 48
9817 1974 3564 3
9818 1974 7129 65
9819 1974 463 91
9820 1974 1037 77
9821 1974 7691 64
9822 1974 2165 36
9823 1974 5949 51
9824 1974 9710 72
9825 1975 6555 4
9826 1975 4293 23
9827 1975 8396 23
9828 1975 7439 88
9829 1976 9140 27
9830 1976 6129 50
9831 1976 4901 72
9832 1976 6568 36
9833 1976 6887 38
9834 1977 1782 65
9835 1977 9971 43
9836 1977 3897 19
9837 1978 2684 27
9838 1978 2504 21
9839 1979 669 39
9840 1979 7196 16
9841 1979 7310 46
9842 1979 257 90
9843 1980 6437 27
9844 1980 8774 90
9845 1981 5340 81
9846 1981 6356 83
9847 1981 5971 28
9848 1982 4765 41
9849 1982 3694 44
9850 1982 1076 68
9851 1982 4459 65
9852 1983 5375 62
9853 1983 3561 60
9854 1983 7671 92
9855 1983 5388 67
9856 1983 2247 37
9857 1983 2357 10
9858 1983 7848 96
9859 1983 2506 77
9860 1984 9087 6
9861 1984 9326 95
9862 1984 6186 17
9863 1984 4362 18
9864 1984 3448 42
9865 1984 8415 73
9866 1985 6285 68
9867 1985 8085 74
9868 1985 5976 71
9869 1986 7748 23
9870 1986 64 56
9871 1986 8636 15
9872 1986 577 44
9873 1986 3494 100
9874 1986 2205 55
9875 1986 8305 24
9876 1987 9978 29
9877 1987 6885 69
9878 1987 7880 70
9879 1987 7860 59
9880 1987 4373 3
9881 1988 9480 15
9882 1988 4786 16
9883 1988 3692 89
9884 1988 9067 16
9885 1988 7805 59
9886 1988 4613 40
9887 1989 1406 13
9888 1989 282 11
9889 1989 2972 100
9890 1989 9944 93
9891 1989 1923 68
9892 1990 8268 15
9893 1990 6172 18
9894 1990 3895 94
9895 1990 8901 10
9896 1990 3137 36
9897 1991 6519 43
9898 1991 4474 41
9899 1991 7515 57
9900 1991 6088 16
9901 1992 520 54
9902 1992 8155 98
9903 1992 1597 3
9904 1992 1537 83
9905 1992 364 63
9906 1992 3304 19
9907 1992 5630 95
9908 1993 6230 93
9909 1993 4284 47
9910 1993 456 8
9911 1993 7060 65
9912 1993 2036 64
9913 1993 8460 36
9914 1994 3208 32
9915 1994 1795 18
9916 1994 951 10
9917 1994 2542 10
9918 1994 7075 80
9919 1994 8192 51
9920 1994 7491 91
9921 1994 2629 31
9922 1995 6658 33
9923 1995 3197 72
9924 1995 8519 62
9925 1995 5811 2
9926 1995 2041 32
9927 1996 3805 74
9928 1996 1964 15
9929 1996 7567 77
9930 1996 1530 51
9931 1997 8901 38
9932 1997 2651 27
9933 1997 2649 48
9934 1997 1425 25
9935 1997 3277 59
9936 1998 4072 87
9937 1999 3180 59
9938 1999 1085 53
9939 1999 6565 25
9940 2000 144 66
9941 2000 7486 11
9942 2000 934 80
9943 2000 1025 48
9944 2001 5707 26
9945 2001 6022 67
9946 2001 4410 99
9947 2001 629 18
9948 2001 6666 39
9949 2002 7978 13
9950 2002 7875 48
9951 2002 6890 99
9952 2002 5930 69
9953 2002 9514 77
9954 2003 3837 79
9955 2003 8264 18
9956 2003 217 90
9957 2003 5552 15
9958 2004 1149 66
9959 2004 5859 50
9960 2004 7856 56
9961 2004 9733 64
9962 2004 9427 56
9963 2004 5064 10
9964 2005 3026 54
9965 2005 7598 42
9966 2005 2990 25
9967 2005 4963 95
9968 2005 2437 87
9969 2006 5646 28
9970 2006 8205 75
9971 2006 8320 18
9972 2006 2701 76
9973 2007 3122 43
9974 2007 2399 51
9975 2007 8087 35
9976 2007 9404 9
9977 2007 2283 51
9978 2007 3187 47
9979 2007 1798 12
9980 2008 1859 13
9981 2008 4750 23
9982 2008 5703 85
9983 2008 8895 13
9984 2008 639 70
9985 2008 2428 54
9986 2008 6119 88
9987 2009 6310 52
9988 2009 9168 23
9989 2009 3359 86
9990 2009 2565 2
9991 2009 6563 57
9992 2010 3185 75
9993 2010 6709 49
9994 2010 6622 41
9995 2010 1157 27
9996 2010 9081 73
9997 2010 5013 62
9998 2011 3751 38
9999 2011 2562 20
10000 2011 9587 73
10001 2011 3383 16
10002 2012 6942 66
10003 2012 6089 34
10004 2012 4651 65
10005 2012 9168 44
10006 2012 8821 62
10007 2013 5636 50
10008 2013 3818 10
10009 2013 8423 35
10010 2013 277 87
10011 2013 4956 100
10012 2013 6312 64
10013 2014 4901 54
10014 2014 8594 78
10015 2014 2006 12
10016 2014 4132 59
10017 2014 6067 34
10018 2014 2214 11
10019 2014 3703 49
10020 2015 3101 93
10021 2015 8660 76
10022 2015 7866 1
10023 2016 1721 98
10024 2016 614 77
10025 2016 1910 57
10026 2016 755 30
10027 2017 7488 20
10028 2017 503 96
10029 2017 8274 72
10030 2017 5370 87
10031 2018 8251 45
10032 2018 264 11
10033 2018 601 53
10034 2018 8903 100
10035 2019 4468 60
10036 2019 1309 41
10037 2019 2104 23
10038 2019 5384 90
10039 2020 1270 40
10040 2020 7422 39
10041 2020 8322 88
10042 2020 8022 83
10043 2021 7201 73
10044 2021 9444 91
10045 2021 3892 3
10046 2021 6526 60
10047 2021 6802 78
10048 2021 238 57
10049 2022 4267 41
10050 2022 7495 6
10051 2022 4626 29
10052 2022 8372 32
10053 2022 1286 62
10054 2022 6373 44
10055 2022 2218 45
10056 2023 3557 85
10057 2023 2540 66
10058 2023 5229 91
10059 2024 470 54
10060 2024 9231 9
10061 2024 8021 10
10062 2024 4063 75
10063 2024 4531 53
10064 2024 9652 41
10065 2024 989 88
10066 2025 2860 100
10067 2025 1869 88
10068 2025 825 41
10069 2025 4964 65
10070 2025 8974 86
10071 2025 1634 21
10072 2025 8718 69
10073 2025 9096 69
10074 2026 5822 64
10075 2026 1963 77
10076 2026 2241 95
10077 2026 3755 67
10078 2027 6068 47
10079 2027 6332 89
10080 2028 2902 6
10081 2028 8444 21
10082 2028 8783 43
10083 2028 2691 84
10084 2028 9643 94
10085 2029 9155 4
10086 2029 3759 39
10087 2029 2532 50
10088 2029 2623 57
10089 2030 9501 81
10090 2030 410 62
10091 2030 6233 94
10092 2030 6623 11
10093 2030 3009 6
10094 2030 3431 55
10095 2030 472 73
10096 2030 5703 76
10097 2030 1067 83
10098 2031 6034 39
10099 2031 2325 4
10100 2031 5010 29
10101 2031 6701 70
10102 2032 720 80
10103 2032 1809 74
10104 2032 3471 59
10105 2032 7377 71
10106 2032 1032 54
10107 2033 3914 12
10108 2033 1852 71
10109 2033 8467 5
10110 2033 8527 31
10111 2033 9776 7
10112 2033 5777 91
10113 2034 7013 17
10114 2035 9681 16
10115 2035 5164 44
10116 2035 7131 2
10117 2035 1601 5
10118 2035 6719 93
10119 2035 5350 46
10120 2035 796 70
10121 2035 8026 92
10122 2036 9545 61
10123 2036 90 72
10124 2036 8304 15
10125 2037 5944 15
10126 2037 3410 23
10127 2037 6541 93
10128 2037 1094 58
10129 2037 2201 32
10130 2037 675 49
10131 2038 4588 14
10132 2038 3275 24
10133 2038 2587 21
10134 2038 4168 43
10135 2038 7976 13
10136 2038 6957 75
10137 2038 408 55
10138 2039 6115 79
10139 2039 9746 79
10140 2039 7816 68
10141 2039 1682 46
10142 2039 7560 11
10143 2040 8255 89
10144 2040 1749 80
10145 2040 2527 70
10146 2041 8695 40
10147 2041 6182 90
10148 2041 6881 78
10149 2041 108 30
10150 2042 7186 86
10151 2042 6289 57
10152 2043 7017 94
10153 2043 6109 9
10154 2043 867 67
10155 2043 9051 80
10156 2043 8213 55
10157 2044 3967 13
10158 2044 8692 77
10159 2044 9477 27
10160 2044 7426 91
10161 2044 9508 5
10162 2045 9984 23
10163 2045 3758 38
10164 2045 1126 79
10165 2045 3347 52
10166 2045 991 88
10167 2045 2915 14
10168 2046 6718 76
10169 2046 2021 98
10170 2046 5689 5
10171 2046 3100 57
10172 2046 3832 51
10173 2046 8988 48
10174 2047 505 59
10175 2047 2006 92
10176 2047 9356 68
10177 2047 5019 68
10178 2047 6319 40
10179 2048 689 23
10180 2048 2044 87
10181 2048 2252 31
10182 2048 9749 3
10183 2048 2523 58
10184 2048 4347 91
10185 2048 8456 37
10186 2049 5975 17
10187 2049 8443 83
10188 2049 225 37
10189 2049 6235 74
10190 2049 6785 43
10191 2050 7536 93
10192 2050 5246 53
10193 2050 5268 77
10194 2050 3419 7
10195 2050 4682 84
10196 2050 6309 76
10197 2050 6429 16
10198 2050 7705 92
10199 2050 5874 30
10200 2050 8707 95
10201 2050 8048 77
10202 2051 876 22
10203 2051 9189 5
10204 2051 191 94
10205 2051 55 8
10206 2052 5089 84
10207 2052 5760 1
10208 2052 6831 57
10209 2052 6692 52
10210 2052 7208 31
10211 2053 807 93
10212 2053 2617 69
10213 2053 812 37
10214 2054 2655 100
10215 2054 8419 42
10216 2054 6107 81
10217 2054 7019 84
10218 2054 8070 95
10219 2054 1388 61
10220 2055 8557 92
10221 2055 1622 1
10222 2056 1387 87
10223 2056 9815 56
10224 2056 8184 27
10225 2056 1841 6
10226 2056 1781 83
10227 2056 3866 67
10228 2057 5009 11
10229 2057 9129 85
10230 2057 256 98
10231 2057 2217 29
10232 2057 4739 5
10233 2058 3806 71
10234 2058 2714 85
10235 2058 9203 37
10236 2058 292 87
10237 2058 8420 76
10238 2058 257 69
10239 2058 1081 30
10240 2059 8723 82
10241 2059 1907 25
10242 2059 6246 8
10243 2059 3694 24
10244 2059 2645 19
10245 2059 4478 37
10246 2060 6530 9
10247 2060 6986 9
10248 2060 5556 48
10249 2060 8481 73
10250 2060 5974 10
10251 2060 1642 76
10252 2061 4291 44
10253 2061 686 10
10254 2061 9625 85
10255 2061 5997 63
10256 2061 2234 94
10257 2061 6462 83
10258 2061 4022 54
10259 2062 356 23
10260 2062 2262 13
10261 2062 2562 54
10262 2062 7793 64
10263 2062 683 41
10264 2062 9633 23
10265 2063 3474 35
10266 2063 651 96
10267 2063 1685 49
10268 2063 5098 90
10269 2063 6355 50
10270 2063 6170 14
10271 2064 4034 54
10272 2064 8692 47
10273 2064 680 47
10274 2064 9378 85
10275 2064 1365 24
10276 2064 51 23
10277 2064 3060 48
10278 2064 2864 17
10279 2064 8706 78
10280 2064 7076 20
10281 2065 1297 68
10282 2065 9292 14
10283 2065 4724 9
10284 2065 9203 97
10285 2065 2376 41
10286 2066 5874 77
10287 2066 5852 96
10288 2066 312 96
10289 2066 2477 8
10290 2066 6858 56
10291 2066 6137 55
10292 2067 5798 61
10293 2067 8563 36
10294 2067 5678 67
10295 2067 2719 93
10296 2067 1107 39
10297 2067 5161 5
10298 2067 5135 44
10299 2068 4980 38
10300 2068 7152 97
10301 2068 7058 39
10302 2068 809 40
10303 2068 3339 26
10304 2068 5853 10
10305 2068 5686 38
10306 2068 6641 22
10307 2069 9971 91
10308 2069 9395 9
10309 2069 6348 27
10310 2069 1752 52
10311 2069 6434 99
10312 2069 1689 89
10313 2069 8261 84
10314 2069 4733 22
10315 2070 1218 67
10316 2070 5431 52
10317 2070 7738 78
10318 2070 5179 11
10319 2070 5894 16
10320 2070 9442 87
10321 2070 8132 10
10322 2070 2909 96
10323 2071 9042 99
10324 2071 116 75
10325 2071 1974 74
10326 2071 5873 77
10327 2071 9710 60
10328 2071 2474 69
10329 2071 3350 43
10330 2071 2156 95
10331 2071 3882 43
10332 2071 9963 35
10333 2072 7278 2
10334 2072 7377 3
10335 2072 6580 12
10336 2072 2187 38
10337 2072 5288 63
10338 2073 5418 68
10339 2073 6944 58
10340 2073 6755 80
10341 2073 4573 95
10342 2073 6917 73
10343 2073 2727 75
10344 2073 3664 33
10345 2073 1765 74
10346 2074 4514 85
10347 2074 5823 61
10348 2074 6846 63
10349 2074 7287 28
10350 2075 4992 33
10351 2075 6213 15
10352 2075 6746 22
10353 2075 7823 91
10354 2075 1921 50
10355 2075 9285 5
10356 2076 3526 54
10357 2076 4589 14
10358 2076 7880 1
10359 2076 8999 91
10360 2076 1362 38
10361 2076 8684 5
10362 2076 5552 27
10363 2076 6536 8
10364 2076 4167 40
10365 2076 2065 79
10366 2077 2282 75
10367 2077 9030 51
10368 2077 861 22
10369 2077 619 27
10370 2077 1053 96
10371 2078 3986 93
10372 2078 3802 10
10373 2078 9119 29
10374 2078 7592 79
10375 2078 3957 20
10376 2078 5283 30
10377 2078 7530 7
10378 2078 1081 90
10379 2078 8635 70
10380 2078 6187 62
10381 2079 2581 48
10382 2079 9743 21
10383 2080 1765 14
10384 2080 2893 93
10385 2080 4036 14
10386 2081 4813 69
10387 2081 7538 62
10388 2081 4127 28
10389 2081 279 90
10390 2081 7736 78
10391 2081 6802 11
10392 2081 9741 7
10393 2081 5750 47
10394 2081 1559 94
10395 2081 8124 7
10396 2081 9059 2
10397 2082 7215 96
10398 2082 3455 34
10399 2082 1880 19
10400 2082 9508 88
10401 2082 1313 35
10402 2082 5149 3
10403 2082 9814 65
10404 2083 872 74
10405 2084 1354 79
10406 2084 1739 41
10407 2084 1056 86
10408 2084 1649 3
10409 2084 4280 42
10410 2084 1523 51
10411 2085 2579 55
10412 2086 44 70
10413 2086 6539 44
10414 2086 2858 36
10415 2087 8260 12
10416 2087 1956 70
10417 2087 3516 82
10418 2088 1109 72
10419 2088 547 86
10420 2088 5238 19
10421 2089 2458 77
10422 2089 5626 22
10423 2089 4758 89
10424 2089 2121 14
10425 2090 4384 76
10426 2090 3908 43
10427 2090 5918 76
10428 2090 9277 87
10429 2090 7001 4
10430 2090 8789 44
10431 2091 6547 31
10432 2091 9305 38
10433 2091 3834 5
10434 2092 4204 4
10435 2092 6128 47
10436 2092 7478 35
10437 2092 2230 12
10438 2092 5029 53
10439 2093 8538 98
10440 2093 5342 83
10441 2093 7748 28
10442 2093 7447 77
10443 2094 6478 92
10444 2094 5232 90
10445 2095 487 60
10446 2095 8283 49
10447 2095 3011 89
10448 2095 3782 32
10449 2095 5866 65
10450 2095 4933 81
10451 2096 9046 51
10452 2096 2710 47
10453 2096 6953 79
10454 2096 382 84
10455 2096 9669 82
10456 2096 6364 59
10457 2096 4800 47
10458 2097 7394 56
10459 2097 6886 1
10460 2098 5351 52
10461 2098 2991 14
10462 2098 9243 6
10463 2098 7797 65
10464 2098 1938 95
10465 2098 4473 56
10466 2099 896 60
10467 2099 6751 48
10468 2099 5635 100
10469 2099 7480 85
10470 2099 7691 17
10471 2099 545 2
10472 2099 4546 97
10473 2099 9231 31
10474 2100 4926 54
10475 2100 7183 99
10476 2100 2585 51
10477 2100 1825 36
10478 2100 7726 78
10479 2101 7253 64
10480 2101 3926 3
10481 2102 9482 37
10482 2102 4829 28
10483 2102 8922 33
10484 2102 2731 14
10485 2102 9105 61
10486 2102 1195 7
10487 2102 8942 43
10488 2102 4853 25
10489 2102 1685 18
10490 2103 1286 75
10491 2103 6299 10
10492 2103 473 33
10493 2103 7927 60
10494 2103 5465 45
10495 2103 4973 23
10496 2104 3955 33
10497 2104 3325 12
10498 2104 5675 91
10499 2104 7672 30
10500 2104 1817 76
10501 2104 3658 89
10502 2104 8361 66
10503 2105 1780 70
10504 2105 1638 49
10505 2105 1538 83
10506 2105 4544 58
10507 2105 8771 70
10508 2105 2278 32
10509 2105 2530 51
10510 2105 107 63
10511 2106 5770 36
10512 2106 6988 56
10513 2106 5943 43
10514 2106 2319 80
10515 2106 1029 98
10516 2106 1004 65
10517 2107 2024 66
10518 2107 4909 71
10519 2107 24 99
10520 2107 2966 91
10521 2108 8872 81
10522 2108 4333 99
10523 2109 9383 77
10524 2109 2767 55
10525 2109 286 7
10526 2109 5074 39
10527 2109 5531 42
10528 2109 4709 29
10529 2110 2338 9
10530 2110 5379 82
10531 2110 9527 95
10532 2111 3018 57
10533 2111 9408 37
10534 2111 822 11
10535 2111 9756 16
10536 2111 3910 89
10537 2112 8538 92
10538 2112 5582 61
10539 2112 9408 31
10540 2112 1614 13
10541 2112 8798 61
10542 2113 1033 82
10543 2113 9530 54
10544 2113 2391 3
10545 2114 1369 62
10546 2114 9561 8
10547 2114 8136 58
10548 2114 2267 64
10549 2114 3016 23
10550 2115 9517 70
10551 2115 1308 88
10552 2115 3376 48
10553 2115 4506 54
10554 2115 183 16
10555 2115 3648 47
10556 2115 9556 65
10557 2116 9326 21
10558 2116 4482 71
10559 2116 8052 23
10560 2117 3155 66
10561 2117 8219 6
10562 2117 8527 16
10563 2117 842 39
10564 2117 5085 73
10565 2118 7992 91
10566 2118 3187 89
10567 2118 7368 42
10568 2119 5015 90
10569 2119 3427 46
10570 2120 6410 72
10571 2120 6674 72
10572 2121 3911 81
10573 2121 9977 24
10574 2121 5831 72
10575 2121 1683 48
10576 2121 3209 48
10577 2121 9558 10
10578 2121 8214 24
10579 2122 2928 88
10580 2122 4501 96
10581 2122 2515 55
10582 2122 5087 58
10583 2122 8316 7
10584 2123 3221 91
10585 2123 2991 83
10586 2123 2416 36
10587 2123 560 99
10588 2123 8248 97
10589 2123 2022 99
10590 2123 907 15
10591 2123 3889 99
10592 2123 7672 42
10593 2124 2251 96
10594 2124 1284 36
10595 2125 133 18
10596 2125 8412 24
10597 2125 5622 95
10598 2125 1550 17
10599 2125 6518 78
10600 2125 717 14
10601 2125 1109 41
10602 2125 1457 43
10603 2125 8337 99
10604 2125 5725 46
10605 2126 8426 30
10606 2127 5691 15
10607 2127 4494 29
10608 2127 1604 12
10609 2127 4077 59
10610 2127 9376 94
10611 2127 9023 24
10612 2128 2723 87
10613 2128 8133 16
10614 2128 1206 85
10615 2128 1865 97
10616 2129 5827 96
10617 2129 9440 86
10618 2129 5744 73
10619 2129 2030 70
10620 2129 7698 33
10621 2130 3574 23
10622 2130 1932 82
10623 2130 5808 35
10624 2130 225 88
10625 2130 903 52
10626 2130 9154 78
10627 2131 5921 16
10628 2131 5806 20
10629 2131 5579 14
10630 2131 3467 42
10631 2131 6129 7
10632 2132 5542 88
10633 2132 463 92
10634 2132 7659 97
10635 2132 9307 50
10636 2133 3579 90
10637 2133 2685 45
10638 2133 1101 1
10639 2134 4048 1
10640 2135 8726 75
10641 2135 8418 8
10642 2135 4723 4
10643 2135 3289 13
10644 2135 4841 47
10645 2135 8149 97
10646 2136 7649 58
10647 2136 4050 83
10648 2136 2151 93
10649 2136 5006 12
10650 2137 3044 98
10651 2137 2738 23
10652 2137 4316 15
10653 2137 2608 27
10654 2137 1006 59
10655 2137 3296 39
10656 2137 8684 65
10657 2138 2385 95
10658 2138 8255 99
10659 2138 6661 36
10660 2138 2336 60
10661 2138 7044 23
10662 2139 4573 69
10663 2139 3135 26
10664 2139 7741 95
10665 2139 528 82
10666 2139 5904 6
10667 2139 9450 11
10668 2139 298 53
10669 2139 6378 76
10670 2140 3936 9
10671 2140 938 52
10672 2140 9386 51
10673 2141 7475 35
10674 2141 8642 33
10675 2141 8450 17
10676 2141 771 71
10677 2141 859 65
10678 2141 9582 91
10679 2142 7840 92
10680 2142 601 3
10681 2142 6111 1
10682 2142 9063 41
10683 2142 7308 41
10684 2143 5755 36
10685 2143 8415 20
10686 2143 6363 79
10687 2143 2282 39
10688 2143 9866 5
10689 2143 7429 21
10690 2144 3700 81
10691 2144 8709 2
10692 2144 6229 24
10693 2144 9301 45
10694 2144 8042 28
10695 2144 9524 65
10696 2145 2661 26
10697 2145 822 30
10698 2145 332 26
10699 2145 6736 18
10700 2145 9856 34
10701 2145 4047 12
10702 2146 51 8
10703 2146 6062 50
10704 2146 8065 42
10705 2146 1821 73
10706 2146 1976 69
10707 2146 1558 15
10708 2147 280 20
10709 2147 291 83
10710 2147 3947 67
10711 2148 8159 100
10712 2148 6155 18
10713 2148 7438 48
10714 2148 516 10
10715 2149 3179 58
10716 2149 8385 95
10717 2149 6659 8
10718 2151 4898 66
10719 2151 402 26
10720 2151 801 27
10721 2151 9952 53
10722 2151 3279 35
10723 2151 3822 75
10724 2151 6966 29
10725 2151 5218 62
10726 2151 1207 50
10727 2151 4082 73
10728 2151 4255 90
10729 2152 7390 38
10730 2152 1125 100
10731 2152 5092 65
10732 2152 1870 63
10733 2152 9147 65
10734 2152 615 61
10735 2153 5148 96
10736 2153 1106 33
10737 2153 8325 45
10738 2153 4559 74
10739 2153 3104 55
10740 2154 210 47
10741 2154 3743 42
10742 2154 8657 35
10743 2154 43 73
10744 2154 7446 65
10745 2154 4341 30
10746 2154 6166 60
10747 2154 3891 98
10748 2155 6009 22
10749 2155 3579 65
10750 2155 4045 46
10751 2155 6048 87
10752 2155 5015 54
10753 2155 780 5
10754 2156 9714 73
10755 2156 2032 24
10756 2156 1142 60
10757 2156 1034 20
10758 2156 2720 57
10759 2156 6479 50
10760 2157 529 28
10761 2157 9885 94
10762 2157 3590 58
10763 2157 4513 42
10764 2157 8030 15
10765 2157 9096 49
10766 2157 7972 40
10767 2158 9984 79
10768 2158 7467 84
10769 2158 5544 42
10770 2158 5411 82
10771 2158 2637 36
10772 2158 9808 82
10773 2159 9922 1
10774 2159 5303 68
10775 2159 406 85
10776 2159 9746 81
10777 2159 3611 2
10778 2159 3450 25
10779 2160 9449 83
10780 2160 1720 21
10781 2161 7143 41
10782 2161 7536 96
10783 2161 2783 93
10784 2161 3645 17
10785 2162 5700 83
10786 2162 5143 99
10787 2162 2370 82
10788 2162 2894 33
10789 2162 1697 65
10790 2162 99 32
10791 2162 1910 43
10792 2163 9238 20
10793 2163 9472 93
10794 2163 9949 15
10795 2163 5628 56
10796 2163 4882 7
10797 2163 3752 95
10798 2164 1455 79
10799 2164 3390 57
10800 2164 3980 71
10801 2164 8861 48
10802 2164 6380 19
10803 2164 9440 7
10804 2165 86 25
10805 2165 5102 32
10806 2165 5998 64
10807 2165 3845 36
10808 2165 8898 12
10809 2166 1635 91
10810 2166 8838 100
10811 2166 5502 27
10812 2166 120 36
10813 2166 5295 18
10814 2167 154 21
10815 2167 734 80
10816 2167 4554 57
10817 2167 9697 21
10818 2167 5385 39
10819 2167 990 61
10820 2168 5092 96
10821 2168 2545 48
10822 2168 3720 32
10823 2168 8833 19
10824 2169 6532 93
10825 2169 8413 8
10826 2169 4441 32
10827 2169 2128 86
10828 2169 8244 22
10829 2169 7566 3
10830 2169 7296 77
10831 2169 1046 11
10832 2170 1499 27
10833 2170 212 48
10834 2170 9644 97
10835 2170 1695 23
10836 2171 4214 27
10837 2171 5799 37
10838 2171 8707 88
10839 2171 8899 75
10840 2171 2092 14
10841 2171 7832 40
10842 2172 4507 78
10843 2172 6300 9
10844 2173 5557 76
10845 2173 1312 74
10846 2173 6855 34
10847 2173 80 92
10848 2174 5041 24
10849 2174 9911 79
10850 2174 1132 25
10851 2174 2794 53
10852 2174 862 30
10853 2174 307 45
10854 2174 7055 46
10855 2175 5434 70
10856 2175 1539 82
10857 2175 5721 19
10858 2175 2894 41
10859 2176 4371 75
10860 2176 5072 32
10861 2176 5802 79
10862 2176 8768 93
10863 2177 5 89
10864 2177 3389 4
10865 2178 113 55
10866 2178 1777 17
10867 2178 5813 94
10868 2178 9815 3
10869 2179 4216 87
10870 2179 8376 56
10871 2179 3645 79
10872 2179 5283 6
10873 2179 6643 63
10874 2179 9690 43
10875 2180 4978 52
10876 2180 3749 76
10877 2180 2319 43
10878 2181 949 42
10879 2181 7251 83
10880 2181 6159 86
10881 2182 9439 72
10882 2182 4198 53
10883 2182 1181 56
10884 2182 1268 81
10885 2183 9160 66
10886 2183 2557 21
10887 2184 3678 18
10888 2184 4610 19
10889 2184 1092 11
10890 2185 8803 50
10891 2185 4314 48
10892 2186 5095 22
10893 2186 6931 49
10894 2186 6105 73
10895 2186 1457 45
10896 2186 714 77
10897 2186 6967 97
10898 2186 5899 27
10899 2187 6321 91
10900 2187 6137 100
10901 2187 8780 70
10902 2188 2488 80
10903 2188 6159 82
10904 2188 6853 29
10905 2188 2500 25
10906 2188 7796 96
10907 2189 4613 7
10908 2189 5036 34
10909 2189 823 64
10910 2189 2509 68
10911 2189 717 30
10912 2189 8726 43
10913 2189 7442 48
10914 2189 4411 4
10915 2190 3336 98
10916 2190 1175 44
10917 2190 193 32
10918 2191 9281 7
10919 2191 7159 75
10920 2191 183 48
10921 2191 4029 81
10922 2191 8496 85
10923 2191 255 59
10924 2191 8815 52
10925 2192 2593 33
10926 2192 1599 45
10927 2192 6655 52
10928 2192 2494 70
10929 2192 6720 86
10930 2192 2000 13
10931 2192 9727 5
10932 2193 1480 76
10933 2193 238 95
10934 2193 879 77
10935 2193 9874 28
10936 2193 744 43
10937 2193 658 66
10938 2193 7976 78
10939 2194 3029 48
10940 2194 1619 83
10941 2194 318 34
10942 2195 167 31
10943 2196 2621 83
10944 2196 3754 65
10945 2196 3347 46
10946 2196 1521 42
10947 2196 3591 43
10948 2196 2564 42
10949 2196 1606 55
10950 2197 6418 58
10951 2197 5157 30
10952 2197 4964 10
10953 2198 6940 11
10954 2198 2966 34
10955 2198 779 33
10956 2198 5799 31
10957 2198 1131 40
10958 2198 2682 54
10959 2198 3770 7
10960 2198 4674 96
10961 2199 6300 22
10962 2200 7069 91
10963 2200 2824 6
10964 2200 7441 62
10965 2200 6251 64
10966 2201 6455 96
10967 2201 5373 41
10968 2201 523 32
10969 2201 1833 63
10970 2201 5620 28
10971 2201 2904 42
10972 2201 7541 88
10973 2201 9985 84
10974 2201 5325 27
10975 2201 2325 86
10976 2202 2307 83
10977 2202 9345 26
10978 2202 6567 15
10979 2203 7693 38
10980 2203 7052 43
10981 2203 8402 22
10982 2204 4566 43
10983 2204 996 18
10984 2204 6436 72
10985 2204 4133 48
10986 2204 680 64
10987 2204 4438 59
10988 2204 8641 60
10989 2205 6060 44
10990 2205 2183 95
10991 2206 6872 37
10992 2206 6557 35
10993 2206 9727 42
10994 2206 6973 98
10995 2206 2386 35
10996 2206 4100 11
10997 2206 4927 30
10998 2206 84 15
10999 2207 1099 11
11000 2207 3733 79
11001 2207 4361 3
11002 2207 3684 71
11003 2208 3138 7
11004 2208 4502 29
11005 2208 4015 100
11006 2208 3394 70
11007 2208 7692 10
11008 2208 5304 3
11009 2208 3119 29
11010 2209 3307 41
11011 2209 6534 20
11012 2209 5934 92
11013 2209 7706 83
11014 2209 2216 29
11015 2209 8970 74
11016 2209 2029 33
11017 2210 3408 61
11018 2210 5172 89
11019 2210 6152 3
11020 2211 9443 74
11021 2211 2628 74
11022 2211 4687 62
11023 2211 9835 16
11024 2211 5127 23
11025 2211 221 42
11026 2211 1306 13
11027 2212 6091 95
11028 2212 1212 45
11029 2212 5699 15
11030 2212 1504 19
11031 2212 4511 26
11032 2212 5752 6
11033 2212 9974 56
11034 2212 8102 94
11035 2213 1192 36
11036 2213 269 15
11037 2213 4723 100
11038 2213 2100 15
11039 2213 7250 34
11040 2213 1208 16
11041 2213 6277 67
11042 2214 5629 18
11043 2214 7537 57
11044 2214 9738 11
11045 2214 2024 8
11046 2214 9571 51
11047 2215 8089 33
11048 2215 6370 9
11049 2215 4711 45
11050 2216 6389 19
11051 2216 6055 50
11052 2216 9724 42
11053 2217 3125 4
11054 2217 6220 78
11055 2217 6135 81
11056 2217 5854 26
11057 2218 1691 23
11058 2218 2148 27
11059 2218 6036 40
11060 2218 3260 29
11061 2218 222 45
11062 2219 4353 67
11063 2219 3729 82
11064 2219 9429 85
11065 2219 8936 62
11066 2219 3509 68
11067 2219 787 87
11068 2220 6776 39
11069 2220 532 11
11070 2220 7588 82
11071 2220 9590 47
11072 2220 1005 17
11073 2220 6845 15
11074 2221 5097 53
11075 2221 7682 56
11076 2221 19 38
11077 2222 3714 8
11078 2222 3814 89
11079 2222 3760 53
11080 2222 6211 96
11081 2223 6762 45
11082 2223 4142 76
11083 2223 1134 58
11084 2223 6972 67
11085 2223 8612 70
11086 2223 4542 83
11087 2223 8218 7
11088 2223 8414 49
11089 2223 5229 71
11090 2224 3216 76
11091 2224 4227 12
11092 2224 3033 27
11093 2224 4165 31
11094 2225 178 53
11095 2225 6065 85
11096 2225 2312 43
11097 2225 5756 39
11098 2226 251 31
11099 2226 8490 99
11100 2226 9856 51
11101 2226 5689 14
11102 2227 8717 54
11103 2227 3542 31
11104 2227 8934 80
11105 2228 4982 3
11106 2228 1150 48
11107 2228 4051 79
11108 2229 6449 68
11109 2229 1904 7
11110 2229 6281 38
11111 2229 5044 20
11112 2230 2988 4
11113 2230 8119 14
11114 2230 8139 79
11115 2230 1135 21
11116 2230 2469 60
11117 2231 4496 78
11118 2231 9552 15
11119 2231 4692 54
11120 2231 638 63
11121 2231 4523 71
11122 2232 783 68
11123 2232 6309 7
11124 2232 1693 59
11125 2233 2466 62
11126 2233 8480 21
11127 2233 9621 77
11128 2233 2607 6
11129 2234 1688 27
11130 2234 7920 17
11131 2234 9561 42
11132 2234 5196 97
11133 2234 1629 96
11134 2235 9442 41
11135 2235 8013 97
11136 2236 1379 3
11137 2236 3983 84
11138 2236 3853 69
11139 2236 8394 8
11140 2236 3523 67
11141 2236 4897 31
11142 2237 1133 83
11143 2237 3246 47
11144 2237 9790 78
11145 2237 661 68
11146 2237 3188 42
11147 2237 3511 16
11148 2238 5073 96
11149 2238 3988 75
11150 2238 2682 27
11151 2238 7508 13
11152 2239 3624 85
11153 2239 4565 69
11154 2239 139 93
11155 2240 5308 91
11156 2241 7199 85
11157 2241 4684 66
11158 2242 7314 82
11159 2242 7157 18
11160 2242 6985 47
11161 2243 4228 43
11162 2243 4089 50
11163 2243 8341 31
11164 2243 7429 21
11165 2243 7104 96
11166 2243 7374 92
11167 2244 7847 58
11168 2244 4289 25
11169 2244 9114 28
11170 2244 2363 30
11171 2245 9496 8
11172 2245 2832 17
11173 2245 6781 1
11174 2245 3224 79
11175 2245 8949 70
11176 2246 7545 44
11177 2246 3678 56
11178 2246 9676 81
11179 2246 5344 46
11180 2246 3936 18
11181 2246 424 78
11182 2246 5759 96
11183 2247 5792 91
11184 2247 1529 78
11185 2247 6481 18
11186 2247 2523 13
11187 2247 706 88
11188 2247 1172 27
11189 2247 9401 47
11190 2247 598 6
11191 2248 628 97
11192 2248 7038 63
11193 2248 5100 73
11194 2248 7193 86
11195 2248 3404 70
11196 2248 7060 89
11197 2248 6830 99
11198 2248 804 44
11199 2249 2070 80
11200 2249 7112 41
11201 2249 8272 38
11202 2249 849 11
11203 2250 3316 89
11204 2250 8190 4
11205 2250 6138 28
11206 2250 1999 76
11207 2251 1551 8
11208 2251 5331 58
11209 2251 762 81
11210 2251 9961 90
11211 2251 1083 37
11212 2251 4186 94
11213 2251 4219 80
11214 2252 3685 32
11215 2252 2480 35
11216 2252 6521 42
11217 2253 7612 50
11218 2253 9907 95
11219 2253 5611 14
11220 2253 3481 28
11221 2253 4759 54
11222 2254 9272 24
11223 2254 9723 99
11224 2254 4971 12
11225 2254 8623 9
11226 2254 6506 2
11227 2254 5802 100
11228 2254 5325 47
11229 2254 2674 40
11230 2255 8584 84
11231 2255 9779 52
11232 2255 6135 62
11233 2255 4435 79
11234 2255 6312 7
11235 2255 6257 26
11236 2256 9014 50
11237 2256 2690 22
11238 2256 3251 14
11239 2256 882 8
11240 2257 4961 33
11241 2257 544 45
11242 2257 9458 2
11243 2257 1116 84
11244 2257 8604 85
11245 2257 3937 96
11246 2257 9228 55
11247 2258 5668 79
11248 2258 7402 56
11249 2258 793 41
11250 2259 6782 88
11251 2259 3167 93
11252 2259 9619 83
11253 2259 5424 14
11254 2260 3679 76
11255 2260 3853 67
11256 2260 905 48
11257 2260 5524 7
11258 2260 4457 47
11259 2260 8282 67
11260 2261 8497 25
11261 2261 3572 5
11262 2261 6594 9
11263 2261 9944 40
11264 2261 867 10
11265 2262 8303 2
11266 2262 9204 56
11267 2263 6144 45
11268 2263 6371 15
11269 2263 2788 86
11270 2263 5521 68
11271 2263 1970 73
11272 2263 2966 56
11273 2263 1175 6
11274 2263 3570 9
11275 2264 7034 71
11276 2264 5606 82
11277 2264 8775 40
11278 2264 2694 47
11279 2265 3645 42
11280 2265 3854 53
11281 2265 4498 51
11282 2265 8326 94
11283 2266 8567 83
11284 2266 3711 81
11285 2266 763 34
11286 2266 7686 100
11287 2266 8707 18
11288 2266 7092 76
11289 2267 6597 39
11290 2267 7790 7
11291 2267 8389 18
11292 2267 1998 50
11293 2267 6612 44
11294 2268 3117 62
11295 2268 5039 55
11296 2269 1065 33
11297 2269 3102 82
11298 2269 57 53
11299 2269 1243 14
11300 2269 5503 78
11301 2269 2689 84
11302 2269 6109 76
11303 2269 7797 18
11304 2269 7160 35
11305 2269 1952 95
11306 2270 1787 63
11307 2270 3810 58
11308 2270 562 81
11309 2270 3107 94
11310 2270 4437 46
11311 2270 8812 92
11312 2270 6952 2
11313 2271 8037 75
11314 2271 5327 99
11315 2271 6227 38
11316 2272 9842 89
11317 2272 6171 59
11318 2272 5300 46
11319 2272 2516 26
11320 2272 7138 28
11321 2273 1319 42
11322 2273 6964 65
11323 2273 9895 10
11324 2274 6755 96
11325 2274 1494 15
11326 2274 6612 21
11327 2274 5877 30
11328 2274 2654 62
11329 2274 7821 92
11330 2275 506 2
11331 2275 7403 95
11332 2275 9884 11
11333 2275 6070 94
11334 2276 964 59
11335 2276 2047 86
11336 2276 1353 22
11337 2276 7471 1
11338 2276 7557 60
11339 2276 9352 11
11340 2276 7045 81
11341 2277 9062 46
11342 2277 2998 52
11343 2277 9041 45
11344 2277 7922 71
11345 2277 7360 86
11346 2277 6697 68
11347 2277 9908 71
11348 2278 1819 29
11349 2278 686 79
11350 2278 9384 28
11351 2278 459 40
11352 2278 8952 19
11353 2278 6541 93
11354 2278 4076 29
11355 2278 6037 100
11356 2278 5029 60
11357 2279 1305 60
11358 2279 4964 4
11359 2279 5126 67
11360 2279 4110 93
11361 2279 1965 17
11362 2280 5599 14
11363 2280 3804 35
11364 2280 9991 40
11365 2280 463 84
11366 2280 3224 96
11367 2281 2731 90
11368 2281 9779 7
11369 2281 4368 76
11370 2282 1650 30
11371 2282 5354 94
11372 2282 4306 60
11373 2283 9316 84
11374 2283 9057 36
11375 2283 6683 86
11376 2283 9802 92
11377 2283 6904 93
11378 2283 543 47
11379 2284 4951 90
11380 2284 8699 46
11381 2284 797 97
11382 2285 5216 80
11383 2285 2328 76
11384 2285 4387 87
11385 2285 5647 32
11386 2285 9017 65
11387 2286 6592 99
11388 2286 4154 95
11389 2286 7364 7
11390 2286 4808 16
11391 2286 1856 42
11392 2286 8198 15
11393 2286 3061 47
11394 2286 4972 87
11395 2286 9710 94
11396 2287 6456 58
11397 2287 3502 91
11398 2287 6244 61
11399 2287 2125 27
11400 2287 1317 95
11401 2287 3556 47
11402 2288 7422 71
11403 2288 7241 13
11404 2288 6983 30
11405 2288 720 80
11406 2288 8849 67
11407 2288 2342 58
11408 2288 299 28
11409 2289 2219 71
11410 2289 6780 23
11411 2289 3913 71
11412 2289 3709 3
11413 2289 6039 1
11414 2289 6877 70
11415 2289 7313 47
11416 2289 1639 60
11417 2289 4045 27
11418 2290 443 35
11419 2290 6990 92
11420 2290 3506 82
11421 2291 6860 100
11422 2291 1355 51
11423 2291 3318 50
11424 2291 7818 100
11425 2292 7424 6
11426 2292 592 32
11427 2292 7530 2
11428 2292 4707 85
11429 2292 3682 1
11430 2292 2114 11
11431 2292 2786 11
11432 2293 9861 92
11433 2293 357 4
11434 2293 7212 62
11435 2293 6906 84
11436 2293 1055 32
11437 2293 6174 66
11438 2293 7592 14
11439 2293 5747 22
11440 2294 9753 47
11441 2294 9658 75
11442 2294 2522 40
11443 2294 2630 48
11444 2295 2117 13
11445 2295 4394 12
11446 2296 7242 95
11447 2296 2473 42
11448 2296 3669 36
11449 2296 7430 88
11450 2296 6516 75
11451 2297 931 22
11452 2297 3095 76
11453 2297 9809 85
11454 2297 8651 70
11455 2298 1067 56
11456 2299 1644 79
11457 2299 1517 46
11458 2299 1949 23
11459 2300 3414 1
11460 2300 6705 25
11461 2300 3567 87
11462 2300 7531 25
11463 2300 9896 13
11464 2300 6003 26
11465 2301 4261 95
11466 2301 7221 33
11467 2301 6819 84
11468 2301 1082 52
11469 2301 3299 18
11470 2302 1893 53
11471 2302 9491 69
11472 2302 6853 66
11473 2302 3547 51
11474 2303 5866 72
11475 2303 7459 3
11476 2303 1730 34
11477 2303 6095 85
11478 2303 7927 27
11479 2303 6767 14
11480 2304 2549 59
11481 2304 101 60
11482 2304 4036 38
11483 2304 1009 16
11484 2304 7430 60
11485 2304 3070 22
11486 2305 9669 48
11487 2305 7371 23
11488 2305 5382 25
11489 2305 6193 64
11490 2305 7631 25
11491 2306 9187 15
11492 2306 5501 79
11493 2306 7859 34
11494 2307 7749 2
11495 2307 1424 49
11496 2307 7227 42
11497 2307 8205 33
11498 2308 6400 91
11499 2308 3094 11
11500 2308 6418 21
11501 2309 7717 10
11502 2309 4541 21
11503 2309 5807 1
11504 2309 506 86
11505 2309 4321 4
11506 2309 2708 18
11507 2309 1775 8
11508 2310 809 72
11509 2310 2771 13
11510 2310 8619 78
11511 2310 2 95
11512 2310 3449 84
11513 2311 3669 61
11514 2311 2669 35
11515 2311 4386 45
11516 2311 3717 47
11517 2311 3082 98
11518 2311 3154 15
11519 2312 4241 52
11520 2312 4645 51
11521 2312 5934 15
11522 2312 2911 7
11523 2312 4797 43
11524 2312 1142 64
11525 2312 6947 43
11526 2312 402 58
11527 2313 673 2
11528 2313 4689 75
11529 2313 233 22
11530 2313 1057 27
11531 2313 3557 7
11532 2314 3405 52
11533 2314 2667 17
11534 2314 3715 51
11535 2315 2801 56
11536 2315 9082 98
11537 2315 9849 66
11538 2315 8628 11
11539 2315 9190 85
11540 2316 1176 12
11541 2316 8415 14
11542 2316 5708 63
11543 2316 5280 5
11544 2316 3335 3
11545 2316 8579 91
11546 2316 5586 96
11547 2317 8182 14
11548 2317 7108 44
11549 2317 2556 68
11550 2317 606 57
11551 2317 2309 83
11552 2317 8306 17
11553 2318 8371 35
11554 2318 8711 66
11555 2319 9116 71
11556 2319 2543 63
11557 2319 7494 37
11558 2319 3101 38
11559 2319 9258 48
11560 2320 9126 50
11561 2320 3367 96
11562 2320 6123 20
11563 2320 231 2
11564 2320 7027 52
11565 2320 8634 17
11566 2321 2708 53
11567 2321 9121 85
11568 2321 1376 80
11569 2321 6709 37
11570 2322 8432 27
11571 2322 6923 96
11572 2322 5179 1
11573 2322 8069 40
11574 2322 9043 55
11575 2323 4917 14
11576 2323 7405 75
11577 2323 48 42
11578 2323 408 4
11579 2323 2626 40
11580 2324 6478 37
11581 2324 7759 62
11582 2324 7348 67
11583 2325 351 21
11584 2325 3116 9
11585 2325 6807 63
11586 2325 2185 52
11587 2325 4635 28
11588 2326 4345 34
11589 2326 5908 90
11590 2326 9158 46
11591 2327 1768 15
11592 2327 7301 91
11593 2327 3839 82
11594 2328 9085 82
11595 2328 8889 37
11596 2328 7024 7
11597 2328 8771 89
11598 2328 8392 99
11599 2328 3054 1
11600 2328 9601 89
11601 2328 2239 9
11602 2329 1428 73
11603 2329 1139 3
11604 2329 8052 52
11605 2329 3904 95
11606 2329 7799 12
11607 2329 1514 90
11608 2329 7804 73
11609 2330 257 96
11610 2330 3038 64
11611 2330 8485 13
11612 2330 7151 61
11613 2330 9407 21
11614 2330 5410 9
11615 2330 1928 35
11616 2330 8516 83
11617 2331 438 44
11618 2331 5450 33
11619 2331 5940 94
11620 2331 4896 24
11621 2331 4313 2
11622 2332 3369 9
11623 2332 6968 100
11624 2332 6364 36
11625 2332 7996 64
11626 2332 5068 95
11627 2333 8145 44
11628 2333 4493 84
11629 2333 2825 57
11630 2333 4695 41
11631 2333 6638 94
11632 2334 607 54
11633 2334 261 14
11634 2334 9873 24
11635 2334 6232 51
11636 2334 969 34
11637 2334 6303 25
11638 2334 1162 16
11639 2334 824 1
11640 2334 8244 28
11641 2335 5837 86
11642 2335 154 90
11643 2335 2118 23
11644 2335 8226 76
11645 2335 959 47
11646 2336 7133 93
11647 2336 2802 36
11648 2336 9547 95
11649 2336 2099 9
11650 2336 4818 34
11651 2337 7307 41
11652 2337 5095 26
11653 2337 2421 69
11654 2337 980 54
11655 2337 9850 47
11656 2337 1761 76
11657 2337 42 15
11658 2338 7902 56
11659 2338 7948 24
11660 2338 7313 18
11661 2338 1062 23
11662 2338 707 83
11663 2338 4138 71
11664 2338 200 95
11665 2338 870 40
11666 2339 5192 15
11667 2339 3587 23
11668 2339 9690 67
11669 2339 6342 4
11670 2339 1029 84
11671 2340 1943 15
11672 2340 108 28
11673 2341 5267 67
11674 2341 3433 1
11675 2341 4911 52
11676 2341 5123 91
11677 2341 9398 19
11678 2341 6647 67
11679 2341 6202 54
11680 2341 6303 34
11681 2341 4210 19
11682 2341 9005 25
11683 2341 6099 67
11684 2341 8164 49
11685 2341 1827 9
11686 2342 2729 2
11687 2342 1604 59
11688 2342 4108 68
11689 2343 8284 74
11690 2343 313 19
11691 2343 77 10
11692 2343 4988 99
11693 2343 3389 26
11694 2344 6859 9
11695 2344 2535 12
11696 2344 4618 3
11697 2344 920 35
11698 2344 8164 20
11699 2345 2308 45
11700 2345 6056 30
11701 2345 1209 55
11702 2346 2838 78
11703 2346 7727 92
11704 2346 1546 64
11705 2346 544 92
11706 2347 496 30
11707 2347 7334 18
11708 2348 4721 24
11709 2348 8134 67
11710 2348 6475 22
11711 2348 2610 88
11712 2348 5833 21
11713 2348 4561 76
11714 2348 6676 54
11715 2349 4413 88
11716 2349 747 100
11717 2350 1148 7
11718 2350 4777 13
11719 2350 2681 47
11720 2350 1221 67
11721 2350 9806 40
11722 2351 9967 74
11723 2351 4974 52
11724 2351 9948 70
11725 2351 3000 42
11726 2351 9052 11
11727 2351 9005 12
11728 2352 6409 90
11729 2352 7420 4
11730 2352 2400 17
11731 2352 3011 24
11732 2352 9555 31
11733 2354 777 2
11734 2354 5848 33
11735 2354 3595 14
11736 2354 2308 60
11737 2354 2969 79
11738 2354 838 58
11739 2354 5216 32
11740 2355 7034 22
11741 2355 4885 74
11742 2355 4618 27
11743 2356 3624 15
11744 2356 1190 90
11745 2356 600 78
11746 2357 3242 41
11747 2357 2602 33
11748 2357 2303 46
11749 2357 3599 74
11750 2357 8649 66
11751 2358 6102 14
11752 2358 4622 24
11753 2358 8816 85
11754 2358 5784 66
11755 2358 5636 40
11756 2358 7769 63
11757 2359 3247 86
11758 2359 8907 87
11759 2359 3470 96
11760 2359 1163 18
11761 2359 2715 48
11762 2359 8932 7
11763 2360 1782 96
11764 2360 4635 23
11765 2361 9216 3
11766 2361 2308 64
11767 2362 9242 88
11768 2362 4540 33
11769 2362 4902 74
11770 2362 6456 95
11771 2363 7202 97
11772 2363 709 78
11773 2364 3863 95
11774 2364 7427 95
11775 2364 1921 84
11776 2364 3689 57
11777 2365 5371 57
11778 2365 4993 38
11779 2366 8706 62
11780 2366 3677 17
11781 2366 5725 69
11782 2366 4471 44
11783 2367 9812 15
11784 2367 297 32
11785 2367 7376 87
11786 2367 1671 35
11787 2367 7727 45
11788 2367 562 10
11789 2368 719 75
11790 2368 4599 82
11791 2368 6631 33
11792 2368 9212 11
11793 2368 9966 9
11794 2369 480 52
11795 2369 1639 9
11796 2369 8730 88
11797 2369 7669 85
11798 2370 2096 5
11799 2370 4704 12
11800 2370 1629 22
11801 2370 5007 68
11802 2370 3325 43
11803 2371 7092 80
11804 2371 2001 56
11805 2371 4245 83
11806 2371 5463 50
11807 2371 2682 65
11808 2371 4503 1
11809 2372 6279 7
11810 2372 3908 94
11811 2372 9161 47
11812 2372 3562 5
11813 2372 3577 69
11814 2372 7506 65
11815 2372 3576 26
11816 2372 4550 76
11817 2372 7423 34
11818 2373 9815 1
11819 2373 9818 40
11820 2373 9747 21
11821 2373 5809 59
11822 2373 6187 82
11823 2373 809 77
11824 2373 8889 65
11825 2374 6679 83
11826 2374 3884 31
11827 2374 5550 31
11828 2375 8846 66
11829 2376 1852 76
11830 2376 1103 56
11831 2376 4100 61
11832 2376 6771 65
11833 2376 707 91
11834 2377 646 62
11835 2377 8307 9
11836 2377 2646 74
11837 2377 7239 48
11838 2377 447 9
11839 2377 3397 40
11840 2377 2662 1
11841 2378 4922 73
11842 2378 5837 44
11843 2378 3154 69
11844 2379 5567 61
11845 2379 4150 45
11846 2379 5977 55
11847 2379 9094 2
11848 2379 9470 2
11849 2379 7896 90
11850 2379 2329 14
11851 2379 5620 84
11852 2379 6952 13
11853 2380 4210 17
11854 2380 2506 17
11855 2380 1373 78
11856 2380 4412 10
11857 2380 1729 60
11858 2380 1619 37
11859 2380 1905 92
11860 2381 4936 83
11861 2381 3453 34
11862 2381 2732 71
11863 2381 4976 12
11864 2381 9943 4
11865 2381 8840 96
11866 2381 3817 69
11867 2381 5814 21
11868 2381 9172 74
11869 2381 8255 27
11870 2382 5792 10
11871 2382 2429 54
11872 2382 6695 6
11873 2382 3867 70
11874 2382 6747 7
11875 2382 5304 50
11876 2382 9223 48
11877 2383 3821 71
11878 2383 7043 37
11879 2383 1718 79
11880 2383 6969 17
11881 2383 4423 38
11882 2383 6557 92
11883 2383 431 83
11884 2384 6720 56
11885 2384 1431 10
11886 2384 390 53
11887 2384 8168 12
11888 2385 9730 94
11889 2385 2165 56
11890 2385 8902 82
11891 2386 4889 62
11892 2386 9194 65
11893 2386 8869 67
11894 2386 4796 77
11895 2386 9177 89
11896 2387 6874 13
11897 2387 8208 97
11898 2387 7112 16
11899 2387 6270 19
11900 2387 3968 28
11901 2387 8491 11
11902 2387 7091 93
11903 2387 2295 75
11904 2387 9547 79
11905 2387 9902 100
11906 2388 980 88
11907 2388 5319 39
11908 2388 4913 14
11909 2388 7598 78
11910 2388 6334 75
11911 2388 879 3
11912 2389 9314 28
11913 2389 8446 2
11914 2389 0 45
11915 2390 1303 27
11916 2390 4839 34
11917 2391 7570 52
11918 2391 4867 9
11919 2391 6003 25
11920 2391 3362 77
11921 2391 708 54
11922 2391 17 95
11923 2391 1589 17
11924 2391 9129 70
11925 2391 4377 87
11926 2392 6091 39
11927 2392 5391 82
11928 2392 1795 94
11929 2392 1814 87
11930 2392 4138 88
11931 2392 2572 75
11932 2392 1870 89
11933 2392 6643 14
11934 2393 1803 57
11935 2393 9958 53
11936 2393 1912 10
11937 2393 1431 35
11938 2393 6395 69
11939 2393 9367 82
11940 2393 8568 49
11941 2393 7166 33
11942 2394 8364 19
11943 2394 1646 6
11944 2394 3136 42
11945 2394 8312 67
11946 2394 5449 16
11947 2394 9020 51
11948 2394 5733 58
11949 2395 7394 74
11950 2395 9075 14
11951 2395 5066 93
11952 2396 8070 31
11953 2396 8877 8
11954 2396 8154 32
11955 2396 692 18
11956 2396 3546 4
11957 2396 6968 23
11958 2397 4713 28
11959 2397 5946 62
11960 2397 7587 97
11961 2397 9628 20
11962 2398 3680 98
11963 2398 8194 48
11964 2398 416 22
11965 2399 8721 86
11966 2399 127 82
11967 2399 945 32
11968 2399 1422 5
11969 2400 6892 88
11970 2400 604 4
11971 2400 5055 81
11972 2401 5483 16
11973 2401 5692 44
11974 2402 8289 54
11975 2402 5380 82
11976 2402 6871 42
11977 2402 4102 8
11978 2403 5177 80
11979 2403 1139 46
11980 2403 1638 17
11981 2404 9523 48
11982 2404 6231 28
11983 2404 57 63
11984 2404 5630 39
11985 2405 7783 20
11986 2405 403 92
11987 2405 8393 17
11988 2405 8581 89
11989 2405 4937 93
11990 2405 4672 1
11991 2405 5255 10
11992 2405 7031 98
11993 2405 3754 74
11994 2406 1761 12
11995 2406 8731 4
11996 2406 2959 15
11997 2406 4007 42
11998 2406 5707 79
11999 2406 6001 54
12000 2406 9059 48
12001 2407 7973 23
12002 2407 4054 85
12003 2407 4690 55
12004 2407 3165 52
12005 2407 9732 5
12006 2407 4758 8
12007 2408 8070 24
12008 2408 8115 96
12009 2408 4806 26
12010 2408 5578 42
12011 2408 7069 2
12012 2409 6739 50
12013 2409 4140 25
12014 2409 1492 91
12015 2409 7429 58
12016 2409 8645 57
12017 2409 5440 89
12018 2410 7483 5
12019 2410 6959 90
12020 2411 8886 16
12021 2411 1736 12
12022 2411 1308 44
12023 2411 7705 59
12024 2411 1929 34
12025 2411 8699 91
12026 2411 1195 92
12027 2411 976 46
12028 2411 8493 53
12029 2412 1227 41
12030 2412 2920 25
12031 2412 1146 72
12032 2412 1089 65
12033 2412 1323 15
12034 2412 5880 11
12035 2412 5038 36
12036 2412 8259 20
12037 2413 624 92
12038 2413 7853 9
12039 2413 5480 86
12040 2413 1217 61
12041 2414 326 3
12042 2414 4988 55
12043 2414 8862 18
12044 2414 9556 15
12045 2414 6893 37
12046 2415 3348 60
12047 2415 4615 85
12048 2416 9427 96
12049 2416 3442 44
12050 2416 2216 92
12051 2416 8231 87
12052 2416 4185 82
12053 2416 5930 88
12054 2416 2561 72
12055 2417 261 69
12056 2417 1818 11
12057 2417 7128 88
12058 2417 251 22
12059 2418 7984 70
12060 2418 4573 90
12061 2419 2739 20
12062 2419 8851 71
12063 2419 4323 73
12064 2419 5969 81
12065 2419 8728 79
12066 2419 2988 41
12067 2420 8896 77
12068 2420 2059 46
12069 2420 2205 9
12070 2420 8675 3
12071 2420 3094 55
12072 2421 9726 93
12073 2421 8277 92
12074 2422 4273 39
12075 2422 7781 1
12076 2422 4061 80
12077 2422 3704 76
12078 2422 7792 57
12079 2422 8207 42
12080 2422 7953 75
12081 2423 1361 54
12082 2423 4224 50
12083 2423 3921 36
12084 2423 3237 46
12085 2423 6136 60
12086 2424 3036 75
12087 2424 4243 94
12088 2425 5945 94
12089 2425 4034 73
12090 2425 5179 27
12091 2425 4579 64
12092 2426 6210 5
12093 2426 2814 26
12094 2427 881 15
12095 2427 8224 7
12096 2427 1882 18
12097 2428 1611 26
12098 2428 1629 38
12099 2428 2879 99
12100 2428 5698 73
12101 2428 9464 54
12102 2428 741 79
12103 2429 9178 94
12104 2429 9321 49
12105 2429 4169 64
12106 2429 8389 62
12107 2429 5714 74
12108 2429 7656 87
12109 2429 2614 47
12110 2429 5583 7
12111 2429 9732 50
12112 2430 159 99
12113 2430 819 56
12114 2430 3648 52
12115 2431 9468 15
12116 2431 2994 39
12117 2431 7681 12
12118 2431 6845 53
12119 2431 6434 43
12120 2431 5386 30
12121 2431 8787 85
12122 2432 2363 21
12123 2432 1730 13
12124 2432 3154 99
12125 2433 4504 57
12126 2433 2972 2
12127 2433 6218 40
12128 2433 3656 65
12129 2433 1165 45
12130 2434 8363 75
12131 2434 6078 51
12132 2434 4535 5
12133 2435 7893 37
12134 2435 4871 69
12135 2435 7980 62
12136 2435 2486 55
12137 2436 2814 16
12138 2436 658 95
12139 2436 2382 70
12140 2436 5577 83
12141 2436 7070 100
12142 2436 3817 53
12143 2436 7713 21
12144 2437 8754 23
12145 2437 5367 86
12146 2437 63 32
12147 2437 4004 90
12148 2437 2088 92
12149 2437 4802 74
12150 2437 4693 90
12151 2437 3962 77
12152 2438 3107 100
12153 2438 1435 11
12154 2438 9117 77
12155 2438 2620 96
12156 2439 2306 85
12157 2439 1633 58
12158 2439 3599 8
12159 2439 3474 86
12160 2439 190 28
12161 2440 5221 24
12162 2440 1621 87
12163 2440 2482 8
12164 2440 6524 64
12165 2440 3858 70
12166 2440 24 28
12167 2440 8254 20
12168 2440 824 80
12169 2441 4816 31
12170 2441 1898 80
12171 2441 4360 88
12172 2441 3536 18
12173 2441 5111 62
12174 2441 3671 55
12175 2442 1368 96
12176 2442 1744 25
12177 2442 4258 31
12178 2442 8223 29
12179 2443 8838 7
12180 2443 7480 4
12181 2443 6077 31
12182 2443 9254 23
12183 2444 7201 42
12184 2444 3006 33
12185 2444 1201 5
12186 2444 6377 72
12187 2444 4867 92
12188 2444 3424 33
12189 2444 4216 51
12190 2444 3714 17
12191 2444 5187 96
12192 2444 9538 88
12193 2445 6510 83
12194 2445 611 74
12195 2445 7478 28
12196 2446 5941 62
12197 2446 8161 51
12198 2446 9710 86
12199 2446 8233 58
12200 2446 8536 32
12201 2446 6169 71
12202 2447 9809 50
12203 2447 5915 51
12204 2447 5013 87
12205 2447 364 27
12206 2447 289 47
12207 2447 2025 92
12208 2447 2078 41
12209 2448 551 7
12210 2448 8585 94
12211 2448 7684 44
12212 2448 1435 84
12213 2448 1004 53
12214 2448 5251 91
12215 2448 8453 89
12216 2449 2292 94
12217 2449 7273 45
12218 2449 2225 87
12219 2450 9837 43
12220 2450 5680 85
12221 2450 8851 8
12222 2450 4711 19
12223 2451 9686 14
12224 2451 2323 65
12225 2451 4752 87
12226 2451 4849 55
12227 2452 9839 38
12228 2453 485 25
12229 2453 5577 78
12230 2453 1338 3
12231 2453 5304 21
12232 2453 4919 47
12233 2453 4808 92
12234 2454 7281 10
12235 2454 8143 37
12236 2454 6373 27
12237 2455 8030 44
12238 2455 8104 10
12239 2455 1178 50
12240 2455 4049 24
12241 2456 2916 90
12242 2456 9171 70
12243 2456 9592 91
12244 2456 9140 69
12245 2456 8011 2
12246 2456 1867 21
12247 2457 9542 56
12248 2457 470 65
12249 2458 2092 70
12250 2458 1382 34
12251 2458 9615 54
12252 2458 3919 23
12253 2458 270 32
12254 2459 3672 21
12255 2459 3189 82
12256 2459 3808 6
12257 2459 4219 19
12258 2460 8484 92
12259 2460 9329 56
12260 2460 907 52
12261 2460 5155 74
12262 2460 6992 63
12263 2460 9846 28
12264 2460 4836 13
12265 2460 3421 91
12266 2461 4318 48
12267 2461 1716 62
12268 2461 1836 11
12269 2461 5394 50
12270 2461 8293 59
12271 2461 2221 100
12272 2462 6751 5
12273 2462 4960 81
12274 2462 3063 74
12275 2462 8688 67
12276 2462 6483 35
12277 2462 7757 59
12278 2462 2766 66
12279 2462 5488 98
12280 2462 9794 95
12281 2462 2544 39
12282 2462 2929 100
12283 2463 5840 50
12284 2463 4134 5
12285 2463 8545 43
12286 2463 8191 75
12287 2463 242 9
12288 2463 5874 90
12289 2463 7613 53
12290 2463 5888 76
12291 2463 2423 20
12292 2463 5900 23
12293 2463 5508 70
12294 2463 702 26
12295 2464 6351 77
12296 2464 4629 28
12297 2464 7903 66
12298 2465 7777 22
12299 2465 1539 82
12300 2465 8271 64
12301 2465 5120 64
12302 2466 4704 63
12303 2466 2327 63
12304 2466 6666 46
12305 2467 1903 48
12306 2467 7980 40
12307 2467 9740 84
12308 2467 9807 98
12309 2467 2925 69
12310 2468 2087 56
12311 2468 3423 18
12312 2468 2341 9
12313 2468 7942 66
12314 2468 2792 4
12315 2468 4661 42
12316 2468 9772 65
12317 2468 6801 61
12318 2468 1544 98
12319 2468 691 9
12320 2468 0 11
12321 2468 9737 38
12322 2468 8579 51
12323 2469 3451 85
12324 2469 2624 41
12325 2469 4046 54
12326 2469 2812 69
12327 2470 5985 74
12328 2470 3090 65
12329 2470 2995 27
12330 2470 7739 74
12331 2471 473 70
12332 2471 4338 11
12333 2471 9668 100
12334 2471 8913 18
12335 2472 416 90
12336 2472 1988 63
12337 2473 9865 90
12338 2473 3369 84
12339 2473 3185 90
12340 2473 4147 64
12341 2474 5461 44
12342 2474 1978 3
12343 2474 4020 58
12344 2474 8116 47
12345 2475 2261 88
12346 2475 7721 34
12347 2476 5535 65
12348 2476 9064 80
12349 2476 3850 42
12350 2476 4666 2
12351 2476 7806 22
12352 2477 4503 54
12353 2477 6103 12
12354 2477 5912 51
12355 2477 6555 47
12356 2477 1761 14
12357 2477 4236 36
12358 2477 1824 54
12359 2477 371 92
12360 2477 2341 95
12361 2478 1951 60
12362 2478 3723 65
12363 2478 6286 77
12364 2479 1009 81
12365 2479 2538 5
12366 2479 9727 15
12367 2479 6990 98
12368 2479 3655 52
12369 2479 6255 38
12370 2479 4950 87
12371 2479 5018 53
12372 2480 1230 96
12373 2480 5288 85
12374 2480 1044 80
12375 2480 9488 53
12376 2480 4802 83
12377 2480 364 74
12378 2480 6620 73
12379 2480 7099 63
12380 2480 5707 71
12381 2480 9725 5
12382 2480 5764 16
12383 2481 9617 69
12384 2481 8694 59
12385 2481 4250 93
12386 2481 415 43
12387 2481 2090 61
12388 2482 1254 84
12389 2482 213 83
12390 2482 2662 27
12391 2483 9181 52
12392 2483 6876 71
12393 2483 5766 4
12394 2483 449 84
12395 2483 4691 21
12396 2483 3793 94
12397 2483 6274 8
12398 2484 6105 89
12399 2484 1801 71
12400 2484 6257 52
12401 2484 2392 73
12402 2484 5503 73
12403 2485 2051 69
12404 2485 1897 83
12405 2485 3801 67
12406 2486 2862 1
12407 2486 3339 40
12408 2486 2854 44
12409 2487 239 44
12410 2487 3891 31
12411 2487 3287 60
12412 2488 2727 61
12413 2488 4616 22
12414 2488 882 51
12415 2488 7011 39
12416 2488 4737 94
12417 2488 7745 8
12418 2489 2016 55
12419 2489 6884 14
12420 2489 9144 50
12421 2489 2555 25
12422 2490 965 54
12423 2490 5039 51
12424 2490 3304 28
12425 2490 7370 10
12426 2490 1378 79
12427 2490 3873 100
12428 2491 8546 86
12429 2491 5113 6
12430 2491 8299 37
12431 2492 9484 85
12432 2492 5490 37
12433 2492 720 50
12434 2492 717 64
12435 2492 131 50
12436 2493 3609 50
12437 2493 6088 16
12438 2493 8372 73
12439 2493 7127 35
12440 2494 1680 64
12441 2494 4782 16
12442 2494 553 14
12443 2494 5176 2
12444 2494 4461 86
12445 2494 3187 89
12446 2494 2266 20
12447 2494 4001 27
12448 2495 5924 53
12449 2495 9247 45
12450 2495 3078 39
12451 2496 423 9
12452 2496 6824 31
12453 2496 2591 37
12454 2496 3167 35
12455 2496 7238 20
12456 2497 1268 10
12457 2497 7606 28
12458 2497 2072 100
12459 2497 7899 89
12460 2497 7568 10
12461 2498 1745 66
12462 2498 7554 74
12463 2498 1313 6
12464 2499 6909 85
12465 2499 3743 12
12466 2499 6921 96
12467 2499 2093 18
12468 2499 4002 3
12469 2500 9542 69
12470 2500 3722 92
12471 2500 9628 23
12472 2501 2769 8
12473 2501 5002 25
12474 2501 393 48
12475 2501 790 5
12476 2502 4988 61
12477 2502 1408 34
12478 2502 2712 29
12479 2502 4059 1
12480 2503 6708 26
12481 2503 2985 26
12482 2503 1771 4
12483 2504 4148 52
12484 2504 178 12
12485 2504 5593 70
12486 2504 550 84
12487 2504 148 13
12488 2505 1009 10
12489 2505 8733 48
12490 2505 8707 88
12491 2505 6580 33
12492 2505 1990 47
12493 2506 4204 12
12494 2506 3371 92
12495 2506 3772 15
12496 2506 8441 28
12497 2506 661 81
12498 2506 8000 74
12499 2506 646 58
12500 2507 485 12
12501 2507 3158 59
12502 2507 3608 33
12503 2507 9200 21
12504 2508 2264 67
12505 2508 6195 53
12506 2508 4097 55
12507 2509 9146 38
12508 2509 2463 39
12509 2510 653 62
12510 2510 2291 75
12511 2510 3923 71
12512 2510 7833 92
12513 2511 6892 53
12514 2511 1734 3
12515 2511 8646 27
12516 2511 3847 46
12517 2511 9579 88
12518 2512 4179 51
12519 2512 7250 87
12520 2512 9407 94
12521 2512 3729 72
12522 2512 5044 75
12523 2513 1353 61
12524 2513 8091 7
12525 2513 9603 46
12526 2513 5812 71
12527 2513 4678 90
12528 2514 9408 99
12529 2514 1354 25
12530 2514 906 82
12531 2514 1694 86
12532 2514 7095 12
12533 2514 5508 97
12534 2515 3866 34
12535 2515 61 93
12536 2515 8049 26
12537 2515 4618 3
12538 2516 6456 15
12539 2516 9270 52
12540 2516 594 85
12541 2516 8016 80
12542 2516 2680 71
12543 2516 4769 39
12544 2516 5043 7
12545 2516 918 95
12546 2517 5087 64
12547 2517 9487 100
12548 2517 2731 50
12549 2517 2216 39
12550 2517 2748 3
12551 2517 5695 65
12552 2518 1531 83
12553 2518 7756 58
12554 2518 7040 41
12555 2518 950 10
12556 2518 1468 39
12557 2519 1770 81
12558 2519 3751 2
12559 2519 866 65
12560 2519 4950 37
12561 2519 7016 2
12562 2519 2900 1
12563 2519 1922 88
12564 2519 9109 92
12565 2519 9756 42
12566 2520 2239 93
12567 2520 1877 5
12568 2520 9859 58
12569 2520 7841 11
12570 2520 4922 19
12571 2520 964 13
12572 2521 7183 95
12573 2521 2911 97
12574 2521 2852 34
12575 2521 7469 48
12576 2521 6191 69
12577 2521 4603 24
12578 2522 3238 54
12579 2522 9842 17
12580 2522 3383 24
12581 2522 8680 97
12582 2522 3633 24
12583 2522 6103 76
12584 2522 1795 49
12585 2522 7392 35
12586 2523 6283 65
12587 2523 109 1
12588 2523 1515 22
12589 2523 3995 83
12590 2523 3358 64
12591 2524 75 68
12592 2524 8857 33
12593 2525 5883 99
12594 2525 1857 97
12595 2525 1073 54
12596 2525 4095 53
12597 2525 682 79
12598 2525 8858 30
12599 2525 8741 70
12600 2526 967 73
12601 2526 6018 19
12602 2526 254 18
12603 2526 2280 87
12604 2526 134 69
12605 2527 8367 54
12606 2527 9597 32
12607 2527 1676 55
12608 2527 1216 30
12609 2527 9775 66
12610 2528 8853 78
12611 2529 5962 11
12612 2529 7263 76
12613 2529 351 60
12614 2529 7862 34
12615 2529 7334 22
12616 2530 9055 1
12617 2530 6876 36
12618 2530 6203 48
12619 2530 9606 73
12620 2530 7782 50
12621 2530 5701 17
12622 2530 8937 94
12623 2531 4392 16
12624 2531 5693 98
12625 2531 2026 6
12626 2531 5973 42
12627 2531 4134 78
12628 2531 9303 64
12629 2531 7602 27
12630 2532 6285 21
12631 2532 6792 70
12632 2533 2332 71
12633 2533 3102 82
12634 2533 9899 27
12635 2533 5927 46
12636 2533 6458 100
12637 2534 2154 5
12638 2534 3134 75
12639 2534 4677 100
12640 2534 664 68
12641 2534 6947 84
12642 2535 5652 76
12643 2535 7750 23
12644 2535 9841 76
12645 2535 4493 66
12646 2535 6252 68
12647 2536 9536 16
12648 2536 2753 97
12649 2536 4096 91
12650 2536 6963 7
12651 2536 6092 2
12652 2537 9080 2
12653 2537 2069 6
12654 2538 9742 80
12655 2539 1806 23
12656 2539 3861 2
12657 2539 8878 94
12658 2539 2001 89
12659 2539 4172 66
12660 2539 2478 73
12661 2540 853 90
12662 2540 6015 85
12663 2541 3486 74
12664 2541 7602 28
12665 2541 6982 11
12666 2541 3835 90
12667 2541 3406 23
12668 2542 4008 1
12669 2542 9020 8
12670 2542 5909 10
12671 2542 2875 45
12672 2543 5851 29
12673 2543 7556 32
12674 2543 6508 38
12675 2543 1529 23
12676 2544 1286 95
12677 2544 8662 18
12678 2544 6309 45
12679 2544 6467 95
12680 2544 5080 36
12681 2545 5670 78
12682 2545 1884 98
12683 2545 6472 22
12684 2545 642 20
12685 2545 3858 21
12686 2545 2035 72
12687 2545 7438 88
12688 2546 6859 78
12689 2546 3913 45
12690 2546 8859 56
12691 2546 275 72
12692 2547 8627 81
12693 2547 5842 23
12694 2547 4365 6
12695 2547 6920 62
12696 2547 8996 60
12697 2547 5037 44
12698 2547 6145 44
12699 2547 1532 81
12700 2548 104 66
12701 2548 975 61
12702 2548 8880 31
12703 2548 5963 35
12704 2548 8020 18
12705 2549 5192 18
12706 2549 5257 74
12707 2549 8933 84
12708 2550 5610 96
12709 2550 700 34
12710 2550 6043 94
12711 2550 3453 49
12712 2550 3484 66
12713 2550 8616 10
12714 2550 7009 60
12715 2550 3139 100
12716 2551 8895 64
12717 2551 5903 13
12718 2551 5430 87
12719 2551 619 57
12720 2551 2893 47
12721 2551 3835 61
12722 2551 2244 17
12723 2552 897 75
12724 2552 2416 21
12725 2552 6421 2
12726 2552 2419 12
12727 2553 9029 43
12728 2553 3281 39
12729 2553 5338 73
12730 2553 7350 100
12731 2553 5116 48
12732 2553 841 60
12733 2554 78 18
12734 2554 7594 15
12735 2554 9288 10
12736 2554 7168 72
12737 2554 2192 98
12738 2554 9392 14
12739 2555 321 35
12740 2555 2873 30
12741 2555 4424 84
12742 2555 1786 1
12743 2555 5215 37
12744 2556 7477 56
12745 2556 4340 25
12746 2556 5012 12
12747 2556 106 59
12748 2556 1902 68
12749 2556 8600 66
12750 2556 6502 28
12751 2556 4431 51
12752 2556 9890 53
12753 2557 2780 58
12754 2557 4764 34
12755 2557 1455 54
12756 2558 1226 100
12757 2558 5700 60
12758 2558 759 47
12759 2558 4761 78
12760 2558 9373 66
12761 2558 9889 81
12762 2559 6908 82
12763 2559 7986 56
12764 2559 8479 30
12765 2559 4170 53
12766 2559 6205 23
12767 2559 7908 12
12768 2559 2752 35
12769 2559 1457 58
12770 2559 169 60
12771 2559 4772 24
12772 2560 4910 8
12773 2560 2529 58
12774 2560 8668 98
12775 2560 9969 10
12776 2560 2055 64
12777 2560 1416 85
12778 2560 8198 30
12779 2560 3303 16
12780 2560 7516 93
12781 2561 9888 78
12782 2561 5189 65
12783 2561 4368 84
12784 2561 3830 51
12785 2561 7046 42
12786 2561 3045 68
12787 2561 3011 68
12788 2561 5817 31
12789 2562 7911 3
12790 2562 9572 60
12791 2563 6165 61
12792 2563 3411 35
12793 2563 9289 15
12794 2563 1131 54
12795 2563 8465 63
12796 2563 1470 45
12797 2564 2549 69
12798 2565 2079 10
12799 2565 6194 57
12800 2565 8409 75
12801 2565 1277 75
12802 2565 2602 64
12803 2565 1518 19
12804 2566 7436 23
12805 2566 9809 99
12806 2566 5221 41
12807 2566 606 88
12808 2567 2943 90
12809 2567 4956 17
12810 2567 863 84
12811 2567 3944 28
12812 2568 2657 12
12813 2568 7023 98
12814 2568 482 90
12815 2569 4785 47
12816 2569 3993 32
12817 2569 4893 20
12818 2570 7442 5
12819 2570 1175 10
12820 2570 9594 73
12821 2570 584 36
12822 2570 4155 50
12823 2570 7124 27
12824 2571 6278 65
12825 2571 5616 56
12826 2571 1558 80
12827 2571 3636 69
12828 2571 1667 46
12829 2572 2653 70
12830 2572 7163 64
12831 2572 4773 99
12832 2572 6066 75
12833 2572 4325 80
12834 2572 1625 43
12835 2572 9642 34
12836 2573 4113 37
12837 2573 9644 30
12838 2573 7950 11
12839 2573 4419 72
12840 2573 2417 28
12841 2573 2586 4
12842 2573 812 93
12843 2573 8588 28
12844 2574 206 46
12845 2574 3254 13
12846 2574 7447 34
12847 2574 3067 86
12848 2574 2466 20
12849 2574 597 92
12850 2574 8209 92
12851 2574 7855 57
12852 2575 985 13
12853 2575 1843 54
12854 2575 4528 69
12855 2575 8230 42
12856 2575 6366 77
12857 2575 1433 70
12858 2575 2406 37
12859 2575 1077 24
12860 2575 6975 1
12861 2576 2858 78
12862 2576 4062 63
12863 2576 5126 24
12864 2576 2662 39
12865 2576 9112 22
12866 2577 7919 76
12867 2577 8729 14
12868 2577 9313 52
12869 2577 7593 80
12870 2578 69 87
12871 2578 7534 31
12872 2578 9895 61
12873 2578 8250 74
12874 2578 8924 47
12875 2578 8650 51
12876 2578 8638 55
12877 2578 9254 79
12878 2578 3423 21
12879 2579 5858 5
12880 2579 5043 62
12881 2579 4734 15
12882 2579 1761 19
12883 2579 3613 64
12884 2579 9321 33
12885 2580 5776 100
12886 2580 3533 61
12887 2580 7971 88
12888 2580 8229 34
12889 2580 8629 16
12890 2580 2588 40
12891 2581 9357 87
12892 2581 131 76
12893 2581 2211 66
12894 2581 8361 2
12895 2581 0 77
12896 2582 2425 88
12897 2582 7299 97
12898 2582 698 50
12899 2582 7485 30
12900 2583 7591 66
12901 2583 4774 27
12902 2583 1117 57
12903 2583 635 38
12904 2584 5248 81
12905 2584 3066 65
12906 2584 4762 43
12907 2585 2732 22
12908 2585 2112 1
12909 2585 9198 37
12910 2585 1859 25
12911 2585 1665 97
12912 2585 1926 100
12913 2585 3586 95
12914 2586 8439 63
12915 2586 2655 82
12916 2586 7972 79
12917 2586 9982 15
12918 2587 4794 95
12919 2587 987 79
12920 2587 7341 52
12921 2587 5481 98
12922 2587 115 7
12923 2588 7514 11
12924 2588 2714 87
12925 2588 6113 51
12926 2588 2387 85
12927 2589 110 48
12928 2589 2964 68
12929 2589 2174 45
12930 2589 5727 97
12931 2589 2263 78
12932 2589 8944 56
12933 2589 1809 1
12934 2590 5203 85
12935 2590 1830 23
12936 2590 8624 34
12937 2590 9942 19
12938 2591 1215 19
12939 2591 9221 1
12940 2591 937 29
12941 2591 1014 34
12942 2591 4564 2
12943 2591 1524 93
12944 2591 6656 24
12945 2592 3005 1
12946 2592 1694 26
12947 2593 4835 41
12948 2593 7930 26
12949 2593 8669 27
12950 2593 542 63
12951 2594 9571 86
12952 2594 3250 36
12953 2595 1452 60
12954 2595 9324 9
12955 2595 6124 100
12956 2595 6538 46
12957 2595 9025 10
12958 2595 1449 8
12959 2595 1581 48
12960 2595 5473 56
12961 2595 7354 10
12962 2595 7953 19
12963 2596 6230 73
12964 2596 6188 79
12965 2596 7798 45
12966 2596 9822 96
12967 2597 373 92
12968 2597 1260 87
12969 2598 6937 24
12970 2598 7725 93
12971 2598 1380 8
12972 2598 6494 4
12973 2599 4394 36
12974 2599 594 90
12975 2599 1294 3
12976 2600 1592 22
12977 2600 9520 65
12978 2600 9929 56
12979 2600 1594 15
12980 2600 5992 22
12981 2600 8474 6
12982 2601 3128 94
12983 2601 1467 67
12984 2601 9966 8
12985 2601 4780 25
12986 2601 2901 42
12987 2601 2523 75
12988 2601 7986 58
12989 2602 3241 5
12990 2602 7062 48
12991 2602 2726 98
12992 2602 5905 77
12993 2602 2207 37
12994 2603 5242 41
12995 2603 2458 91
12996 2603 3096 53
12997 2603 787 51
12998 2603 1032 51
12999 2603 5866 65
13000 2603 1971 38
13001 2603 6831 81
13002 2604 1602 7
13003 2604 3787 98
13004 2604 4696 63
13005 2604 2039 32
13006 2604 8847 52
13007 2605 3052 93
13008 2605 5045 57
13009 2605 1278 86
13010 2605 7623 71
13011 2605 4779 6
13012 2606 9725 96
13013 2606 2467 69
13014 2606 5321 75
13015 2606 6200 3
13016 2606 3770 87
13017 2606 7399 72
13018 2606 4217 75
13019 2607 4347 96
13020 2607 7246 85
13021 2607 9044 30
13022 2607 1035 72
13023 2607 6117 41
13024 2608 3007 64
13025 2608 1435 31
13026 2609 5650 23
13027 2609 1020 33
13028 2609 1474 51
13029 2609 7635 30
13030 2609 8217 47
13031 2609 6778 19
13032 2610 4716 31
13033 2610 4601 52
13034 2610 4743 94
13035 2610 7779 55
13036 2610 6900 78
13037 2611 9522 43
13038 2611 6947 96
13039 2611 5981 19
13040 2611 9224 50
13041 2612 4612 7
13042 2612 7753 12
13043 2612 1128 22
13044 2612 3709 32
13045 2613 4987 74
13046 2614 489 68
13047 2614 541 26
13048 2614 7458 66
13049 2615 7389 46
13050 2616 2007 44
13051 2616 1570 75
13052 2616 1050 1
13053 2617 4997 1
13054 2617 9030 85
13055 2617 7437 62
13056 2617 9358 73
13057 2617 7859 90
13058 2617 1615 19
13059 2617 2710 86
13060 2617 6587 78
13061 2618 6924 2
13062 2618 167 91
13063 2618 2510 71
13064 2618 9934 17
13065 2618 9014 66
13066 2618 4198 42
13067 2618 7461 84
13068 2618 6865 97
13069 2618 6586 70
13070 2619 7681 73
13071 2619 1411 79
13072 2619 4310 65
13073 2619 8737 83
13074 2619 6300 40
13075 2620 4638 5
13076 2620 7274 49
13077 2620 2049 71
13078 2620 561 97
13079 2620 5612 89
13080 2620 5934 85
13081 2621 2718 82
13082 2622 3188 52
13083 2623 6351 35
13084 2623 4976 65
13085 2623 3322 51
13086 2623 7420 26
13087 2624 4102 53
13088 2624 3186 97
13089 2624 3046 5
13090 2625 777 95
13091 2625 9561 96
13092 2625 3307 72
13093 2626 2059 11
13094 2626 4028 68
13095 2626 8694 11
13096 2626 8288 15
13097 2626 7059 66
13098 2626 6749 14
13099 2627 914 65
13100 2627 8226 53
13101 2627 8245 18
13102 2627 4821 62
13103 2627 7911 9
13104 2627 4354 22
13105 2628 6645 83
13106 2628 623 80
13107 2628 1021 59
13108 2628 6270 30
13109 2628 60 32
13110 2628 971 64
13111 2628 2330 50
13112 2629 933 47
13113 2629 5541 65
13114 2629 5210 8
13115 2629 6786 30
13116 2629 5650 5
13117 2630 962 80
13118 2630 9942 97
13119 2630 5810 96
13120 2630 7677 19
13121 2631 6361 92
13122 2631 6050 86
13123 2631 8312 18
13124 2631 9248 7
13125 2631 9107 14
13126 2631 7224 51
13127 2631 3086 14
13128 2632 7039 43
13129 2633 9758 76
13130 2633 2356 18
13131 2633 4683 18
13132 2633 1917 63
13133 2633 7626 27
13134 2633 3725 90
13135 2633 2728 33
13136 2635 9676 26
13137 2635 6552 18
13138 2635 3309 95
13139 2635 9917 90
13140 2635 9951 34
13141 2635 282 81
13142 2636 545 19
13143 2636 9069 73
13144 2636 1734 27
13145 2636 3189 92
13146 2636 9358 23
13147 2636 8449 58
13148 2636 308 85
13149 2637 1040 66
13150 2637 7741 50
13151 2637 1911 29
13152 2637 2762 75
13153 2637 4658 70
13154 2637 6240 22
13155 2638 6254 25
13156 2638 7343 71
13157 2638 4279 83
13158 2638 4915 33
13159 2638 8161 91
13160 2638 6421 14
13161 2638 213 73
13162 2639 4658 66
13163 2640 141 93
13164 2641 7324 12
13165 2641 1693 68
13166 2641 3221 67
13167 2641 346 74
13168 2641 4609 96
13169 2641 540 19
13170 2642 3719 92
13171 2642 7158 53
13172 2642 7568 36
13173 2642 1598 84
13174 2642 5728 90
13175 2643 3785 84
13176 2643 4159 35
13177 2644 7968 27
13178 2644 4006 32
13179 2644 6062 7
13180 2644 945 76
13181 2644 9964 48
13182 2644 6363 100
13183 2645 1151 34
13184 2645 8956 60
13185 2645 9439 22
13186 2645 6553 41
13187 2646 247 92
13188 2646 2958 92
13189 2646 3667 41
13190 2646 6563 13
13191 2646 8878 12
13192 2646 1881 57
13193 2647 1127 8
13194 2647 3894 24
13195 2647 8004 3
13196 2648 6029 62
13197 2648 4247 84
13198 2648 7884 29
13199 2648 7100 62
13200 2648 623 60
13201 2648 223 32
13202 2648 3404 19
13203 2648 7583 37
13204 2649 5568 3
13205 2649 9023 35
13206 2649 9943 5
13207 2649 8619 60
13208 2650 2847 46
13209 2650 3547 36
13210 2651 1130 80
13211 2651 9890 24
13212 2651 3645 47
13213 2652 1390 61
13214 2652 9787 82
13215 2652 5236 95
13216 2652 2099 77
13217 2652 7260 4
13218 2652 6136 67
13219 2652 7512 4
13220 2653 2413 63
13221 2653 2367 93
13222 2653 6425 65
13223 2654 9755 41
13224 2654 4109 46
13225 2654 9030 31
13226 2654 3897 79
13227 2654 5696 20
13228 2654 2230 90
13229 2655 586 18
13230 2655 8443 99
13231 2655 6171 79
13232 2656 6341 23
13233 2657 9743 58
13234 2657 5535 85
13235 2657 4604 74
13236 2658 8664 50
13237 2658 4500 64
13238 2658 4090 43
13239 2658 3544 91
13240 2658 5995 89
13241 2658 6708 91
13242 2658 1149 24
13243 2659 8452 53
13244 2659 5474 91
13245 2659 6092 67
13246 2659 7667 5
13247 2659 5 47
13248 2659 9413 46
13249 2659 1984 30
13250 2659 2587 43
13251 2660 6131 40
13252 2660 4571 15
13253 2660 5730 9
13254 2660 6658 93
13255 2660 6794 32
13256 2662 536 15
13257 2662 6856 95
13258 2662 143 30
13259 2662 5765 4
13260 2662 3170 19
13261 2662 772 56
13262 2663 6343 92
13263 2663 2328 1
13264 2664 683 82
13265 2664 8389 20
13266 2664 4732 84
13267 2664 9965 56
13268 2664 7378 88
13269 2664 7997 30
13270 2664 8752 1
13271 2664 5633 66
13272 2665 1671 62
13273 2665 4812 55
13274 2665 6378 82
13275 2666 9348 27
13276 2666 1932 24
13277 2666 7708 62
13278 2666 6351 9
13279 2666 9215 6
13280 2667 8874 85
13281 2667 6984 1
13282 2667 6332 51
13283 2667 6158 41
13284 2668 9182 78
13285 2668 9005 12
13286 2668 9454 62
13287 2668 5411 26
13288 2668 9332 90
13289 2668 6599 72
13290 2669 5139 67
13291 2669 4806 50
13292 2670 920 73
13293 2670 1821 85
13294 2670 5854 39
13295 2670 502 51
13296 2671 3790 9
13297 2671 6178 34
13298 2671 7726 23
13299 2672 7185 62
13300 2672 5362 58
13301 2672 3257 53
13302 2672 9908 96
13303 2672 6927 100
13304 2672 7008 66
13305 2672 772 43
13306 2673 8857 62
13307 2673 5802 27
13308 2673 7255 100
13309 2673 5785 64
13310 2673 5744 62
13311 2673 4033 46
13312 2674 5048 87
13313 2674 5738 39
13314 2674 9096 41
13315 2674 7397 40
13316 2674 9232 17
13317 2675 6964 17
13318 2675 2509 2
13319 2675 9336 26
13320 2675 5197 58
13321 2675 1713 7
13322 2675 4129 12
13323 2675 26 75
13324 2676 3931 3
13325 2676 3402 81
13326 2676 5608 26
13327 2676 429 41
13328 2676 387 26
13329 2677 1474 49
13330 2677 8675 70
13331 2677 85 39
13332 2677 549 20
13333 2678 5767 11
13334 2678 5044 22
13335 2679 1013 46
13336 2679 6441 23
13337 2679 5273 56
13338 2679 2705 45
13339 2679 2072 65
13340 2679 9419 4
13341 2679 420 64
13342 2679 8896 81
13343 2679 9369 49
13344 2680 8920 27
13345 2680 4237 41
13346 2680 1221 86
13347 2680 7605 22
13348 2680 2291 74
13349 2681 5492 47
13350 2681 4460 74
13351 2681 3897 13
13352 2681 3900 50
13353 2681 4042 40
13354 2682 9986 10
13355 2682 9870 30
13356 2682 8149 78
13357 2683 4217 29
13358 2683 6981 88
13359 2683 7017 67
13360 2684 3929 14
13361 2684 6556 95
13362 2684 8246 92
13363 2684 8151 46
13364 2685 8822 20
13365 2685 1149 47
13366 2685 790 87
13367 2685 6303 40
13368 2685 9912 19
13369 2685 6337 78
13370 2685 5222 8
13371 2685 1990 64
13372 2686 9094 51
13373 2686 1708 22
13374 2686 5710 17
13375 2687 8870 68
13376 2687 2189 84
13377 2687 8124 18
13378 2688 9412 53
13379 2688 2388 8
13380 2688 4307 31
13381 2688 5324 28
13382 2688 7702 1
13383 2689 8736 94
13384 2689 8821 68
13385 2689 5810 9
13386 2690 1525 70
13387 2690 3208 47
13388 2690 4726 47
13389 2690 6143 75
13390 2690 3987 87
13391 2691 3422 10
13392 2691 5799 41
13393 2691 637 91
13394 2691 1254 64
13395 2691 4837 22
13396 2691 4128 55
13397 2691 3172 66
13398 2692 9054 12
13399 2692 4482 43
13400 2692 9147 79
13401 2692 746 49
13402 2692 1113 20
13403 2692 9971 53
13404 2692 8337 11
13405 2693 9389 46
13406 2693 2666 99
13407 2693 2898 73
13408 2693 2613 68
13409 2693 2345 14
13410 2694 2311 87
13411 2694 6463 86
13412 2694 1492 55
13413 2694 139 36
13414 2694 4998 58
13415 2694 134 68
13416 2694 2672 30
13417 2695 1894 61
13418 2695 4093 92
13419 2695 1150 22
13420 2695 8377 32
13421 2696 4651 38
13422 2696 3969 75
13423 2696 9004 60
13424 2696 3730 40
13425 2696 1667 45
13426 2696 320 40
13427 2697 7729 86
13428 2697 1422 8
13429 2697 3408 32
13430 2697 5732 26
13431 2698 9454 92
13432 2698 2919 38
13433 2698 1957 61
13434 2698 6303 59
13435 2698 5659 22
13436 2698 3111 1
13437 2699 3034 55
13438 2699 709 66
13439 2699 436 11
13440 2699 2703 53
13441 2699 9610 38
13442 2700 9552 96
13443 2700 8909 90
13444 2700 2832 56
13445 2700 949 14
13446 2700 4012 51
13447 2700 8416 53
13448 2701 9769 94
13449 2701 5533 96
13450 2701 5941 39
13451 2701 4693 54
13452 2701 4118 91
13453 2701 5760 11
13454 2702 6255 94
13455 2702 1470 65
13456 2702 397 23
13457 2702 7823 91
13458 2702 5435 88
13459 2703 2320 100
13460 2703 5245 28
13461 2703 3409 94
13462 2703 7076 52
13463 2703 7387 53
13464 2703 6704 39
13465 2703 786 41
13466 2703 454 58
13467 2703 6168 47
13468 2703 4663 63
13469 2703 3146 80
13470 2704 6990 88
13471 2704 52 45
13472 2704 2631 100
13473 2704 7144 43
13474 2705 352 100
13475 2705 8079 26
13476 2705 3938 43
13477 2706 8510 96
13478 2706 6367 91
13479 2706 6348 2
13480 2706 1938 30
13481 2706 1256 82
13482 2706 557 81
13483 2706 8162 28
13484 2706 6944 23
13485 2706 9138 64
13486 2707 6016 49
13487 2707 4874 56
13488 2707 6679 29
13489 2707 5574 31
13490 2707 5523 36
13491 2707 2029 17
13492 2708 5623 94
13493 2708 5019 70
13494 2708 3701 25
13495 2709 3895 1
13496 2709 5664 92
13497 2709 4553 91
13498 2709 6964 32
13499 2710 5867 28
13500 2710 7229 79
13501 2710 4001 42
13502 2710 3674 59
13503 2710 2485 90
13504 2710 2121 58
13505 2711 5994 94
13506 2711 1784 50
13507 2711 5923 61
13508 2711 1429 40
13509 2711 3174 64
13510 2711 2025 93
13511 2712 5684 97
13512 2712 3461 95
13513 2712 3045 83
13514 2712 4105 88
13515 2713 9818 93
13516 2713 2553 46
13517 2713 9869 69
13518 2713 5586 36
13519 2713 2940 61
13520 2713 7766 27
13521 2713 8135 77
13522 2713 1271 90
13523 2713 3172 10
13524 2714 6101 24
13525 2714 5360 30
13526 2714 9429 19
13527 2714 5377 73
13528 2714 140 63
13529 2714 6972 73
13530 2714 4847 58
13531 2715 3215 81
13532 2715 9431 64
13533 2715 5779 24
13534 2716 9607 97
13535 2716 7635 87
13536 2716 5187 20
13537 2717 5998 16
13538 2717 3362 95
13539 2717 4468 80
13540 2717 1581 84
13541 2718 3001 27
13542 2718 7871 55
13543 2718 2769 86
13544 2719 1539 86
13545 2719 5724 70
13546 2719 9928 37
13547 2719 4445 97
13548 2720 9537 67
13549 2720 9574 56
13550 2720 5967 39
13551 2720 4404 48
13552 2721 1529 4
13553 2721 9161 42
13554 2721 4428 88
13555 2721 2602 72
13556 2722 7348 43
13557 2722 4935 35
13558 2722 1051 33
13559 2722 7593 65
13560 2722 1231 80
13561 2723 871 73
13562 2723 1267 39
13563 2723 5498 94
13564 2723 2150 59
13565 2723 4273 50
13566 2724 4467 31
13567 2724 2914 100
13568 2724 5699 86
13569 2724 6583 55
13570 2724 5218 97
13571 2724 2640 16
13572 2724 9420 45
13573 2725 9486 77
13574 2725 2176 67
13575 2725 7760 21
13576 2725 4183 96
13577 2725 5591 98
13578 2725 2345 33
13579 2725 4002 21
13580 2725 8747 74
13581 2725 1619 70
13582 2725 8529 38
13583 2726 5384 34
13584 2726 4440 3
13585 2726 4508 41
13586 2726 5661 91
13587 2726 811 10
13588 2726 3978 19
13589 2727 6129 14
13590 2727 9405 76
13591 2727 2823 88
13592 2727 388 21
13593 2727 80 91
13594 2728 3389 22
13595 2728 8092 97
13596 2728 5305 43
13597 2728 9869 4
13598 2728 6628 83
13599 2728 7588 57
13600 2729 7106 67
13601 2729 8790 23
13602 2729 8643 63
13603 2729 8550 7
13604 2729 1869 60
13605 2729 9054 46
13606 2729 8957 38
13607 2729 5063 90
13608 2730 1012 34
13609 2730 3966 100
13610 2730 4931 88
13611 2730 5086 3
13612 2730 2778 60
13613 2730 4064 17
13614 2731 3014 46
13615 2731 333 46
13616 2731 2446 4
13617 2731 1410 46
13618 2732 5104 12
13619 2733 1758 96
13620 2733 3708 82
13621 2734 8749 72
13622 2734 7352 93
13623 2734 7578 34
13624 2734 3810 22
13625 2734 1208 52
13626 2734 4575 79
13627 2734 8901 21
13628 2734 6052 61
13629 2734 8884 55
13630 2735 9081 77
13631 2735 6105 81
13632 2735 7431 22
13633 2735 7223 48
13634 2735 2686 69
13635 2735 8263 60
13636 2736 4533 80
13637 2736 3947 31
13638 2736 610 67
13639 2736 6632 19
13640 2736 577 51
13641 2736 309 75
13642 2737 2538 69
13643 2737 5718 89
13644 2737 7369 82
13645 2738 9667 56
13646 2738 5530 83
13647 2738 8890 34
13648 2738 1611 89
13649 2738 7212 3
13650 2738 7020 6
13651 2739 5792 44
13652 2739 2144 30
13653 2739 6251 98
13654 2740 817 1
13655 2740 9516 19
13656 2740 5253 57
13657 2740 3147 38
13658 2740 9745 3
13659 2740 1952 21
13660 2740 5068 11
13661 2741 1955 22
13662 2741 2888 83
13663 2741 5548 21
13664 2741 3984 30
13665 2741 6675 59
13666 2741 89 65
13667 2741 7115 75
13668 2741 5138 39
13669 2741 2764 48
13670 2742 6586 16
13671 2742 9414 33
13672 2742 7729 81
13673 2742 1100 38
13674 2743 3827 28
13675 2743 1646 99
13676 2743 63 65
13677 2743 9145 39
13678 2743 9619 49
13679 2743 4692 76
13680 2743 9447 75
13681 2743 9133 96
13682 2744 2068 46
13683 2744 7696 44
13684 2744 6894 54
13685 2744 5262 100
13686 2744 1277 14
13687 2745 7149 55
13688 2745 442 55
13689 2745 3336 46
13690 2745 6738 9
13691 2745 8073 65
13692 2746 1904 32
13693 2746 6323 36
13694 2746 3554 86
13695 2746 3884 79
13696 2746 8937 62
13697 2746 4093 56
13698 2747 7933 60
13699 2747 8230 89
13700 2747 9295 57
13701 2747 1009 46
13702 2748 8891 94
13703 2748 9141 85
13704 2748 436 88
13705 2748 6861 77
13706 2748 7871 16
13707 2748 3495 80
13708 2750 1791 75
13709 2750 485 44
13710 2751 4177 99
13711 2751 4025 90
13712 2751 8857 5
13713 2751 9816 51
13714 2751 2633 1
13715 2751 33 33
13716 2751 3334 50
13717 2751 3374 25
13718 2752 5137 54
13719 2752 4366 28
13720 2753 9819 79
13721 2753 3357 36
13722 2753 6542 40
13723 2753 8233 8
13724 2753 7014 3
13725 2754 6518 54
13726 2754 1898 70
13727 2754 5837 76
13728 2754 1614 5
13729 2754 2592 17
13730 2754 3633 63
13731 2754 445 69
13732 2755 5026 65
13733 2755 2948 9
13734 2755 9772 6
13735 2755 4556 47
13736 2756 1705 44
13737 2756 3932 29
13738 2756 3555 81
13739 2756 7662 57
13740 2756 1914 45
13741 2756 8915 44
13742 2756 6024 22
13743 2757 42 14
13744 2757 496 39
13745 2757 5599 83
13746 2757 942 67
13747 2757 1569 62
13748 2757 9622 22
13749 2757 1729 27
13750 2757 7507 90
13751 2757 1352 67
13752 2758 5615 49
13753 2758 6668 71
13754 2758 6198 57
13755 2759 4764 92
13756 2759 6030 78
13757 2760 6195 9
13758 2760 79 40
13759 2760 2031 67
13760 2760 7467 73
13761 2760 9077 50
13762 2761 306 6
13763 2761 8803 35
13764 2761 5861 11
13765 2761 1996 94
13766 2761 3545 34
13767 2762 9460 86
13768 2762 7185 56
13769 2763 975 74
13770 2764 8986 33
13771 2764 8254 2
13772 2764 7566 84
13773 2764 6859 73
13774 2764 5516 22
13775 2764 4045 76
13776 2764 5669 96
13777 2765 5663 21
13778 2765 9887 77
13779 2765 6862 13
13780 2765 3961 21
13781 2766 3156 9
13782 2766 3141 72
13783 2766 9247 14
13784 2766 7462 44
13785 2766 3002 42
13786 2766 933 60
13787 2766 5349 3
13788 2766 3841 54
13789 2766 876 21
13790 2766 107 82
13791 2766 7026 60
13792 2766 961 15
13793 2766 7918 35
13794 2766 9069 61
13795 2767 5440 25
13796 2767 2556 58
13797 2767 6330 28
13798 2768 8901 56
13799 2768 2709 60
13800 2768 220 5
13801 2768 865 82
13802 2768 892 37
13803 2768 1764 70
13804 2768 7096 59
13805 2769 1509 98
13806 2769 3487 3
13807 2769 3737 95
13808 2769 821 50
13809 2769 5928 81
13810 2769 2295 86
13811 2769 8698 70
13812 2770 682 26
13813 2770 3433 16
13814 2770 4733 81
13815 2771 3628 64
13816 2771 1598 23
13817 2771 9588 86
13818 2771 2700 79
13819 2771 597 28
13820 2771 7257 6
13821 2772 3204 1
13822 2772 9663 5
13823 2772 9620 82
13824 2772 7884 15
13825 2772 6222 95
13826 2772 5850 55
13827 2772 5419 51
13828 2772 4390 48
13829 2772 1267 71
13830 2772 8298 79
13831 2773 7334 71
13832 2773 5729 15
13833 2773 4473 39
13834 2774 3575 3
13835 2774 3663 57
13836 2774 2600 86
13837 2774 8112 31
13838 2774 7529 24
13839 2775 2773 21
13840 2775 9392 32
13841 2775 9229 7
13842 2775 4073 86
13843 2775 9477 17
13844 2776 733 53
13845 2776 7879 13
13846 2776 8811 83
13847 2776 2247 61
13848 2776 150 34
13849 2776 602 90
13850 2777 7289 7
13851 2777 2745 23
13852 2778 7857 62
13853 2778 2849 14
13854 2778 4471 35
13855 2778 7748 83
13856 2778 2651 20
13857 2778 5288 70
13858 2779 475 25
13859 2779 8759 79
13860 2780 2474 17
13861 2780 5896 88
13862 2780 4311 45
13863 2780 6805 36
13864 2780 175 62
13865 2780 2902 72
13866 2781 8585 78
13867 2781 1079 17
13868 2781 4632 60
13869 2782 6478 39
13870 2782 465 63
13871 2782 9643 52
13872 2782 4772 13
13873 2782 6893 65
13874 2782 3878 96
13875 2782 7871 54
13876 2782 1041 36
13877 2782 1360 18
13878 2783 6531 100
13879 2784 9725 1
13880 2784 3669 1
13881 2784 4495 47
13882 2784 7516 13
13883 2784 1162 43
13884 2785 5610 99
13885 2785 6265 25
13886 2785 1628 35
13887 2785 949 2
13888 2785 6425 3
13889 2785 8056 81
13890 2785 2159 96
13891 2786 5988 34
13892 2786 9452 89
13893 2786 6272 56
13894 2786 4009 52
13895 2786 7059 96
13896 2786 4777 65
13897 2787 3419 28
13898 2787 2023 2
13899 2787 8832 25
13900 2787 4400 61
13901 2787 837 6
13902 2787 2048 33
13903 2787 7452 2
13904 2788 9007 82
13905 2788 5172 71
13906 2788 4796 18
13907 2788 6005 46
13908 2788 6327 9
13909 2788 5655 48
13910 2788 8255 23
13911 2788 5903 55
13912 2789 4666 99
13913 2789 3055 72
13914 2789 6768 55
13915 2789 6067 98
13916 2789 8324 30
13917 2790 4661 77
13918 2790 6138 41
13919 2790 778 43
13920 2790 1785 19
13921 2791 2315 90
13922 2791 4630 66
13923 2791 992 2
13924 2791 2099 41
13925 2791 7388 91
13926 2791 2417 75
13927 2791 7285 43
13928 2792 7437 30
13929 2792 135 50
13930 2792 7745 100
13931 2793 5837 45
13932 2793 6533 5
13933 2793 3886 80
13934 2793 2991 45
13935 2793 5762 52
13936 2794 8822 53
13937 2794 7305 52
13938 2794 657 28
13939 2794 409 50
13940 2794 1520 84
13941 2794 7098 90
13942 2795 1053 95
13943 2795 5632 36
13944 2795 5989 19
13945 2795 9094 81
13946 2795 7337 49
13947 2795 1932 61
13948 2795 6433 6
13949 2796 3176 36
13950 2796 8799 77
13951 2796 1376 59
13952 2796 2024 100
13953 2796 9391 87
13954 2796 1546 92
13955 2796 609 31
13956 2796 4166 40
13957 2797 4710 100
13958 2797 3234 14
13959 2797 1629 84
13960 2797 4404 2
13961 2797 8590 11
13962 2798 1748 71
13963 2798 8085 24
13964 2798 5951 36
13965 2798 7920 52
13966 2799 3448 82
13967 2799 8918 24
13968 2799 2417 49
13969 2799 5628 30
13970 2800 2957 77
13971 2800 1735 11
13972 2800 6523 17
13973 2800 4607 25
13974 2800 9050 23
13975 2801 7036 71
13976 2801 7645 26
13977 2801 1083 98
13978 2801 6255 43
13979 2802 6590 76
13980 2802 7709 70
13981 2802 5279 56
13982 2803 8804 48
13983 2803 304 85
13984 2803 3338 48
13985 2803 9014 22
13986 2803 7639 28
13987 2803 3972 93
13988 2804 2329 73
13989 2804 5599 10
13990 2804 8837 60
13991 2804 2459 66
13992 2804 2935 97
13993 2804 8242 46
13994 2804 8991 63
13995 2805 2543 3
13996 2805 3655 44
13997 2805 3318 53
13998 2805 6859 31
13999 2805 5250 9
14000 2805 6525 8
14001 2805 7555 59
14002 2806 7377 56
14003 2806 7893 77
14004 2806 7871 56
14005 2807 3187 40
14006 2807 2570 83
14007 2807 1691 69
14008 2807 8623 17
14009 2808 8265 82
14010 2808 9794 40
14011 2808 7978 69
14012 2808 3652 91
14013 2808 2341 60
14014 2809 3307 50
14015 2809 7320 71
14016 2810 9119 71
14017 2810 6465 45
14018 2810 8772 69
14019 2810 7877 46
14020 2810 5607 2
14021 2810 3146 1
14022 2810 1145 79
14023 2810 547 76
14024 2810 8473 7
14025 2811 6875 46
14026 2811 2869 1
14027 2811 6902 92
14028 2812 7012 12
14029 2812 372 81
14030 2813 2915 17
14031 2813 7200 2
14032 2813 1519 43
14033 2813 9665 95
14034 2813 2570 27
14035 2813 9980 62
14036 2813 3611 41
14037 2813 7678 81
14038 2814 1627 95
14039 2814 8873 9
14040 2814 3916 13
14041 2815 2477 77
14042 2815 4229 98
14043 2815 9971 78
14044 2815 7862 52
14045 2815 9183 8
14046 2815 6110 85
14047 2816 1607 80
14048 2816 5629 30
14049 2816 4585 56
14050 2816 3375 78
14051 2817 7226 17
14052 2817 8847 20
14053 2817 6009 57
14054 2817 9618 47
14055 2817 6042 9
14056 2817 6380 27
14057 2817 6891 99
14058 2818 3062 62
14059 2818 4844 45
14060 2819 8824 14
14061 2819 7520 41
14062 2819 3092 67
14063 2819 7506 59
14064 2819 4437 80
14065 2819 5675 24
14066 2819 7428 18
14067 2819 1778 37
14068 2820 2745 20
14069 2820 9151 53
14070 2820 9386 38
14071 2821 6851 88
14072 2821 6167 91
14073 2821 9910 94
14074 2821 3718 40
14075 2821 4169 80
14076 2822 8783 62
14077 2822 944 59
14078 2822 7244 77
14079 2822 3973 75
14080 2822 9115 86
14081 2822 9891 52
14082 2822 1838 91
14083 2822 9510 51
14084 2823 7605 43
14085 2823 7942 13
14086 2823 5659 70
14087 2823 1585 97
14088 2824 9206 39
14089 2824 2303 28
14090 2824 6629 23
14091 2824 3930 51
14092 2825 2013 46
14093 2825 3820 85
14094 2826 4233 6
14095 2826 4887 20
14096 2826 1672 60
14097 2826 9675 79
14098 2827 3470 21
14099 2827 6276 2
14100 2827 7177 26
14101 2828 3515 63
14102 2828 1584 33
14103 2828 1995 63
14104 2828 1921 51
14105 2828 6419 57
14106 2829 6599 82
14107 2830 1266 91
14108 2830 111 71
14109 2830 5423 97
14110 2830 1473 53
14111 2831 7728 2
14112 2831 342 10
14113 2831 4258 98
14114 2831 4771 67
14115 2832 3801 30
14116 2832 9434 41
14117 2832 8523 47
14118 2832 4264 1
14119 2833 3290 63
14120 2833 9341 46
14121 2833 1589 15
14122 2833 1139 53
14123 2833 8565 93
14124 2833 8665 24
14125 2833 2910 52
14126 2833 900 14
14127 2833 5497 12
14128 2834 6433 53
14129 2834 7652 49
14130 2834 9209 35
14131 2834 4109 66
14132 2834 3293 97
14133 2834 488 37
14134 2834 8209 27
14135 2834 9407 8
14136 2834 6229 66
14137 2834 7518 99
14138 2835 1064 1
14139 2835 1686 6
14140 2835 9731 33
14141 2835 5594 52
14142 2836 317 9
14143 2836 843 19
14144 2836 8806 85
14145 2836 7118 94
14146 2837 5504 29
14147 2837 2575 5
14148 2837 7745 95
14149 2837 367 39
14150 2838 2995 82
14151 2838 7646 49
14152 2839 3297 22
14153 2839 3434 23
14154 2839 4422 54
14155 2839 6512 76
14156 2839 2066 6
14157 2839 9899 71
14158 2839 5495 56
14159 2839 5373 71
14160 2839 5781 22
14161 2840 3389 60
14162 2840 8241 9
14163 2840 5293 25
14164 2840 8063 3
14165 2840 3370 35
14166 2840 2916 78
14167 2841 3939 11
14168 2841 7318 5
14169 2841 6084 60
14170 2841 8358 31
14171 2842 9840 17
14172 2842 5171 14
14173 2842 9078 19
14174 2842 7378 75
14175 2842 2720 17
14176 2843 3905 91
14177 2843 5285 43
14178 2843 5127 35
14179 2843 9138 11
14180 2843 8410 46
14181 2844 9505 30
14182 2844 4031 94
14183 2844 5179 89
14184 2844 2001 40
14185 2844 874 6
14186 2845 7253 4
14187 2845 1561 80
14188 2845 1504 49
14189 2845 2682 79
14190 2845 1887 94
14191 2845 3603 21
14192 2845 9488 43
14193 2845 4362 50
14194 2846 9623 97
14195 2846 3078 31
14196 2846 2407 77
14197 2846 3337 4
14198 2846 7228 93
14199 2846 2234 35
14200 2846 4253 41
14201 2846 5601 28
14202 2847 9143 79
14203 2847 8643 28
14204 2847 146 55
14205 2847 9270 37
14206 2847 6744 65
14207 2847 6193 97
14208 2847 8659 57
14209 2847 3367 82
14210 2847 9603 26
14211 2847 9886 64
14212 2848 8081 68
14213 2848 9444 47
14214 2848 4820 93
14215 2848 69 9
14216 2848 3093 71
14217 2848 5001 71
14218 2848 7967 57
14219 2849 7808 44
14220 2849 8170 45
14221 2850 9841 30
14222 2850 2213 61
14223 2850 5720 26
14224 2850 6038 26
14225 2850 9716 83
14226 2850 9974 58
14227 2851 8678 33
14228 2851 2413 95
14229 2851 9197 55
14230 2851 2844 79
14231 2851 5481 6
14232 2852 7880 2
14233 2852 85 4
14234 2852 2564 84
14235 2852 8396 79
14236 2852 8598 22
14237 2852 776 95
14238 2853 5853 62
14239 2853 3218 80
14240 2853 5691 82
14241 2853 4407 22
14242 2854 199 83
14243 2854 5929 54
14244 2854 4829 47
14245 2854 5745 40
14246 2855 9363 32
14247 2855 1723 35
14248 2855 3031 13
14249 2855 1651 72
14250 2855 7604 33
14251 2856 6268 94
14252 2856 1572 58
14253 2856 6836 18
14254 2856 8544 52
14255 2856 92 84
14256 2856 4849 67
14257 2856 8958 74
14258 2857 834 72
14259 2857 8237 9
14260 2858 6967 35
14261 2858 9917 87
14262 2859 1267 69
14263 2859 6985 61
14264 2859 3454 54
14265 2859 8801 50
14266 2860 4639 91
14267 2860 5347 43
14268 2860 4412 58
14269 2860 5432 4
14270 2860 9258 67
14271 2860 4987 53
14272 2860 4837 38
14273 2861 2314 92
14274 2861 78 38
14275 2862 5105 78
14276 2862 5558 63
14277 2862 2649 56
14278 2862 6427 80
14279 2862 8371 60
14280 2862 6035 37
14281 2862 793 45
14282 2862 8996 62
14283 2863 4233 73
14284 2863 3782 48
14285 2863 7714 5
14286 2863 152 73
14287 2863 2613 9
14288 2864 860 60
14289 2864 7322 16
14290 2864 7167 4
14291 2864 3724 59
14292 2864 3367 79
14293 2864 400 44
14294 2864 7966 84
14295 2865 6125 55
14296 2865 8118 36
14297 2865 7655 58
14298 2865 7123 66
14299 2865 1018 77
14300 2865 4951 74
14301 2865 8151 64
14302 2866 9211 31
14303 2867 9677 86
14304 2867 5172 9
14305 2867 3368 93
14306 2868 5867 47
14307 2868 430 20
14308 2868 6873 44
14309 2868 5471 1
14310 2868 8303 34
14311 2868 5569 63
14312 2868 9540 74
14313 2869 467 90
14314 2869 7782 9
14315 2869 2828 5
14316 2869 8328 71
14317 2869 2214 60
14318 2870 7670 13
14319 2870 3699 20
14320 2870 8246 78
14321 2870 5098 54
14322 2870 8409 70
14323 2870 8659 96
14324 2871 7279 61
14325 2871 3569 74
14326 2871 834 61
14327 2871 2116 35
14328 2871 2699 91
14329 2871 4920 66
14330 2872 2814 10
14331 2872 706 33
14332 2872 6761 28
14333 2872 2298 94
14334 2873 8830 20
14335 2873 3185 57
14336 2873 2724 38
14337 2873 7895 19
14338 2873 5460 1
14339 2874 8680 5
14340 2874 8835 65
14341 2875 4151 68
14342 2875 9609 34
14343 2875 7330 52
14344 2875 9483 96
14345 2875 9490 31
14346 2876 5786 97
14347 2876 1351 14
14348 2876 3550 32
14349 2876 8715 73
14350 2877 6467 49
14351 2877 6174 28
14352 2877 5035 82
14353 2877 6190 50
14354 2877 3145 8
14355 2878 6165 95
14356 2878 7070 48
14357 2878 3965 58
14358 2879 5866 37
14359 2879 4231 11
14360 2879 5262 86
14361 2879 9988 9
14362 2879 4406 77
14363 2879 1273 49
14364 2879 7295 16
14365 2879 1836 97
14366 2880 1035 9
14367 2880 9214 73
14368 2880 9487 77
14369 2881 2732 6
14370 2881 2129 46
14371 2881 5286 65
14372 2881 7153 34
14373 2881 8025 33
14374 2882 2968 75
14375 2882 8034 32
14376 2882 5408 5
14377 2882 7745 45
14378 2882 3328 13
14379 2882 7375 63
14380 2882 3944 32
14381 2883 4960 72
14382 2883 7156 6
14383 2883 5390 24
14384 2883 6233 67
14385 2883 3749 90
14386 2883 8394 12
14387 2883 8540 74
14388 2883 3425 9
14389 2884 9908 62
14390 2884 3423 34
14391 2884 232 77
14392 2884 366 45
14393 2884 4067 50
14394 2884 1691 48
14395 2884 3162 64
14396 2884 171 52
14397 2884 7864 76
14398 2884 3365 50
14399 2885 8790 10
14400 2885 7438 80
14401 2885 4467 78
14402 2885 4549 19
14403 2886 2171 1
14404 2886 9922 81
14405 2886 3220 12
14406 2887 1105 36
14407 2887 2187 5
14408 2887 474 88
14409 2888 9665 85
14410 2888 1979 8
14411 2888 8191 84
14412 2888 1990 31
14413 2888 7195 96
14414 2888 9384 62
14415 2888 7580 45
14416 2888 1522 100
14417 2889 1036 99
14418 2889 541 62
14419 2889 2075 80
14420 2889 3313 4
14421 2889 8189 59
14422 2890 3698 61
14423 2890 9114 43
14424 2890 2808 48
14425 2891 3172 40
14426 2891 3437 49
14427 2892 3780 97
14428 2892 5180 59
14429 2892 8640 25
14430 2892 6412 26
14431 2893 5539 98
14432 2893 198 95
14433 2893 2650 1
14434 2893 4330 74
14435 2893 5296 89
14436 2893 9562 78
14437 2894 9418 38
14438 2894 8092 92
14439 2894 1302 97
14440 2894 6268 8
14441 2894 3135 27
14442 2894 1660 65
14443 2894 8624 96
14444 2894 3769 40
14445 2895 3685 9
14446 2895 2190 18
14447 2895 9260 41
14448 2895 3037 97
14449 2895 1904 19
14450 2895 2939 55
14451 2896 9627 83
14452 2896 7571 32
14453 2896 1079 16
14454 2896 2143 42
14455 2896 7523 69
14456 2896 1624 92
14457 2896 1667 41
14458 2896 4286 96
14459 2896 3341 83
14460 2897 5786 41
14461 2897 3496 80
14462 2897 1330 38
14463 2897 3450 51
14464 2897 9917 37
14465 2897 8441 21
14466 2898 9870 38
14467 2898 8134 85
14468 2898 69 74
14469 2898 2972 39
14470 2898 1227 57
14471 2898 2539 33
14472 2898 1346 59
14473 2899 9216 84
14474 2899 3424 62
14475 2899 9649 96
14476 2899 4487 20
14477 2899 6896 87
14478 2899 1806 18
14479 2900 6224 93
14480 2900 9016 41
14481 2901 6200 77
14482 2902 9900 25
14483 2902 4557 56
14484 2902 9659 63
14485 2902 7717 73
14486 2902 7901 40
14487 2902 1259 19
14488 2902 6786 86
14489 2902 2741 55
14490 2902 442 98
14491 2903 7509 56
14492 2903 1294 37
14493 2903 8221 80
14494 2903 2927 73
14495 2903 1387 100
14496 2904 6764 96
14497 2904 880 68
14498 2904 1292 92
14499 2904 8073 57
14500 2904 6290 84
14501 2904 5328 48
14502 2905 3540 33
14503 2905 5333 45
14504 2905 9787 72
14505 2905 1853 10
14506 2905 8698 74
14507 2906 5474 74
14508 2906 9320 6
14509 2906 7669 2
14510 2906 9868 11
14511 2906 5180 74
14512 2906 9289 39
14513 2906 6792 11
14514 2906 8191 99
14515 2906 9745 55
14516 2906 1666 57
14517 2906 6137 46
14518 2907 5690 83
14519 2907 4968 86
14520 2907 7935 45
14521 2907 4718 64
14522 2907 634 8
14523 2908 1812 28
14524 2908 214 13
14525 2908 8878 91
14526 2908 3791 2
14527 2908 6057 81
14528 2908 9597 20
14529 2909 7544 24
14530 2909 9204 88
14531 2909 2729 41
14532 2909 4916 18
14533 2909 9474 10
14534 2909 8669 60
14535 2910 8640 66
14536 2910 7092 21
14537 2910 1396 8
14538 2910 5878 72
14539 2910 3649 21
14540 2910 3702 79
14541 2910 3806 40
14542 2911 3283 6
14543 2911 953 87
14544 2911 6321 63
14545 2911 6312 57
14546 2912 5547 88
14547 2912 7248 65
14548 2913 6778 99
14549 2913 568 28
14550 2913 4974 81
14551 2914 2173 64
14552 2914 4715 42
14553 2914 3857 6
14554 2914 9158 17
14555 2914 3540 53
14556 2915 6250 60
14557 2915 1568 60
14558 2916 4403 80
14559 2916 9954 76
14560 2916 2268 43
14561 2916 6682 74
14562 2916 8088 35
14563 2916 151 5
14564 2917 1773 28
14565 2917 4059 34
14566 2917 1929 31
14567 2917 3661 60
14568 2917 238 98
14569 2918 1030 58
14570 2918 8778 40
14571 2918 2178 81
14572 2918 8104 99
14573 2918 8337 84
14574 2918 2742 45
14575 2919 4918 22
14576 2919 8719 87
14577 2919 4727 32
14578 2919 8578 45
14579 2919 2614 33
14580 2920 2097 33
14581 2920 9176 67
14582 2920 7041 70
14583 2920 338 81
14584 2921 4934 91
14585 2921 2539 78
14586 2921 2604 99
14587 2921 5735 41
14588 2922 8534 95
14589 2922 6247 1
14590 2922 6329 30
14591 2922 8623 88
14592 2922 9361 17
14593 2923 1753 80
14594 2923 8633 38
14595 2923 3314 98
14596 2923 1447 13
14597 2924 5612 78
14598 2924 813 75
14599 2924 9569 92
14600 2924 4475 90
14601 2925 1626 76
14602 2925 4402 53
14603 2926 4682 2
14604 2926 7286 16
14605 2926 8776 73
14606 2926 4287 16
14607 2926 3596 6
14608 2927 3819 53
14609 2927 9263 67
14610 2927 9178 64
14611 2928 2117 14
14612 2928 9406 70
14613 2928 8926 24
14614 2929 2421 37
14615 2929 5923 76
14616 2929 2634 6
14617 2930 7317 69
14618 2930 7541 95
14619 2930 7505 26
14620 2930 4600 23
14621 2930 6072 47
14622 2930 3032 90
14623 2931 3691 31
14624 2931 8310 82
14625 2932 2445 100
14626 2933 426 24
14627 2933 2532 21
14628 2933 1343 40
14629 2933 5136 40
14630 2933 8038 64
14631 2933 6248 2
14632 2934 6838 1
14633 2934 742 90
14634 2934 7094 12
14635 2934 6716 77
14636 2934 3559 51
14637 2934 4022 74
14638 2934 656 77
14639 2934 997 7
14640 2934 3554 57
14641 2935 2880 80
14642 2935 5660 24
14643 2935 6119 93
14644 2935 9760 12
14645 2936 1935 36
14646 2936 7152 19
14647 2936 31 58
14648 2936 4531 6
14649 2936 6352 85
14650 2936 5637 86
14651 2936 6737 60
14652 2937 8080 82
14653 2937 3536 97
14654 2937 665 33
14655 2937 2863 20
14656 2938 1396 32
14657 2938 1202 43
14658 2938 3449 93
14659 2938 9955 86
14660 2938 8408 8
14661 2938 2953 76
14662 2938 8753 99
14663 2939 1085 17
14664 2939 2575 93
14665 2939 7470 90
14666 2939 5843 69
14667 2939 1166 86
14668 2939 4784 20
14669 2939 7363 8
14670 2939 8362 95
14671 2940 7242 88
14672 2940 5791 64
14673 2940 2265 28
14674 2940 6984 77
14675 2940 270 33
14676 2941 8395 16
14677 2941 8963 5
14678 2941 7241 28
14679 2941 8056 82
14680 2941 9091 98
14681 2941 1539 71
14682 2941 8613 75
14683 2942 1340 92
14684 2942 1625 90
14685 2942 2192 12
14686 2943 6456 95
14687 2943 4740 56
14688 2943 1933 71
14689 2943 4309 35
14690 2943 9603 77
14691 2943 1365 3
14692 2943 2353 1
14693 2943 9628 9
14694 2943 905 15
14695 2944 3522 87
14696 2944 7874 54
14697 2944 3643 41
14698 2944 7086 11
14699 2944 6619 38
14700 2944 5002 55
14701 2944 2021 41
14702 2945 6374 8
14703 2945 984 87
14704 2945 2450 13
14705 2945 5332 32
14706 2945 5037 78
14707 2946 5612 56
14708 2946 8256 46
14709 2947 9393 9
14710 2947 3096 61
14711 2947 4873 14
14712 2947 9576 19
14713 2948 6736 39
14714 2948 3913 85
14715 2948 643 8
14716 2948 7198 66
14717 2948 1924 37
14718 2948 1976 64
14719 2948 8068 40
14720 2948 6619 22
14721 2948 8300 73
14722 2948 4035 84
14723 2949 6215 67
14724 2949 8083 39
14725 2949 1910 22
14726 2949 6875 39
14727 2949 2785 44
14728 2950 8678 17
14729 2950 9289 18
14730 2950 3856 39
14731 2950 9181 3
14732 2951 388 89
14733 2951 4364 65
14734 2951 918 6
14735 2951 1040 26
14736 2951 5184 89
14737 2952 4347 71
14738 2952 193 6
14739 2953 2676 50
14740 2953 4437 86
14741 2953 950 82
14742 2953 1708 40
14743 2953 2835 99
14744 2953 4027 74
14745 2953 8921 23
14746 2953 2123 38
14747 2953 8158 87
14748 2954 2192 60
14749 2954 41 89
14750 2954 166 85
14751 2954 5534 29
14752 2954 2870 51
14753 2954 9039 49
14754 2954 8740 97
14755 2954 8152 80
14756 2954 2012 64
14757 2955 6152 55
14758 2955 5888 44
14759 2955 5911 16
14760 2955 9441 66
14761 2955 3819 50
14762 2956 3008 24
14763 2956 3817 56
14764 2956 500 25
14765 2956 9675 31
14766 2956 5806 80
14767 2957 7175 85
14768 2957 401 34
14769 2957 5148 88
14770 2957 1782 33
14771 2957 6037 46
14772 2958 3760 48
14773 2958 3164 24
14774 2958 32 46
14775 2958 1298 98
14776 2958 8228 30
14777 2959 4346 74
14778 2959 4997 93
14779 2959 3836 96
14780 2959 3524 13
14781 2960 9091 72
14782 2960 8990 74
14783 2961 5243 85
14784 2961 5402 76
14785 2961 8141 3
14786 2962 7576 98
14787 2962 5846 19
14788 2962 551 84
14789 2962 5664 42
14790 2962 8162 5
14791 2962 2391 10
14792 2962 8001 73
14793 2963 4680 98
14794 2963 8976 5
14795 2963 968 11
14796 2963 4683 65
14797 2963 521 16
14798 2963 9735 41
14799 2964 6500 71
14800 2964 2064 84
14801 2964 5935 4
14802 2964 7887 40
14803 2964 4452 63
14804 2964 7626 23
14805 2964 7881 82
14806 2964 2840 53
14807 2965 9064 64
14808 2965 6587 66
14809 2965 750 38
14810 2965 1343 85
14811 2965 6857 22
14812 2966 4009 4
14813 2966 9537 28
14814 2966 7358 77
14815 2967 727 13
14816 2967 5743 31
14817 2967 8781 88
14818 2967 3428 86
14819 2968 6995 51
14820 2968 5349 67
14821 2968 537 59
14822 2968 3916 26
14823 2968 8980 28
14824 2969 4540 50
14825 2969 9021 87
14826 2969 6356 33
14827 2969 6950 15
14828 2969 5528 85
14829 2969 1583 59
14830 2969 7866 41
14831 2970 1440 91
14832 2970 8046 18
14833 2971 2900 36
14834 2971 7348 85
14835 2971 4041 94
14836 2971 4572 9
14837 2971 1172 16
14838 2972 2813 74
14839 2972 1954 82
14840 2973 9681 50
14841 2973 6861 58
14842 2973 1265 48
14843 2973 8282 73
14844 2973 6382 41
14845 2973 9827 66
14846 2973 5825 38
14847 2974 4049 12
14848 2974 8993 50
14849 2974 2715 7
14850 2974 8803 48
14851 2974 240 94
14852 2975 895 53
14853 2975 6599 5
14854 2976 8438 37
14855 2976 2220 1
14856 2976 4787 17
14857 2977 3494 65
14858 2977 2875 1
14859 2977 5656 76
14860 2977 4295 77
14861 2977 5389 77
14862 2977 4424 63
14863 2977 5771 20
14864 2978 7663 43
14865 2978 9152 56
14866 2978 1584 12
14867 2979 2074 86
14868 2979 3872 44
14869 2980 7341 16
14870 2980 4869 70
14871 2980 4739 50
14872 2980 2960 55
14873 2980 1597 37
14874 2980 2507 5
14875 2980 557 96
14876 2980 2956 27
14877 2980 792 61
14878 2981 2412 70
14879 2981 9469 49
14880 2981 7245 34
14881 2981 251 69
14882 2981 2170 39
14883 2981 9074 23
14884 2982 1296 22
14885 2982 8448 17
14886 2982 7301 39
14887 2982 1411 56
14888 2982 432 50
14889 2982 9638 94
14890 2982 2338 79
14891 2983 4536 9
14892 2983 4573 59
14893 2983 9480 69
14894 2983 1443 80
14895 2983 1878 47
14896 2984 4730 84
14897 2984 9526 99
14898 2984 4702 68
14899 2984 2738 74
14900 2984 9083 71
14901 2985 4805 10
14902 2985 1740 48
14903 2985 656 20
14904 2985 9384 21
14905 2986 8961 5
14906 2986 5983 54
14907 2986 3642 94
14908 2986 4829 34
14909 2986 8699 7
14910 2986 6380 88
14911 2987 1884 5
14912 2987 923 6
14913 2987 4129 72
14914 2988 9795 97
14915 2988 3475 5
14916 2988 3111 46
14917 2988 1118 29
14918 2988 6018 79
14919 2989 1920 77
14920 2989 613 19
14921 2989 8330 64
14922 2989 9328 79
14923 2989 7201 33
14924 2990 5156 73
14925 2990 8415 8
14926 2990 9782 56
14927 2990 7277 41
14928 2991 1512 91
14929 2991 841 5
14930 2991 152 53
14931 2991 5983 82
14932 2991 1396 69
14933 2991 6335 82
14934 2991 8254 91
14935 2992 4719 1
14936 2992 8536 52
14937 2992 6101 23
14938 2993 6668 22
14939 2993 1363 75
14940 2993 6008 49
14941 2993 2680 18
14942 2993 1780 51
14943 2994 6579 39
14944 2994 3756 83
14945 2994 4898 93
14946 2994 6420 4
14947 2994 2437 86
14948 2994 3934 36
14949 2994 3664 1
14950 2994 8969 33
14951 2995 1169 26
14952 2995 2956 69
14953 2995 9235 88
14954 2995 5502 60
14955 2996 3870 51
14956 2996 4922 23
14957 2996 86 50
14958 2996 8986 17
14959 2996 3598 99
14960 2996 6615 43
14961 2996 3123 78
14962 2997 8834 49
14963 2997 2931 60
14964 2997 2021 22
14965 2997 4754 64
14966 2998 2040 82
14967 2999 5646 61
14968 2999 5330 54
14969 2999 5396 60
14970 2999 1666 83
14971 2999 7203 75
14972 2999 2389 10
14973 2999 8122 98
14974 3000 1451 94
14975 3000 6016 47
14976 3000 8876 82
14977 3000 5536 99
14978 3000 5539 92
14979 3000 5962 82
14980 3001 3377 16
14981 3001 5470 37
14982 3001 7289 58
14983 3002 4314 92
14984 3002 7 25
14985 3002 7376 20
14986 3002 103 79
14987 3002 8686 42
14988 3003 5324 64
14989 3003 3631 47
14990 3003 4530 48
14991 3003 8673 5
14992 3004 4838 69
14993 3004 3848 86
14994 3004 3469 43
14995 3004 1017 86
14996 3005 5330 10
14997 3005 5131 53
14998 3005 6524 38
14999 3005 476 61
15000 3005 7141 23
15001 3005 1029 74
15002 3006 6381 43
15003 3006 4810 59
15004 3006 8057 38
15005 3006 3764 51
15006 3007 1862 25
15007 3007 2246 9
15008 3007 7669 65
15009 3007 8261 5
15010 3007 9234 15
15011 3008 9112 13
15012 3008 1606 15
15013 3008 5214 23
15014 3009 2035 81
15015 3009 5333 42
15016 3009 1521 55
15017 3009 3109 100
15018 3009 9319 8
15019 3009 8123 83
15020 3009 7147 96
15021 3010 6024 20
15022 3010 5379 96
15023 3010 5051 35
15024 3010 5038 24
15025 3010 1709 50
15026 3011 8974 62
15027 3012 4637 87
15028 3012 6312 13
15029 3012 1076 2
15030 3012 4845 67
15031 3012 701 94
15032 3012 6721 100
15033 3013 2784 77
15034 3013 6067 10
15035 3013 3940 8
15036 3014 9618 57
15037 3014 2026 81
15038 3014 3604 15
15039 3014 6063 45
15040 3014 8654 60
15041 3015 6483 35
15042 3015 5209 40
15043 3015 2109 67
15044 3015 9792 87
15045 3016 5426 99
15046 3016 4052 47
15047 3016 526 88
15048 3016 6747 43
15049 3016 1643 23
15050 3017 6520 97
15051 3017 8542 90
15052 3017 4390 45
15053 3017 5599 57
15054 3018 727 13
15055 3018 7630 63
15056 3018 6735 34
15057 3018 2896 29
15058 3019 2472 99
15059 3019 9688 26
15060 3019 4740 92
15061 3019 3761 58
15062 3019 2560 39
15063 3020 5523 89
15064 3020 6440 99
15065 3020 6788 56
15066 3020 506 9
15067 3020 8033 43
15068 3020 7655 39
15069 3021 9151 95
15070 3021 2789 78
15071 3021 4634 7
15072 3021 2588 27
15073 3021 6112 98
15074 3021 1091 85
15075 3021 5425 20
15076 3022 4640 11
15077 3022 2677 32
15078 3022 1689 100
15079 3022 5061 12
15080 3022 9432 26
15081 3022 9928 9
15082 3022 9076 73
15083 3022 4555 1
15084 3022 9064 82
15085 3022 2863 94
15086 3023 4250 80
15087 3023 7422 4
15088 3023 8394 48
15089 3023 2537 48
15090 3023 9918 93
15091 3023 8403 9
15092 3023 3155 78
15093 3024 7218 97
15094 3024 67 92
15095 3024 2690 29
15096 3024 7055 98
15097 3025 3884 59
15098 3025 7518 21
15099 3025 8447 81
15100 3025 6540 88
15101 3025 7314 26
15102 3025 6639 62
15103 3026 666 55
15104 3026 9820 94
15105 3026 2455 85
15106 3026 2252 68
15107 3026 2900 59
15108 3026 9310 93
15109 3027 6632 79
15110 3027 6852 92
15111 3027 1634 84
15112 3028 1183 78
15113 3028 8627 86
15114 3028 9276 78
15115 3028 8948 32
15116 3028 5888 81
15117 3028 6578 95
15118 3028 6344 3
15119 3029 9236 72
15120 3029 4319 92
15121 3030 7650 64
15122 3030 8252 51
15123 3030 9445 51
15124 3030 3617 48
15125 3030 8702 80
15126 3030 406 66
15127 3030 1251 61
15128 3031 2186 69
15129 3031 7807 72
15130 3031 1696 40
15131 3031 272 80
15132 3031 5933 22
15133 3031 5444 91
15134 3031 5707 27
15135 3031 3639 44
15136 3031 8747 83
15137 3031 2064 53
15138 3032 2692 50
15139 3032 7139 37
15140 3032 9175 47
15141 3032 3247 28
15142 3032 9234 51
15143 3033 419 47
15144 3033 7347 44
15145 3033 1488 56
15146 3033 6833 22
15147 3033 3948 68
15148 3033 5553 38
15149 3033 2655 12
15150 3033 6510 43
15151 3034 9895 60
15152 3034 4153 48
15153 3034 785 77
15154 3035 2800 46
15155 3035 3369 62
15156 3035 6074 88
15157 3035 10 65
15158 3035 324 94
15159 3035 3320 64
15160 3035 741 59
15161 3036 4170 79
15162 3036 652 17
15163 3036 2601 63
15164 3036 4761 98
15165 3037 4678 62
15166 3037 2377 35
15167 3037 3544 29
15168 3037 5822 29
15169 3037 3898 22
15170 3037 8585 66
15171 3037 5526 98
15172 3037 2663 43
15173 3038 3736 4
15174 3038 3032 56
15175 3038 8855 67
15176 3038 4239 74
15177 3039 8130 97
15178 3039 719 58
15179 3039 4827 63
15180 3039 2449 47
15181 3040 6571 8
15182 3040 2651 32
15183 3040 296 46
15184 3041 3134 17
15185 3041 5816 99
15186 3041 5562 73
15187 3041 8622 3
15188 3041 6187 17
15189 3041 4453 19
15190 3041 8048 85
15191 3041 8830 51
15192 3041 7414 13
15193 3041 2604 20
15194 3042 4063 92
15195 3042 1779 35
15196 3042 6928 4
15197 3042 7744 100
15198 3042 1161 81
15199 3043 9542 45
15200 3043 1399 34
15201 3043 222 42
15202 3043 9413 100
15203 3043 4207 98
15204 3044 7496 93
15205 3044 6954 98
15206 3044 3825 76
15207 3044 6521 71
15208 3044 1648 31
15209 3044 9022 57
15210 3044 4559 83
15211 3044 5788 35
15212 3044 4033 41
15213 3045 3694 61
15214 3045 8098 8
15215 3045 6438 71
15216 3046 3184 90
15217 3046 2216 70
15218 3046 2317 41
15219 3046 2608 45
15220 3046 180 73
15221 3047 2628 22
15222 3047 8750 59
15223 3047 6092 89
15224 3047 8851 62
15225 3048 9061 38
15226 3048 6824 9
15227 3048 8841 82
15228 3048 7624 86
15229 3048 3243 79
15230 3049 2929 98
15231 3049 8234 38
15232 3049 714 37
15233 3049 4161 90
15234 3049 8747 69
15235 3049 7942 63
15236 3049 9691 47
15237 3049 2785 58
15238 3049 56 61
15239 3050 821 18
15240 3050 5913 31
15241 3050 9981 31
15242 3050 8142 37
15243 3050 6873 33
15244 3050 5126 43
15245 3050 6752 62
15246 3051 2155 21
15247 3051 1198 38
15248 3051 244 30
15249 3052 1118 17
15250 3053 5007 48
15251 3053 9064 88
15252 3053 1740 58
15253 3053 3420 20
15254 3053 1145 52
15255 3053 4955 43
15256 3053 4256 29
15257 3054 9858 38
15258 3054 3802 35
15259 3054 705 62
15260 3054 6282 97
15261 3054 2383 24
15262 3054 4279 95
15263 3054 9123 38
15264 3054 9722 31
15265 3055 2215 25
15266 3055 1826 67
15267 3055 6284 35
15268 3056 5596 58
15269 3056 6545 36
15270 3056 8419 59
15271 3056 4726 23
15272 3056 837 50
15273 3056 1389 99
15274 3056 1298 18
15275 3057 4552 66
15276 3057 2419 53
15277 3057 7729 9
15278 3057 7197 7
15279 3057 7478 93
15280 3057 8824 87
15281 3057 8879 72
15282 3058 6948 58
15283 3058 7934 50
15284 3058 1542 57
15285 3058 1903 19
15286 3058 2125 83
15287 3059 5310 74
15288 3059 1100 50
15289 3060 6083 60
15290 3060 5193 21
15291 3060 4238 94
15292 3060 7883 22
15293 3061 9461 32
15294 3061 6354 68
15295 3061 7167 43
15296 3061 2840 2
15297 3061 1769 45
15298 3061 7430 30
15299 3062 2341 8
15300 3062 3742 47
15301 3062 7376 90
15302 3062 7757 82
15303 3062 5480 47
15304 3062 2848 70
15305 3062 8827 30
15306 3062 1111 86
15307 3062 5703 63
15308 3062 3893 63
15309 3062 2068 66
15310 3063 687 58
15311 3063 267 96
15312 3063 262 91
15313 3064 6424 43
15314 3064 3448 52
15315 3064 5287 95
15316 3064 3454 39
15317 3064 6245 97
15318 3064 2836 86
15319 3064 9646 54
15320 3065 1059 69
15321 3065 5914 89
15322 3065 6891 71
15323 3065 630 68
15324 3066 4388 70
15325 3066 8038 56
15326 3066 703 34
15327 3066 4075 29
15328 3066 7331 40
15329 3066 796 26
15330 3066 8266 75
15331 3066 2532 73
15332 3067 1218 18
15333 3067 8819 29
15334 3067 9739 13
15335 3067 7220 85
15336 3067 9805 29
15337 3067 9299 40
15338 3067 1386 35
15339 3067 3463 54
15340 3068 1209 6
15341 3068 947 65
15342 3068 6257 53
15343 3068 9780 37
15344 3068 2101 79
15345 3068 9152 77
15346 3068 6333 7
15347 3069 5910 79
15348 3069 8233 99
15349 3069 8 43
15350 3069 4631 71
15351 3069 8066 23
15352 3070 6334 57
15353 3070 5543 40
15354 3070 8994 60
15355 3071 4846 55
15356 3071 8845 38
15357 3071 1540 55
15358 3072 2902 62
15359 3072 1201 18
15360 3072 3370 8
15361 3072 5594 3
15362 3072 7133 69
15363 3072 1550 20
15364 3073 6019 89
15365 3073 7542 27
15366 3073 1679 31
15367 3073 1182 56
15368 3073 929 61
15369 3073 3171 97
15370 3073 1371 21
15371 3073 1084 75
15372 3073 4234 43
15373 3073 543 66
15374 3074 6313 10
15375 3074 2113 42
15376 3074 5384 27
15377 3074 2863 25
15378 3074 1182 24
15379 3074 4817 67
15380 3074 6430 15
15381 3074 5778 37
15382 3074 6490 3
15383 3074 1288 21
15384 3075 617 73
15385 3075 8626 100
15386 3075 6275 80
15387 3075 5444 90
15388 3076 6540 71
15389 3076 5577 53
15390 3076 8481 55
15391 3076 7198 17
15392 3076 8716 75
15393 3076 7995 23
15394 3077 1296 71
15395 3077 4696 10
15396 3077 3965 39
15397 3077 5437 5
15398 3078 5128 47
15399 3078 3354 46
15400 3078 5872 87
15401 3078 7538 39
15402 3078 8795 96
15403 3078 1432 60
15404 3079 9797 31
15405 3079 5259 19
15406 3079 838 64
15407 3079 1107 47
15408 3080 3388 14
15409 3080 6238 14
15410 3080 5864 50
15411 3081 9735 94
15412 3081 8650 8
15413 3081 1698 28
15414 3081 8889 88
15415 3081 2156 64
15416 3082 5257 10
15417 3082 1724 72
15418 3082 8423 58
15419 3082 1705 99
15420 3082 6716 14
15421 3082 3144 93
15422 3083 8902 93
15423 3083 3209 76
15424 3083 1190 82
15425 3083 3194 3
15426 3084 4399 78
15427 3084 2522 87
15428 3084 3747 93
15429 3084 3732 75
15430 3085 3463 18
15431 3085 7515 75
15432 3085 8310 15
15433 3085 5715 46
15434 3085 8371 44
15435 3085 4734 46
15436 3086 5698 59
15437 3086 1437 89
15438 3086 3393 43
15439 3086 8461 23
15440 3086 8864 36
15441 3086 7933 90
15442 3086 1582 80
15443 3086 5328 73
15444 3087 5732 9
15445 3087 593 10
15446 3087 5048 95
15447 3088 6578 28
15448 3088 3892 80
15449 3088 8273 99
15450 3088 1370 38
15451 3089 5041 22
15452 3089 5750 79
15453 3089 1503 46
15454 3090 9823 71
15455 3090 3485 76
15456 3090 4737 18
15457 3090 8041 78
15458 3091 8848 92
15459 3091 3413 59
15460 3092 7780 55
15461 3092 5160 2
15462 3092 39 87
15463 3092 9197 82
15464 3092 6279 38
15465 3092 3677 40
15466 3093 4067 96
15467 3093 1225 99
15468 3094 8292 45
15469 3094 3253 4
15470 3094 3805 53
15471 3094 6640 96
15472 3095 2562 18
15473 3095 7254 79
15474 3095 2440 81
15475 3096 3564 84
15476 3096 1710 41
15477 3096 6186 24
15478 3097 3993 97
15479 3097 6822 48
15480 3097 8916 96
15481 3097 8613 94
15482 3097 9339 39
15483 3097 6321 99
15484 3097 5893 58
15485 3097 4095 21
15486 3098 2010 45
15487 3098 6542 9
15488 3098 2635 72
15489 3099 3850 27
15490 3099 9488 23
15491 3099 7068 32
15492 3099 989 35
15493 3100 7660 50
15494 3100 7216 43
15495 3100 2052 81
15496 3100 7737 80
15497 3100 6414 27
15498 3100 7371 77
15499 3100 3573 84
15500 3100 460 75
15501 3100 2508 45
15502 3100 4181 83
15503 3101 5116 70
15504 3101 5500 16
15505 3101 110 91
15506 3101 2306 80
15507 3101 7002 26
15508 3101 813 79
15509 3102 1609 57
15510 3102 7019 16
15511 3102 8670 93
15512 3103 4292 82
15513 3104 1280 15
15514 3104 2738 88
15515 3104 1441 47
15516 3104 9319 51
15517 3105 3224 1
15518 3105 6993 67
15519 3105 6031 38
15520 3105 4351 10
15521 3106 1258 75
15522 3106 7964 76
15523 3106 222 24
15524 3106 1371 38
15525 3106 5663 76
15526 3106 6738 27
15527 3106 3786 13
15528 3106 2739 83
15529 3107 7362 79
15530 3107 6219 60
15531 3107 5121 32
15532 3108 167 84
15533 3108 7210 14
15534 3108 9095 55
15535 3108 3100 77
15536 3108 565 30
15537 3109 4372 2
15538 3109 750 37
15539 3109 6384 32
15540 3109 586 29
15541 3109 3934 46
15542 3109 2354 2
15543 3110 7290 72
15544 3110 3181 43
15545 3110 4022 52
15546 3110 2414 20
15547 3110 8678 37
15548 3110 5097 11
15549 3110 9541 22
15550 3110 7708 71
15551 3111 7129 55
15552 3111 4739 11
15553 3111 9984 93
15554 3112 3486 44
15555 3112 4090 10
15556 3112 9879 73
15557 3113 1682 32
15558 3113 90 38
15559 3113 2659 73
15560 3113 6415 84
15561 3113 3505 89
15562 3113 7411 3
15563 3113 8431 30
15564 3114 7663 18
15565 3115 1136 98
15566 3115 2777 50
15567 3115 5746 44
15568 3115 8726 61
15569 3115 3585 54
15570 3116 4211 78
15571 3116 3551 52
15572 3116 5660 38
15573 3116 9161 18
15574 3117 8027 4
15575 3117 5868 49
15576 3117 483 28
15577 3117 6195 34
15578 3118 4474 63
15579 3118 2530 83
15580 3118 9943 62
15581 3118 9918 90
15582 3118 1491 48
15583 3118 1889 95
15584 3119 1869 46
15585 3119 3647 46
15586 3119 1298 3
15587 3119 9530 36
15588 3119 4352 54
15589 3119 2644 17
15590 3119 2801 61
15591 3120 6476 99
15592 3120 124 41
15593 3120 5257 86
15594 3120 3412 19
15595 3120 9446 66
15596 3120 8975 57
15597 3120 3393 15
15598 3121 6588 13
15599 3121 9169 76
15600 3121 2967 85
15601 3121 6498 88
15602 3121 7990 89
15603 3122 9853 49
15604 3122 9500 44
15605 3122 5257 92
15606 3123 6981 17
15607 3123 2426 96
15608 3123 9126 9
15609 3124 3128 91
15610 3124 562 52
15611 3124 8302 13
15612 3125 8766 48
15613 3125 3128 34
15614 3126 8555 94
15615 3126 5952 74
15616 3126 3286 79
15617 3127 4590 23
15618 3127 1827 27
15619 3127 625 19
15620 3127 2599 63
15621 3128 528 56
15622 3128 3622 92
15623 3128 9293 77
15624 3128 7066 81
15625 3128 9523 79
15626 3129 9815 20
15627 3129 4648 41
15628 3129 2970 16
15629 3129 9081 58
15630 3129 2908 14
15631 3129 7702 71
15632 3129 4330 72
15633 3129 2523 61
15634 3130 2718 48
15635 3130 8573 9
15636 3130 9710 60
15637 3130 4428 23
15638 3131 7379 52
15639 3131 7012 96
15640 3131 4636 78
15641 3131 9767 6
15642 3131 8717 33
15643 3131 4248 65
15644 3132 5471 29
15645 3132 8511 43
15646 3132 4541 65
15647 3132 1668 78
15648 3132 2280 94
15649 3133 8954 33
15650 3133 8996 61
15651 3133 2426 2
15652 3133 352 9
15653 3134 7578 60
15654 3134 4884 97
15655 3134 9705 71
15656 3134 4925 10
15657 3135 9656 38
15658 3135 9457 95
15659 3135 1982 8
15660 3135 1631 91
15661 3135 2354 51
15662 3135 495 9
15663 3135 63 71
15664 3135 2626 68
15665 3135 2943 37
15666 3135 3776 31
15667 3135 2603 22
15668 3136 7130 43
15669 3136 8893 46
15670 3137 6833 57
15671 3137 962 4
15672 3137 492 57
15673 3137 8815 23
15674 3137 587 25
15675 3137 8209 42
15676 3138 2431 40
15677 3138 9061 55
15678 3138 2847 39
15679 3138 1461 54
15680 3138 8810 89
15681 3138 8518 59
15682 3138 65 3
15683 3138 6983 75
15684 3139 6262 37
15685 3139 6651 87
15686 3140 4375 94
15687 3140 6368 54
15688 3140 3500 43
15689 3141 8723 49
15690 3141 31 77
15691 3141 1247 84
15692 3141 1962 6
15693 3141 5052 74
15694 3141 30 55
15695 3141 4248 33
15696 3141 1924 43
15697 3142 3464 20
15698 3142 5830 34
15699 3142 1439 100
15700 3142 9495 73
15701 3142 399 14
15702 3143 6685 9
15703 3143 6899 94
15704 3143 2713 64
15705 3144 2130 28
15706 3144 2551 62
15707 3144 1013 19
15708 3144 8049 47
15709 3144 9349 11
15710 3145 6954 35
15711 3146 8836 2
15712 3146 6189 56
15713 3146 2564 4
15714 3146 8142 56
15715 3146 445 47
15716 3146 7713 54
15717 3147 3183 98
15718 3147 9477 32
15719 3147 2990 46
15720 3147 5241 95
15721 3147 7974 37
15722 3147 1903 15
15723 3147 5582 78
15724 3147 5430 66
15725 3147 1572 62
15726 3147 9892 100
15727 3147 7310 19
15728 3148 7659 94
15729 3148 5025 21
15730 3148 8072 99
15731 3148 7833 28
15732 3148 8999 29
15733 3148 7505 41
15734 3148 6772 19
15735 3149 5431 44
15736 3149 3061 79
15737 3149 5133 72
15738 3149 7792 77
15739 3150 9033 6
15740 3150 9642 44
15741 3151 6515 87
15742 3151 6109 83
15743 3151 5933 10
15744 3151 8912 71
15745 3151 4538 57
15746 3152 4578 52
15747 3152 5935 16
15748 3153 2767 36
15749 3153 5168 14
15750 3153 8793 94
15751 3153 9971 87
15752 3153 9383 88
15753 3153 7146 33
15754 3154 1564 95
15755 3154 6304 37
15756 3154 7074 37
15757 3155 9701 95
15758 3155 2176 35
15759 3155 3514 64
15760 3156 3494 68
15761 3156 7774 41
15762 3156 1503 74
15763 3156 712 67
15764 3156 5331 49
15765 3156 6685 42
15766 3156 870 91
15767 3157 4716 55
15768 3157 3131 13
15769 3157 6174 47
15770 3157 6235 50
15771 3157 3442 89
15772 3158 3914 29
15773 3158 740 34
15774 3158 4191 63
15775 3158 1570 5
15776 3158 5716 95
15777 3158 9479 63
15778 3158 9671 50
15779 3158 961 6
15780 3159 9597 98
15781 3159 8054 22
15782 3159 9290 62
15783 3160 7370 74
15784 3160 1937 11
15785 3160 3420 25
15786 3160 5091 72
15787 3161 5665 95
15788 3161 7305 89
15789 3161 9390 96
15790 3161 4583 98
15791 3162 3314 29
15792 3162 5629 2
15793 3162 5515 63
15794 3162 3621 33
15795 3163 4525 79
15796 3163 2822 95
15797 3163 1654 45
15798 3163 7031 45
15799 3163 6333 10
15800 3163 4864 51
15801 3164 4140 97
15802 3164 9216 53
15803 3164 8050 98
15804 3164 9493 78
15805 3164 3617 90
15806 3164 9625 59
15807 3165 2412 11
15808 3165 7932 36
15809 3165 9010 60
15810 3165 9079 61
15811 3165 1778 75
15812 3165 8743 60
15813 3165 9012 24
15814 3165 6712 33
15815 3165 84 10
15816 3165 4110 25
15817 3166 8803 3
15818 3166 443 91
15819 3166 2975 77
15820 3166 8564 61
15821 3166 1054 43
15822 3166 6469 38
15823 3167 3088 9
15824 3167 2734 97
15825 3167 5654 68
15826 3167 1640 84
15827 3167 6405 42
15828 3168 8460 77
15829 3168 9480 58
15830 3168 4234 90
15831 3168 6311 80
15832 3168 8220 99
15833 3168 7684 16
15834 3168 8653 95
15835 3168 2981 20
15836 3168 7456 75
15837 3169 2472 80
15838 3169 2372 95
15839 3169 6131 81
15840 3169 5679 27
15841 3169 6086 17
15842 3169 5727 52
15843 3169 8328 73
15844 3169 9701 75
15845 3169 4126 17
15846 3170 415 94
15847 3170 1744 14
15848 3170 8990 5
15849 3170 8206 9
15850 3170 3249 9
15851 3171 1837 93
15852 3171 8103 83
15853 3171 274 88
15854 3171 2775 19
15855 3171 9068 64
15856 3172 6656 34
15857 3172 9815 93
15858 3172 513 100
15859 3172 8360 41
15860 3173 8455 70
15861 3173 6997 65
15862 3173 8041 89
15863 3173 7483 92
15864 3174 6908 100
15865 3174 217 73
15866 3174 1523 41
15867 3174 9760 45
15868 3174 3210 58
15869 3174 3081 74
15870 3175 4031 93
15871 3175 3355 37
15872 3175 1616 62
15873 3175 1674 31
15874 3175 8821 10
15875 3175 519 49
15876 3176 7236 28
15877 3176 5458 27
15878 3176 3312 15
15879 3176 6214 49
15880 3176 4114 15
15881 3176 7361 98
15882 3177 1918 50
15883 3177 4033 78
15884 3177 8088 21
15885 3177 1155 53
15886 3177 7201 82
15887 3177 8724 17
15888 3177 8583 26
15889 3177 7134 77
15890 3177 685 10
15891 3178 4500 73
15892 3178 5383 71
15893 3178 750 87
15894 3178 2631 53
15895 3178 5662 18
15896 3179 40 58
15897 3179 5748 54
15898 3179 8463 2
15899 3179 9413 41
15900 3179 8113 80
15901 3179 2842 13
15902 3180 3412 95
15903 3180 1053 58
15904 3180 1183 95
15905 3180 8531 14
15906 3180 286 38
15907 3180 269 39
15908 3181 8883 89
15909 3181 8268 42
15910 3181 2563 14
15911 3181 3118 90
15912 3181 2961 84
15913 3181 585 7
15914 3181 9658 9
15915 3181 6297 70
15916 3181 3371 19
15917 3182 3520 81
15918 3182 483 14
15919 3182 2672 55
15920 3182 3530 57
15921 3182 5346 10
15922 3183 2157 13
15923 3183 3218 38
15924 3183 5269 87
15925 3183 9769 92
15926 3183 6700 51
15927 3183 3872 78
15928 3183 6032 37
15929 3183 9556 64
15930 3183 3469 100
15931 3184 6765 45
15932 3184 8861 24
15933 3184 4378 77
15934 3184 8748 44
15935 3184 3198 99
15936 3184 9875 81
15937 3185 6044 29
15938 3185 7034 26
15939 3186 6964 22
15940 3186 8786 89
15941 3186 3804 51
15942 3186 6563 73
15943 3187 2897 43
15944 3187 8072 70
15945 3187 5981 78
15946 3187 4695 90
15947 3187 2613 40
15948 3187 2860 5
15949 3187 4188 47
15950 3187 2581 21
15951 3188 646 100
15952 3188 1550 95
15953 3188 3942 58
15954 3189 3196 15
15955 3189 7645 57
15956 3189 5672 60
15957 3189 8129 25
15958 3189 688 82
15959 3189 1762 69
15960 3190 9468 97
15961 3190 2375 21
15962 3190 7595 91
15963 3190 3924 16
15964 3190 4004 54
15965 3190 2501 14
15966 3190 1374 88
15967 3191 7485 85
15968 3191 5277 78
15969 3191 995 36
15970 3191 7314 53
15971 3192 563 61
15972 3192 8921 74
15973 3192 5278 15
15974 3192 5311 36
15975 3192 5665 32
15976 3192 4636 91
15977 3192 5561 70
15978 3193 6841 31
15979 3193 4350 5
15980 3193 2939 55
15981 3194 5803 17
15982 3194 7567 49
15983 3194 4438 46
15984 3195 3327 64
15985 3195 3014 68
15986 3195 3438 87
15987 3195 9100 69
15988 3196 3764 12
15989 3196 8881 37
15990 3196 9828 60
15991 3196 3128 40
15992 3196 4371 6
15993 3196 5817 50
15994 3197 1751 52
15995 3197 4914 5
15996 3197 3529 53
15997 3197 2285 81
15998 3197 3473 71
15999 3198 7162 100
16000 3198 377 55
16001 3199 539 6
16002 3199 6512 72
16003 3199 492 81
16004 3200 7928 26
16005 3200 4115 26
16006 3200 2622 8
16007 3201 3427 1
16008 3201 4964 47
16009 3201 3034 91
16010 3201 9538 22
16011 3201 2158 25
16012 3201 7684 93
16013 3202 1919 89
16014 3202 5020 8
16015 3202 8475 89
16016 3202 8915 82
16017 3203 2739 82
16018 3204 9151 56
16019 3204 2969 62
16020 3204 4160 63
16021 3205 6576 33
16022 3205 6390 79
16023 3205 5107 39
16024 3205 2923 78
16025 3205 9810 37
16026 3205 2342 53
16027 3206 3018 92
16028 3206 7198 35
16029 3206 2379 62
16030 3206 1136 65
16031 3206 9452 76
16032 3207 8944 30
16033 3207 9779 39
16034 3207 4381 75
16035 3208 8132 15
16036 3208 4739 99
16037 3208 1101 17
16038 3208 3190 88
16039 3208 8876 28
16040 3208 6132 34
16041 3209 8367 47
16042 3209 3722 85
16043 3209 5732 99
16044 3209 5013 15
16045 3209 2705 71
16046 3210 340 13
16047 3210 9537 5
16048 3210 3121 57
16049 3211 3305 69
16050 3211 9377 59
16051 3212 4604 66
16052 3212 21 62
16053 3212 5573 13
16054 3212 5922 69
16055 3212 5166 56
16056 3213 878 73
16057 3213 9000 11
16058 3213 4866 46
16059 3213 9610 84
16060 3213 3271 76
16061 3213 855 47
16062 3214 5864 24
16063 3214 5970 93
16064 3214 9351 14
16065 3214 1691 2
16066 3215 8553 39
16067 3215 9266 11
16068 3215 1130 2
16069 3215 4086 98
16070 3215 821 51
16071 3215 6498 76
16072 3216 8319 23
16073 3216 95 68
16074 3216 3902 48
16075 3216 4898 87
16076 3217 6093 57
16077 3217 5443 64
16078 3217 6248 68
16079 3217 9566 12
16080 3217 5718 35
16081 3217 3799 35
16082 3217 9059 5
16083 3218 2342 88
16084 3218 6878 26
16085 3219 6353 50
16086 3219 2471 97
16087 3219 4966 30
16088 3220 5093 66
16089 3220 242 15
16090 3220 8167 2
16091 3220 5792 47
16092 3220 1299 22
16093 3220 6248 8
16094 3220 4262 19
16095 3220 3946 36
16096 3221 2850 79
16097 3221 5424 75
16098 3221 9578 34
16099 3221 2896 1
16100 3221 4586 69
16101 3221 6062 47
16102 3222 5446 55
16103 3222 5274 79
16104 3222 3768 91
16105 3222 1935 63
16106 3222 1602 15
16107 3222 3895 21
16108 3222 3079 94
16109 3222 3844 25
16110 3223 8749 64
16111 3223 1893 9
16112 3223 8772 65
16113 3223 8527 14
16114 3223 1459 2
16115 3224 8330 62
16116 3224 6394 88
16117 3224 4482 94
16118 3224 7824 44
16119 3224 9618 47
16120 3224 1319 3
16121 3225 341 74
16122 3225 3470 83
16123 3225 4522 47
16124 3225 2646 22
16125 3225 3167 53
16126 3226 7058 85
16127 3226 4802 51
16128 3226 4245 47
16129 3226 1601 6
16130 3226 3507 77
16131 3226 5170 7
16132 3226 2304 13
16133 3226 481 38
16134 3226 5885 6
16135 3226 7271 97
16136 3226 9477 18
16137 3227 7879 23
16138 3227 3495 27
16139 3227 3888 65
16140 3227 9151 66
16141 3228 2522 100
16142 3228 5910 72
16143 3228 6816 27
16144 3228 9825 70
16145 3228 5363 93
16146 3228 3706 71
16147 3228 8607 67
16148 3228 3969 93
16149 3228 6010 42
16150 3229 7137 18
16151 3229 4431 81
16152 3229 4071 25
16153 3229 6407 42
16154 3230 2786 61
16155 3230 6820 10
16156 3230 5004 95
16157 3230 2566 17
16158 3230 1094 33
16159 3231 8579 15
16160 3231 7563 93
16161 3231 4446 45
16162 3232 7859 79
16163 3232 8347 41
16164 3232 3529 17
16165 3232 4351 69
16166 3232 6674 88
16167 3232 9721 50
16168 3233 1339 60
16169 3233 4261 7
16170 3233 706 38
16171 3234 4968 12
16172 3234 7193 13
16173 3234 2880 55
16174 3235 2092 59
16175 3235 4339 90
16176 3235 6683 40
16177 3235 9330 52
16178 3235 6159 63
16179 3236 919 20
16180 3236 181 7
16181 3236 9907 29
16182 3236 1106 2
16183 3236 7703 36
16184 3237 6108 35
16185 3237 9789 17
16186 3237 2761 33
16187 3237 1665 40
16188 3238 369 98
16189 3238 9933 97
16190 3238 279 6
16191 3238 5508 77
16192 3238 390 96
16193 3238 4638 94
16194 3239 1922 31
16195 3239 3725 34
16196 3239 6755 67
16197 3240 7299 4
16198 3240 4929 66
16199 3240 6703 57
16200 3241 2504 56
16201 3241 7465 36
16202 3241 5295 78
16203 3241 5458 43
16204 3241 3676 41
16205 3241 2752 70
16206 3242 8898 66
16207 3242 1046 84
16208 3242 8324 13
16209 3243 9218 40
16210 3243 518 89
16211 3243 7679 55
16212 3243 8545 62
16213 3243 5414 69
16214 3244 3248 40
16215 3244 4395 27
16216 3245 8666 54
16217 3245 1870 76
16218 3245 7483 31
16219 3245 6661 66
16220 3245 1705 35
16221 3246 1457 72
16222 3246 3938 40
16223 3246 9664 62
16224 3246 1221 74
16225 3246 66 74
16226 3246 5005 45
16227 3246 3958 70
16228 3246 2654 9
16229 3246 6930 84
16230 3247 8636 11
16231 3247 514 8
16232 3247 7063 62
16233 3247 8531 47
16234 3247 940 17
16235 3248 9581 2
16236 3248 2624 51
16237 3248 3626 30
16238 3248 8302 56
16239 3249 5015 18
16240 3249 43 87
16241 3249 3792 70
16242 3249 3089 7
16243 3249 8444 68
16244 3249 578 53
16245 3250 1604 94
16246 3250 4385 61
16247 3250 9472 27
16248 3250 6535 31
16249 3250 8877 35
16250 3251 8065 52
16251 3251 4880 58
16252 3251 8462 63
16253 3252 3016 67
16254 3252 2358 83
16255 3252 6838 25
16256 3252 7794 3
16257 3252 81 57
16258 3252 2481 67
16259 3252 9512 19
16260 3253 8304 56
16261 3253 4596 47
16262 3253 1181 90
16263 3253 709 67
16264 3253 9976 58
16265 3254 1618 39
16266 3254 529 34
16267 3254 9862 9
16268 3254 3035 80
16269 3254 9237 21
16270 3254 6480 75
16271 3255 9454 91
16272 3255 1877 82
16273 3255 1970 22
16274 3256 2188 93
16275 3256 2286 79
16276 3256 7571 59
16277 3256 1856 54
16278 3256 5697 72
16279 3256 4010 13
16280 3257 9214 15
16281 3257 3035 77
16282 3257 7294 81
16283 3258 1945 70
16284 3258 3612 74
16285 3258 2514 11
16286 3258 1803 9
16287 3259 1096 33
16288 3259 5523 82
16289 3259 2813 78
16290 3259 5684 3
16291 3259 4777 22
16292 3259 8757 63
16293 3259 4485 34
16294 3259 4105 24
16295 3259 3357 46
16296 3260 7457 95
16297 3260 1822 22
16298 3260 3563 96
16299 3261 4434 66
16300 3261 8261 17
16301 3262 7056 85
16302 3262 4630 76
16303 3262 3271 64
16304 3262 6572 65
16305 3263 645 97
16306 3263 9407 24
16307 3263 1835 81
16308 3263 4392 56
16309 3263 9334 28
16310 3264 2291 5
16311 3264 3105 90
16312 3264 9424 92
16313 3264 5121 96
16314 3264 6232 87
16315 3265 1449 6
16316 3265 1709 99
16317 3265 1090 29
16318 3266 2457 45
16319 3266 4112 12
16320 3266 8246 71
16321 3266 2004 46
16322 3266 3948 81
16323 3266 9826 16
16324 3266 7343 63
16325 3266 3728 87
16326 3267 8941 42
16327 3267 6727 5
16328 3267 258 39
16329 3267 3782 87
16330 3268 30 75
16331 3268 3114 66
16332 3268 7532 27
16333 3268 3368 94
16334 3268 2907 4
16335 3268 7704 57
16336 3268 1237 96
16337 3268 1800 88
16338 3269 8253 72
16339 3269 4515 59
16340 3270 6208 86
16341 3270 714 84
16342 3270 1113 34
16343 3270 3360 90
16344 3271 8043 14
16345 3271 6354 9
16346 3271 122 88
16347 3271 2900 65
16348 3271 3769 30
16349 3271 9744 74
16350 3272 1491 55
16351 3272 9990 48
16352 3272 3871 64
16353 3273 2912 86
16354 3273 3736 33
16355 3274 7343 29
16356 3274 3054 74
16357 3275 2064 92
16358 3275 5676 72
16359 3275 6432 73
16360 3275 784 25
16361 3275 1999 64
16362 3276 3922 40
16363 3276 2604 89
16364 3276 7218 47
16365 3276 9191 49
16366 3276 5027 49
16367 3276 814 17
16368 3277 5851 29
16369 3277 6483 40
16370 3277 6315 53
16371 3277 1769 40
16372 3278 4699 45
16373 3278 2624 16
16374 3278 5332 60
16375 3279 2458 25
16376 3279 3542 13
16377 3279 4915 51
16378 3279 5459 40
16379 3280 8242 31
16380 3280 3655 82
16381 3280 7846 97
16382 3280 9893 16
16383 3280 4435 74
16384 3281 3726 52
16385 3281 1812 1
16386 3281 8671 22
16387 3281 8711 19
16388 3281 5552 81
16389 3281 7979 89
16390 3281 7746 55
16391 3281 7466 90
16392 3282 8398 61
16393 3282 3015 24
16394 3282 7817 57
16395 3283 8832 52
16396 3283 1107 52
16397 3283 1855 84
16398 3284 9666 14
16399 3284 5376 10
16400 3284 9598 37
16401 3284 7066 56
16402 3284 6454 8
16403 3284 8754 53
16404 3284 9814 3
16405 3285 1628 14
16406 3285 200 91
16407 3285 4013 7
16408 3286 477 22
16409 3286 9362 82
16410 3286 2 32
16411 3286 4977 46
16412 3286 5114 75
16413 3286 1189 21
16414 3286 6474 68
16415 3287 2057 38
16416 3287 8556 48
16417 3287 2436 93
16418 3288 5019 27
16419 3288 9880 18
16420 3288 6168 60
16421 3288 1904 26
16422 3288 3552 99
16423 3288 34 31
16424 3289 1499 82
16425 3289 6305 94
16426 3290 4678 75
16427 3290 1229 94
16428 3290 8199 72
16429 3290 6765 57
16430 3290 3414 91
16431 3290 966 56
16432 3291 7048 14
16433 3291 1998 10
16434 3291 4423 50
16435 3291 4578 15
16436 3291 2175 40
16437 3292 7695 5
16438 3292 1470 20
16439 3293 4995 82
16440 3293 5751 50
16441 3293 4367 54
16442 3293 8003 25
16443 3293 4573 86
16444 3293 9180 80
16445 3293 262 90
16446 3293 1701 59
16447 3294 70 85
16448 3294 354 93
16449 3294 8 51
16450 3295 9330 64
16451 3295 5849 9
16452 3295 9367 53
16453 3295 3303 80
16454 3295 9826 59
16455 3296 9982 89
16456 3296 4435 75
16457 3296 8122 61
16458 3297 3550 75
16459 3297 529 4
16460 3297 139 75
16461 3297 1930 56
16462 3297 5016 38
16463 3297 1404 51
16464 3297 3253 17
16465 3297 1205 86
16466 3298 7229 33
16467 3298 4696 11
16468 3298 2854 93
16469 3298 3785 14
16470 3299 6240 52
16471 3299 2250 58
16472 3299 4506 90
16473 3299 969 77
16474 3299 6314 20
16475 3299 8801 1
16476 3299 3560 26
16477 3300 7164 42
16478 3300 4922 63
16479 3300 5487 20
16480 3300 4164 63
16481 3301 6881 10
16482 3301 6265 25
16483 3301 7740 83
16484 3301 7433 98
16485 3302 5662 66
16486 3302 8722 36
16487 3302 4302 22
16488 3303 9228 44
16489 3303 733 80
16490 3303 6187 46
16491 3304 4301 38
16492 3304 6167 40
16493 3304 7801 70
16494 3304 3145 3
16495 3304 8564 24
16496 3304 256 81
16497 3304 1252 9
16498 3304 4001 64
16499 3305 2471 42
16500 3305 5653 61
16501 3305 887 19
16502 3305 5434 79
16503 3305 9506 66
16504 3305 5500 6
16505 3306 719 80
16506 3306 5945 13
16507 3306 6141 27
16508 3307 3242 92
16509 3307 9235 93
16510 3307 5677 17
16511 3308 8426 87
16512 3308 2053 48
16513 3308 9910 47
16514 3308 3880 58
16515 3308 3847 27
16516 3308 7800 78
16517 3308 7453 75
16518 3308 7070 26
16519 3308 8210 99
16520 3309 4655 29
16521 3309 9472 90
16522 3309 1657 54
16523 3309 7147 18
16524 3309 3193 84
16525 3309 6767 31
16526 3309 9133 72
16527 3309 6104 13
16528 3309 1764 42
16529 3310 5019 30
16530 3310 7803 67
16531 3310 7188 27
16532 3310 5724 20
16533 3310 4513 6
16534 3310 4564 61
16535 3311 7540 72
16536 3311 178 79
16537 3311 7318 22
16538 3312 4968 64
16539 3312 7386 54
16540 3312 6097 30
16541 3312 8688 89
16542 3313 2167 48
16543 3313 3640 32
16544 3313 622 83
16545 3313 9526 28
16546 3313 3612 2
16547 3313 178 15
16548 3314 3029 69
16549 3314 6510 74
16550 3314 2105 79
16551 3314 2586 70
16552 3314 3121 19
16553 3314 6175 52
16554 3314 3190 90
16555 3315 7857 99
16556 3315 6401 51
16557 3315 7818 17
16558 3315 5922 84
16559 3315 4240 15
16560 3315 4466 81
16561 3315 4604 56
16562 3315 3642 73
16563 3316 4250 26
16564 3316 8818 55
16565 3316 4946 87
16566 3316 1434 43
16567 3316 8450 74
16568 3316 3005 5
16569 3317 500 54
16570 3317 4547 79
16571 3317 4527 86
16572 3317 8696 88
16573 3318 3782 98
16574 3318 5665 93
16575 3318 644 40
16576 3318 4197 58
16577 3318 314 94
16578 3318 8374 85
16579 3318 7853 10
16580 3318 970 71
16581 3318 8496 69
16582 3319 4569 50
16583 3319 7620 16
16584 3319 6416 30
16585 3319 1029 18
16586 3320 1252 33
16587 3320 4782 80
16588 3320 805 69
16589 3320 3447 19
16590 3320 3044 83
16591 3321 6107 43
16592 3321 6909 84
16593 3321 8852 52
16594 3321 6248 74
16595 3322 8066 23
16596 3322 2704 16
16597 3322 4590 86
16598 3322 5116 60
16599 3322 3588 35
16600 3322 990 38
16601 3322 1216 2
16602 3323 9647 96
16603 3323 6535 89
16604 3324 821 99
16605 3324 9327 43
16606 3324 9664 33
16607 3324 7616 35
16608 3324 2817 12
16609 3324 5014 59
16610 3324 6129 62
16611 3324 3087 64
16612 3325 7045 17
16613 3325 2271 14
16614 3325 9998 53
16615 3326 7943 78
16616 3326 58 67
16617 3326 6685 14
16618 3326 8454 1
16619 3326 1254 96
16620 3326 5094 43
16621 3326 3540 100
16622 3327 8649 15
16623 3327 857 30
16624 3327 5694 72
16625 3327 1195 87
16626 3327 1393 56
16627 3327 1211 39
16628 3328 1318 37
16629 3328 1357 10
16630 3328 9611 8
16631 3329 6647 83
16632 3329 8743 64
16633 3329 8612 23
16634 3329 5604 61
16635 3329 7493 42
16636 3330 6586 99
16637 3330 744 4
16638 3330 6369 67
16639 3331 7695 19
16640 3331 9176 55
16641 3331 4806 17
16642 3331 8281 82
16643 3332 3551 65
16644 3332 2273 14
16645 3332 3799 45
16646 3332 6604 9
16647 3332 4890 84
16648 3332 8853 83
16649 3332 8540 89
16650 3332 2640 22
16651 3332 4763 93
16652 3333 4593 82
16653 3333 640 53
16654 3333 7751 64
16655 3333 5946 64
16656 3333 2401 4
16657 3333 6292 75
16658 3334 8179 32
16659 3334 7740 73
16660 3334 8325 81
16661 3334 4433 78
16662 3335 646 46
16663 3335 1692 68
16664 3335 3025 86
16665 3335 451 40
16666 3335 6362 61
16667 3335 4339 70
16668 3335 8344 92
16669 3335 2739 54
16670 3336 7290 15
16671 3336 6198 22
16672 3336 5792 35
16673 3336 8109 77
16674 3336 6714 30
16675 3337 236 44
16676 3337 4291 22
16677 3337 6957 6
16678 3337 1350 5
16679 3338 2837 65
16680 3338 1695 77
16681 3339 7687 27
16682 3339 9217 52
16683 3339 6572 99
16684 3339 8865 59
16685 3339 3692 92
16686 3339 2626 25
16687 3340 3405 89
16688 3340 4923 35
16689 3340 4470 100
16690 3341 2539 52
16691 3341 9546 14
16692 3341 2988 20
16693 3341 9851 22
16694 3342 2560 40
16695 3342 5066 10
16696 3342 3506 71
16697 3342 8257 63
16698 3342 3211 28
16699 3343 4865 44
16700 3343 5226 39
16701 3343 3439 95
16702 3344 759 63
16703 3344 2340 5
16704 3344 4467 51
16705 3344 9984 15
16706 3344 5667 54
16707 3345 3449 76
16708 3345 5857 71
16709 3345 496 31
16710 3345 5202 12
16711 3345 8351 63
16712 3346 3408 39
16713 3346 1145 22
16714 3346 5950 75
16715 3346 5847 74
16716 3346 3108 16
16717 3347 8669 26
16718 3347 4337 55
16719 3347 3277 51
16720 3347 851 18
16721 3347 5033 58
16722 3347 8982 56
16723 3348 7656 63
16724 3348 6340 64
16725 3348 1921 81
16726 3348 6778 13
16727 3348 3057 94
16728 3348 8654 25
16729 3349 1110 92
16730 3349 8804 88
16731 3349 6242 18
16732 3349 5909 20
16733 3349 699 46
16734 3350 5061 9
16735 3350 4414 45
16736 3350 6586 61
16737 3351 3252 41
16738 3351 8102 41
16739 3351 8934 43
16740 3351 6324 81
16741 3351 2695 37
16742 3352 7153 50
16743 3352 3203 42
16744 3352 7913 64
16745 3352 6156 43
16746 3352 9442 60
16747 3352 2301 62
16748 3352 8443 6
16749 3352 3090 7
16750 3352 2878 37
16751 3352 1729 67
16752 3353 1829 45
16753 3353 414 23
16754 3353 2182 40
16755 3353 2326 49
16756 3353 8283 94
16757 3354 1202 2
16758 3355 6860 79
16759 3355 4792 52
16760 3355 312 41
16761 3355 668 46
16762 3355 2773 10
16763 3355 3333 87
16764 3355 1654 53
16765 3355 2915 82
16766 3355 8964 52
16767 3356 1458 44
16768 3356 7591 83
16769 3356 5650 4
16770 3356 5456 61
16771 3357 1994 3
16772 3357 2311 34
16773 3357 5745 72
16774 3358 3115 76
16775 3358 2921 9
16776 3358 9268 37
16777 3358 3174 74
16778 3359 8362 80
16779 3359 4924 30
16780 3360 9796 82
16781 3360 9448 21
16782 3360 1210 40
16783 3360 8177 33
16784 3360 9766 70
16785 3361 7104 81
16786 3361 2670 69
16787 3361 2962 99
16788 3361 6546 35
16789 3362 6782 68
16790 3362 690 1
16791 3362 9497 1
16792 3362 5884 2
16793 3362 6022 1
16794 3362 9047 61
16795 3362 6109 86
16796 3363 1517 74
16797 3363 9435 56
16798 3363 7167 19
16799 3363 1397 40
16800 3363 4712 42
16801 3363 5525 7
16802 3364 2744 2
16803 3364 5012 79
16804 3364 7851 33
16805 3364 3942 93
16806 3364 578 50
16807 3364 3547 34
16808 3364 8954 74
16809 3364 1026 40
16810 3364 3438 47
16811 3364 462 31
16812 3364 7269 34
16813 3365 8027 35
16814 3365 79 8
16815 3365 7132 15
16816 3365 7375 38
16817 3365 4932 70
16818 3365 7797 62
16819 3366 1009 77
16820 3366 5186 69
16821 3366 8053 61
16822 3366 3655 6
16823 3366 6511 52
16824 3366 5610 56
16825 3366 2308 45
16826 3367 213 43
16827 3367 6898 100
16828 3367 1988 86
16829 3367 1865 22
16830 3368 6095 71
16831 3369 4961 87
16832 3369 5922 42
16833 3369 741 23
16834 3369 2849 60
16835 3369 3241 21
16836 3370 7338 61
16837 3370 3754 72
16838 3370 3547 29
16839 3370 9576 20
16840 3371 6595 99
16841 3371 8780 43
16842 3371 9592 61
16843 3371 76 97
16844 3371 9588 10
16845 3372 2261 100
16846 3372 9996 45
16847 3372 2948 26
16848 3372 9683 10
16849 3372 1936 41
16850 3372 8534 1
16851 3372 8772 79
16852 3372 4259 34
16853 3372 6097 85
16854 3373 8008 88
16855 3373 6264 70
16856 3373 1223 9
16857 3373 205 57
16858 3373 3048 29
16859 3373 9494 75
16860 3373 768 26
16861 3374 6906 12
16862 3374 5988 17
16863 3374 4023 16
16864 3374 622 1
16865 3374 1986 75
16866 3374 8289 8
16867 3375 8041 26
16868 3375 0 3
16869 3375 6095 33
16870 3376 9712 91
16871 3376 5894 92
16872 3376 7394 78
16873 3376 2776 42
16874 3376 2052 19
16875 3376 2113 82
16876 3377 7227 1
16877 3377 4475 72
16878 3377 9639 52
16879 3377 6258 11
16880 3377 4978 100
16881 3378 9464 82
16882 3378 243 41
16883 3378 2577 20
16884 3378 4485 41
16885 3379 2260 58
16886 3379 8000 68
16887 3379 1549 40
16888 3380 4853 52
16889 3380 8124 45
16890 3380 508 10
16891 3381 3584 15
16892 3382 655 85
16893 3382 4303 98
16894 3382 6815 1
16895 3382 1500 45
16896 3382 1001 22
16897 3382 1158 51
16898 3382 9550 49
16899 3383 689 68
16900 3383 9267 80
16901 3383 7786 19
16902 3383 4397 50
16903 3383 9657 27
16904 3383 841 59
16905 3383 7048 26
16906 3384 8109 57
16907 3384 4055 5
16908 3384 8477 34
16909 3385 8725 35
16910 3385 7982 89
16911 3385 9990 5
16912 3385 7100 78
16913 3385 9628 22
16914 3385 1855 89
16915 3385 3111 50
16916 3386 53 50
16917 3386 9837 24
16918 3386 9736 8
16919 3386 5370 10
16920 3386 2081 25
16921 3387 7406 43
16922 3387 660 85
16923 3387 906 80
16924 3387 7653 5
16925 3388 8425 62
16926 3388 526 33
16927 3388 7510 47
16928 3388 3373 71
16929 3388 5072 43
16930 3388 8404 39
16931 3388 5533 42
16932 3389 642 33
16933 3389 3834 44
16934 3389 5986 85
16935 3389 9620 84
16936 3389 2896 35
16937 3389 2576 70
16938 3390 4065 88
16939 3390 6312 83
16940 3390 4596 66
16941 3390 1886 16
16942 3391 9774 72
16943 3391 1562 95
16944 3392 7012 41
16945 3392 5161 85
16946 3392 2701 18
16947 3393 4398 35
16948 3393 8481 94
16949 3394 6545 90
16950 3394 5938 21
16951 3394 745 21
16952 3394 7022 55
16953 3394 4186 59
16954 3394 862 15
16955 3395 4426 19
16956 3395 5162 56
16957 3395 4291 97
16958 3395 4663 4
16959 3395 7744 29
16960 3395 4158 54
16961 3395 4152 77
16962 3396 9880 85
16963 3396 5200 20
16964 3396 8085 85
16965 3396 7341 12
16966 3397 2408 58
16967 3397 140 31
16968 3397 7278 13
16969 3398 2525 92
16970 3398 3011 76
16971 3398 8724 18
16972 3399 454 24
16973 3399 849 87
16974 3399 1156 88
16975 3399 7677 90
16976 3400 6452 11
16977 3400 1549 44
16978 3400 9945 29
16979 3400 8933 70
16980 3400 78 31
16981 3400 6087 7
16982 3401 3410 66
16983 3401 4225 89
16984 3401 1162 40
16985 3401 9452 30
16986 3401 3460 12
16987 3401 4708 98
16988 3402 8008 68
16989 3402 3372 4
16990 3402 8580 9
16991 3403 3003 1
16992 3403 8683 44
16993 3403 4513 17
16994 3403 1860 91
16995 3403 5621 69
16996 3404 3258 14
16997 3404 1419 61
16998 3404 9709 33
16999 3404 7355 93
17000 3404 6804 85
17001 3404 4831 6
17002 3404 5886 19
17003 3404 7670 46
17004 3405 1477 12
17005 3405 3179 47
17006 3405 7854 41
17007 3405 1405 33
17008 3406 8393 92
17009 3406 3024 55
17010 3406 3987 12
17011 3406 5926 45
17012 3406 6117 16
17013 3406 4369 75
17014 3406 2130 3
17015 3406 23 19
17016 3407 8991 39
17017 3407 2426 85
17018 3408 2396 28
17019 3408 590 27
17020 3408 3300 25
17021 3408 4770 61
17022 3409 5683 100
17023 3409 6489 44
17024 3409 3805 5
17025 3410 6282 60
17026 3410 4158 7
17027 3410 3369 57
17028 3410 2949 8
17029 3410 5851 76
17030 3410 4389 54
17031 3410 2721 49
17032 3410 9711 9
17033 3411 5676 95
17034 3411 824 19
17035 3411 3127 82
17036 3411 3445 87
17037 3412 8995 19
17038 3412 8742 31
17039 3413 7173 60
17040 3413 7178 6
17041 3413 1550 35
17042 3413 7820 24
17043 3413 3458 27
17044 3413 8470 19
17045 3414 9695 69
17046 3414 5894 65
17047 3414 1474 82
17048 3415 4684 22
17049 3415 9107 62
17050 3415 2241 92
17051 3415 7834 32
17052 3415 3880 93
17053 3416 3902 33
17054 3416 9857 6
17055 3416 5312 5
17056 3416 3697 87
17057 3417 402 42
17058 3417 4713 67
17059 3417 6183 40
17060 3417 5008 31
17061 3418 32 7
17062 3418 1394 19
17063 3418 5683 24
17064 3418 1770 38
17065 3418 8870 9
17066 3418 9974 54
17067 3419 7395 69
17068 3419 209 63
17069 3419 8541 72
17070 3419 440 50
17071 3419 4413 17
17072 3419 2589 93
17073 3420 6612 88
17074 3420 3719 38
17075 3421 6888 77
17076 3421 3362 82
17077 3422 7423 10
17078 3422 4067 26
17079 3422 7574 54
17080 3422 7676 41
17081 3422 1892 22
17082 3422 9881 52
17083 3422 568 8
17084 3422 434 86
17085 3422 4610 43
17086 3422 4942 20
17087 3423 8177 90
17088 3423 5127 82
17089 3423 6002 71
17090 3423 3847 35
17091 3423 9602 28
17092 3424 7732 43
17093 3424 4244 62
17094 3424 3562 76
17095 3424 7082 77
17096 3424 5619 63
17097 3424 7098 60
17098 3424 2342 9
17099 3425 4016 49
17100 3425 1115 85
17101 3425 9896 12
17102 3426 498 65
17103 3426 8744 47
17104 3426 9982 18
17105 3426 9935 62
17106 3426 8837 21
17107 3426 3408 11
17108 3426 1952 92
17109 3427 3041 23
17110 3427 3561 51
17111 3427 9719 16
17112 3428 7658 100
17113 3428 742 78
17114 3428 3439 12
17115 3428 2260 27
17116 3428 872 23
17117 3428 9834 87
17118 3428 4703 23
17119 3429 158 90
17120 3429 7515 51
17121 3429 4674 51
17122 3429 1003 93
17123 3429 7344 73
17124 3431 9560 70
17125 3431 4097 34
17126 3431 1209 18
17127 3432 4149 26
17128 3432 6374 48
17129 3432 1229 41
17130 3432 8111 91
17131 3432 4868 36
17132 3433 8781 57
17133 3433 5595 84
17134 3434 7909 61
17135 3434 7159 14
17136 3434 814 83
17137 3434 2557 87
17138 3435 616 38
17139 3435 2285 80
17140 3435 9191 71
17141 3435 6731 79
17142 3435 1789 50
17143 3435 9170 12
17144 3436 1921 11
17145 3436 4004 63
17146 3436 8469 33
17147 3436 3862 62
17148 3437 7546 99
17149 3437 1697 34
17150 3437 8217 51
17151 3437 2836 52
17152 3438 2242 45
17153 3438 4829 85
17154 3438 8414 58
17155 3438 2394 13
17156 3439 4555 43
17157 3439 4970 74
17158 3439 1527 50
17159 3439 655 60
17160 3440 1263 99
17161 3440 9536 60
17162 3440 9979 31
17163 3440 8152 31
17164 3440 9466 52
17165 3440 6463 82
17166 3441 3148 87
17167 3441 1194 21
17168 3441 5596 77
17169 3441 231 97
17170 3441 7582 43
17171 3441 8136 84
17172 3441 8631 87
17173 3442 9607 68
17174 3442 4974 57
17175 3443 5869 13
17176 3443 9650 19
17177 3443 7936 29
17178 3443 9803 5
17179 3443 6913 62
17180 3443 7900 69
17181 3443 3969 71
17182 3444 4721 83
17183 3444 6090 78
17184 3444 5791 96
17185 3444 2531 5
17186 3444 3482 70
17187 3444 5650 4
17188 3444 5616 69
17189 3444 5369 2
17190 3445 3053 54
17191 3445 5757 54
17192 3445 3457 12
17193 3445 4595 71
17194 3445 9708 71
17195 3446 127 30
17196 3446 8227 55
17197 3446 9111 45
17198 3446 5347 14
17199 3446 1581 54
17200 3447 8762 82
17201 3447 1783 83
17202 3448 7120 3
17203 3448 1760 87
17204 3448 7281 66
17205 3449 862 39
17206 3449 8866 21
17207 3449 3824 39
17208 3449 6096 88
17209 3449 8840 17
17210 3449 6548 72
17211 3449 3727 77
17212 3449 7850 27
17213 3449 1657 50
17214 3450 6882 53
17215 3450 4449 29
17216 3450 8535 58
17217 3450 7988 91
17218 3450 6892 56
17219 3450 9762 73
17220 3450 1585 99
17221 3450 5376 22
17222 3451 609 87
17223 3451 4920 53
17224 3451 18 85
17225 3451 1083 96
17226 3451 3783 60
17227 3451 5741 94
17228 3451 9884 95
17229 3451 2380 29
17230 3452 2074 57
17231 3452 6439 65
17232 3452 367 40
17233 3453 7424 11
17234 3453 3603 78
17235 3453 9877 42
17236 3453 7955 18
17237 3454 3850 11
17238 3454 8837 59
17239 3455 7260 6
17240 3455 7772 25
17241 3455 8039 47
17242 3455 8353 83
17243 3455 6830 94
17244 3456 548 35
17245 3456 8809 83
17246 3456 4160 32
17247 3456 8263 45
17248 3456 8631 10
17249 3457 1895 60
17250 3457 7550 27
17251 3457 88 15
17252 3457 4499 66
17253 3457 2467 14
17254 3457 7607 89
17255 3457 8325 11
17256 3457 3063 61
17257 3457 3764 48
17258 3458 8822 86
17259 3458 6866 5
17260 3458 7649 85
17261 3458 2810 99
17262 3459 1994 39
17263 3459 7471 64
17264 3459 9352 96
17265 3459 8038 34
17266 3459 1262 74
17267 3460 1467 52
17268 3460 6379 60
17269 3460 3925 42
17270 3461 6623 18
17271 3461 5832 64
17272 3461 1214 39
17273 3461 4838 19
17274 3461 972 14
17275 3462 7149 87
17276 3462 5185 38
17277 3462 535 53
17278 3462 557 98
17279 3462 7141 21
17280 3463 9087 51
17281 3463 7648 32
17282 3463 7494 28
17283 3464 5660 29
17284 3464 8325 57
17285 3464 5384 8
17286 3465 2599 84
17287 3465 5661 48
17288 3465 735 90
17289 3465 9392 39
17290 3465 5188 81
17291 3465 9952 14
17292 3466 5048 49
17293 3466 2585 42
17294 3467 3289 3
17295 3467 1463 69
17296 3467 796 46
17297 3467 1733 53
17298 3468 8962 77
17299 3468 3434 99
17300 3468 274 23
17301 3468 4427 72
17302 3468 9524 19
17303 3469 3345 10
17304 3469 2764 77
17305 3469 7017 77
17306 3469 9148 30
17307 3469 3563 26
17308 3470 2824 42
17309 3470 7022 96
17310 3471 4919 37
17311 3471 3378 68
17312 3471 1707 70
17313 3471 618 74
17314 3471 5117 10
17315 3471 5108 39
17316 3471 8583 61
17317 3471 6946 14
17318 3471 5001 36
17319 3472 2390 78
17320 3472 2753 32
17321 3473 8935 87
17322 3473 1947 50
17323 3473 7350 15
17324 3473 5355 17
17325 3474 8797 86
17326 3474 9094 20
17327 3474 7287 46
17328 3474 9625 46
17329 3474 363 5
17330 3474 9981 15
17331 3474 2421 72
17332 3475 1186 15
17333 3476 1531 28
17334 3476 8444 71
17335 3476 3875 4
17336 3476 9348 73
17337 3476 3283 35
17338 3476 3103 61
17339 3476 1787 98
17340 3476 3729 68
17341 3476 7432 84
17342 3476 514 99
17343 3477 5600 60
17344 3477 8838 6
17345 3477 9747 71
17346 3477 3252 79
17347 3478 4671 40
17348 3478 4058 70
17349 3478 1149 92
17350 3478 5412 41
17351 3478 5842 43
17352 3478 1793 60
17353 3478 8350 33
17354 3479 499 6
17355 3479 8012 41
17356 3479 2049 42
17357 3479 1243 3
17358 3479 7547 84
17359 3479 2753 83
17360 3479 3718 78
17361 3480 3551 20
17362 3480 2311 36
17363 3480 8157 96
17364 3480 7185 33
17365 3480 6281 7
17366 3480 568 64
17367 3480 8373 10
17368 3481 7485 82
17369 3481 9155 93
17370 3481 8202 86
17371 3481 4291 48
17372 3482 5346 37
17373 3482 2104 50
17374 3482 1902 52
17375 3482 9577 83
17376 3482 2392 61
17377 3482 5441 31
17378 3482 7795 60
17379 3483 4562 99
17380 3483 5966 59
17381 3483 6988 38
17382 3483 5093 88
17383 3483 6659 46
17384 3483 4624 93
17385 3483 9432 76
17386 3484 3392 97
17387 3484 5088 95
17388 3484 6493 59
17389 3484 1437 42
17390 3485 579 33
17391 3486 5377 15
17392 3486 2424 36
17393 3486 9338 78
17394 3486 8065 20
17395 3486 8863 88
17396 3486 9936 15
17397 3487 2565 22
17398 3487 3488 5
17399 3487 2282 53
17400 3488 8203 60
17401 3488 878 88
17402 3488 808 2
17403 3488 4105 51
17404 3488 8757 74
17405 3488 4074 45
17406 3488 8210 9
17407 3489 1240 41
17408 3489 4337 54
17409 3489 7996 75
17410 3489 3582 44
17411 3489 5138 91
17412 3489 52 72
17413 3490 4500 38
17414 3490 3424 87
17415 3490 9261 48
17416 3490 1752 78
17417 3490 7912 48
17418 3490 7952 34
17419 3491 7671 46
17420 3491 2725 16
17421 3492 4577 44
17422 3492 7577 12
17423 3492 2411 45
17424 3492 3997 56
17425 3492 2449 63
17426 3492 5821 98
17427 3492 4899 42
17428 3492 2846 76
17429 3492 9836 69
17430 3493 5394 74
17431 3493 5844 18
17432 3493 8989 17
17433 3493 502 27
17434 3494 9744 70
17435 3494 726 82
17436 3494 3908 70
17437 3494 4471 78
17438 3494 5043 33
17439 3494 2564 13
17440 3494 7244 8
17441 3494 1013 49
17442 3494 437 81
17443 3494 6972 33
17444 3495 6963 16
17445 3495 7915 1
17446 3495 8931 7
17447 3495 8058 90
17448 3495 4984 80
17449 3495 2243 1
17450 3495 1895 26
17451 3496 8864 92
17452 3496 419 66
17453 3496 4695 13
17454 3496 1551 80
17455 3496 4860 75
17456 3497 1359 8
17457 3497 1746 73
17458 3497 9542 43
17459 3498 5329 65
17460 3498 2762 47
17461 3498 6439 65
17462 3498 297 31
17463 3498 801 57
17464 3499 1290 82
17465 3499 203 1
17466 3499 2639 81
17467 3499 206 32
17468 3500 1389 37
17469 3500 9386 39
17470 3500 377 68
17471 3500 9181 99
17472 3500 6874 53
17473 3501 8542 51
17474 3501 1389 32
17475 3501 3018 11
17476 3501 8981 27
17477 3501 3390 91
17478 3502 487 61
17479 3502 7229 57
17480 3503 5663 82
17481 3504 7288 87
17482 3504 3041 80
17483 3504 6909 25
17484 3505 1120 36
17485 3505 7615 87
17486 3505 8555 72
17487 3505 3730 54
17488 3505 3862 55
17489 3506 7497 56
17490 3506 3153 95
17491 3507 6005 26
17492 3507 7416 52
17493 3507 704 97
17494 3507 4339 52
17495 3507 2071 62
17496 3507 409 27
17497 3507 1346 78
17498 3507 1222 39
17499 3507 5885 84
17500 3508 349 17
17501 3508 48 84
17502 3508 9267 40
17503 3508 8255 78
17504 3508 1011 68
17505 3509 6793 48
17506 3509 4082 9
17507 3509 5971 65
17508 3509 3172 63
17509 3509 1765 64
17510 3509 4428 70
17511 3509 6727 61
17512 3509 5541 49
17513 3510 257 13
17514 3510 5825 33
17515 3510 5194 70
17516 3510 9492 98
17517 3511 3754 88
17518 3511 7896 84
17519 3511 6958 9
17520 3511 633 57
17521 3511 1256 39
17522 3511 5762 97
17523 3511 1955 12
17524 3511 5022 19
17525 3512 7175 81
17526 3512 4424 3
17527 3512 6680 79
17528 3513 903 23
17529 3513 5573 100
17530 3513 325 20
17531 3513 8163 35
17532 3513 1009 5
17533 3513 7118 83
17534 3514 5651 44
17535 3514 1952 92
17536 3514 9547 70
17537 3515 6935 7
17538 3515 8962 63
17539 3515 1117 45
17540 3515 6665 39
17541 3515 4286 13
17542 3515 2280 81
17543 3515 5855 58
17544 3515 2386 16
17545 3516 1347 20
17546 3516 2641 39
17547 3516 8680 70
17548 3516 9827 84
17549 3516 1362 43
17550 3516 366 27
17551 3516 7675 17
17552 3516 7943 74
17553 3516 2956 93
17554 3517 2248 94
17555 3517 6156 35
17556 3517 9705 29
17557 3517 6396 60
17558 3517 9651 41
17559 3518 142 10
17560 3518 1182 45
17561 3518 5651 61
17562 3519 6461 39
17563 3519 1319 4
17564 3519 9718 44
17565 3519 9349 39
17566 3519 6311 99
17567 3519 7150 16
17568 3519 7428 69
17569 3519 1153 19
17570 3520 1666 76
17571 3520 1769 92
17572 3520 3740 14
17573 3520 1091 68
17574 3520 5508 41
17575 3521 4052 85
17576 3521 2514 73
17577 3521 9109 41
17578 3521 3409 98
17579 3522 3806 85
17580 3522 7454 57
17581 3522 197 73
17582 3523 7873 38
17583 3523 6629 66
17584 3524 8809 86
17585 3524 182 20
17586 3524 9611 85
17587 3524 2954 87
17588 3525 2926 10
17589 3525 9121 38
17590 3525 322 25
17591 3525 2434 69
17592 3525 604 86
17593 3525 4804 54
17594 3525 6923 46
17595 3525 9313 96
17596 3526 6758 66
17597 3526 3944 91
17598 3527 7836 7
17599 3527 1923 86
17600 3527 626 75
17601 3528 6101 97
17602 3528 5954 2
17603 3529 8269 83
17604 3529 8540 89
17605 3529 8968 30
17606 3529 7541 50
17607 3530 7721 100
17608 3530 8079 37
17609 3530 4423 21
17610 3530 6354 29
17611 3530 689 11
17612 3530 4583 73
17613 3530 888 80
17614 3531 6560 19
17615 3531 4966 27
17616 3531 2852 1
17617 3531 7364 34
17618 3531 5078 56
17619 3531 6864 14
17620 3532 4879 61
17621 3532 5326 8
17622 3532 9661 70
17623 3532 965 33
17624 3533 4905 9
17625 3533 5743 72
17626 3533 8800 45
17627 3533 3146 85
17628 3533 5961 72
17629 3533 6410 85
17630 3533 8223 61
17631 3534 3022 83
17632 3534 56 32
17633 3534 3014 86
17634 3534 9087 54
17635 3534 9582 21
17636 3534 9131 67
17637 3535 94 27
17638 3536 9593 18
17639 3536 2164 36
17640 3536 9198 66
17641 3536 6735 4
17642 3536 7391 82
17643 3536 4259 14
17644 3537 2655 48
17645 3538 4241 67
17646 3539 4772 66
17647 3539 7974 50
17648 3539 5571 29
17649 3539 3851 19
17650 3539 9111 4
17651 3539 265 50
17652 3540 8940 5
17653 3540 7067 2
17654 3540 3398 16
17655 3540 6360 89
17656 3540 4888 75
17657 3541 5974 79
17658 3541 4887 45
17659 3541 7986 32
17660 3542 4878 85
17661 3542 7425 96
17662 3543 8635 76
17663 3543 6419 23
17664 3543 8222 66
17665 3543 9238 30
17666 3543 860 54
17667 3543 2798 37
17668 3543 8134 79
17669 3544 1201 73
17670 3544 575 89
17671 3544 4551 97
17672 3544 185 95
17673 3545 5766 14
17674 3545 3590 73
17675 3545 8971 25
17676 3545 3332 9
17677 3545 4998 54
17678 3546 1281 4
17679 3546 2736 21
17680 3546 6924 93
17681 3547 2433 39
17682 3547 7305 79
17683 3547 4142 95
17684 3547 2605 69
17685 3547 9942 90
17686 3547 5600 64
17687 3548 4545 59
17688 3548 8720 69
17689 3548 435 42
17690 3549 29 74
17691 3550 5357 21
17692 3550 657 15
17693 3550 2845 23
17694 3550 1953 76
17695 3550 8227 29
17696 3550 4541 93
17697 3550 8867 90
17698 3550 962 84
17699 3551 2585 68
17700 3552 8688 5
17701 3552 9513 9
17702 3552 2671 25
17703 3552 716 55
17704 3552 5626 63
17705 3552 4007 40
17706 3553 970 79
17707 3553 6699 8
17708 3554 5137 63
17709 3554 4830 87
17710 3554 1148 82
17711 3554 5984 12
17712 3554 6300 100
17713 3554 5218 55
17714 3554 3189 52
17715 3554 4707 86
17716 3555 2108 94
17717 3555 5475 99
17718 3555 1214 41
17719 3555 4846 4
17720 3555 5958 47
17721 3556 9425 35
17722 3556 4937 28
17723 3556 418 37
17724 3556 7971 66
17725 3557 4865 74
17726 3557 7378 42
17727 3557 8167 61
17728 3557 5518 98
17729 3558 5290 37
17730 3558 2527 94
17731 3559 7794 8
17732 3559 299 76
17733 3559 6640 98
17734 3559 317 21
17735 3559 7403 41
17736 3559 247 51
17737 3560 5628 54
17738 3560 4180 40
17739 3561 1322 72
17740 3561 6356 82
17741 3561 4016 22
17742 3561 6552 48
17743 3561 6399 66
17744 3561 2172 55
17745 3561 1256 19
17746 3561 6620 47
17747 3562 2190 40
17748 3562 6688 35
17749 3562 9198 92
17750 3562 8453 79
17751 3562 4164 50
17752 3563 6967 26
17753 3563 4908 6
17754 3563 1972 97
17755 3564 8098 44
17756 3564 7172 1
17757 3564 6008 80
17758 3564 1436 2
17759 3564 1409 16
17760 3564 9653 67
17761 3564 9196 86
17762 3565 1135 64
17763 3565 5759 94
17764 3565 6460 96
17765 3565 2710 45
17766 3565 9502 31
17767 3565 3735 76
17768 3565 9001 7
17769 3565 3203 73
17770 3566 3614 70
17771 3566 5406 36
17772 3566 348 30
17773 3566 9074 82
17774 3566 9523 24
17775 3566 1207 10
17776 3567 2920 31
17777 3567 9168 47
17778 3567 3417 94
17779 3567 7030 99
17780 3567 8662 39
17781 3567 9069 24
17782 3567 3371 5
17783 3567 8481 21
17784 3568 7600 93
17785 3568 9713 11
17786 3568 1128 69
17787 3569 7182 56
17788 3569 7313 65
17789 3569 9913 54
17790 3569 1916 87
17791 3569 5592 60
17792 3569 2930 15
17793 3569 4009 70
17794 3570 1586 14
17795 3570 9778 84
17796 3570 6264 47
17797 3570 1314 21
17798 3571 9531 55
17799 3571 8314 69
17800 3571 8558 72
17801 3571 1156 43
17802 3572 5946 19
17803 3572 1333 21
17804 3572 6501 41
17805 3573 19 69
17806 3573 3469 98
17807 3573 7011 88
17808 3573 8511 62
17809 3573 5214 94
17810 3573 6424 80
17811 3573 4468 58
17812 3574 3698 27
17813 3574 18 93
17814 3574 6229 70
17815 3574 8693 80
17816 3574 2986 78
17817 3574 2382 9
17818 3575 7571 1
17819 3575 4308 35
17820 3575 3043 88
17821 3576 9669 59
17822 3576 6202 14
17823 3576 1598 18
17824 3577 9338 52
17825 3577 7258 12
17826 3577 751 14
17827 3578 9678 52
17828 3578 220 43
17829 3578 8667 36
17830 3578 1405 25
17831 3578 8199 6
17832 3578 8970 11
17833 3579 2594 7
17834 3579 886 31
17835 3579 1179 71
17836 3579 8763 42
17837 3580 9112 17
17838 3580 5325 33
17839 3580 6301 12
17840 3581 5129 50
17841 3581 6575 93
17842 3581 2190 46
17843 3581 9604 67
17844 3581 1225 33
17845 3581 8675 84
17846 3581 6134 84
17847 3582 8529 10
17848 3582 8699 68
17849 3582 2415 59
17850 3582 5380 5
17851 3582 3873 96
17852 3582 1693 76
17853 3582 9422 70
17854 3583 9783 15
17855 3583 9778 29
17856 3583 4883 93
17857 3583 5272 75
17858 3583 4856 76
17859 3583 8710 28
17860 3583 7792 68
17861 3584 3192 58
17862 3584 3836 63
17863 3584 5437 14
17864 3584 7468 5
17865 3584 632 84
17866 3585 6079 37
17867 3585 2812 57
17868 3585 7106 20
17869 3585 2451 55
17870 3585 3073 94
17871 3586 6134 93
17872 3586 6444 89
17873 3587 5053 62
17874 3587 1368 64
17875 3587 6851 35
17876 3587 8530 69
17877 3588 4844 75
17878 3588 3907 35
17879 3588 8874 19
17880 3588 2024 69
17881 3588 8277 72
17882 3589 819 46
17883 3589 226 73
17884 3589 2689 65
17885 3589 8878 85
17886 3589 3815 74
17887 3589 4253 64
17888 3589 6889 43
17889 3589 2483 94
17890 3590 5273 75
17891 3590 6067 53
17892 3590 6819 6
17893 3590 1582 54
17894 3591 2284 87
17895 3591 9915 12
17896 3591 4415 11
17897 3591 8533 30
17898 3591 6010 66
17899 3591 5170 25
17900 3591 7208 45
17901 3591 1144 65
17902 3591 7835 73
17903 3591 6583 62
17904 3591 1275 82
17905 3591 8233 53
17906 3591 6128 63
17907 3591 129 85
17908 3592 135 37
17909 3592 7114 76
17910 3592 8022 77
17911 3592 6202 60
17912 3592 896 26
17913 3592 3634 26
17914 3592 2862 90
17915 3592 3201 28
17916 3592 2087 8
17917 3593 7300 40
17918 3593 1749 95
17919 3593 3561 39
17920 3593 1366 37
17921 3594 5039 39
17922 3594 6024 4
17923 3594 8878 5
17924 3594 2334 48
17925 3594 4592 47
17926 3595 1971 94
17927 3595 8983 24
17928 3595 3202 3
17929 3595 5147 51
17930 3595 8487 87
17931 3596 3715 8
17932 3596 8863 32
17933 3596 4245 77
17934 3596 9143 85
17935 3596 7792 71
17936 3596 1188 69
17937 3596 6612 58
17938 3597 2678 16
17939 3597 2952 52
17940 3597 9915 32
17941 3597 8815 62
17942 3598 540 54
17943 3598 5000 18
17944 3598 1057 41
17945 3599 3075 89
17946 3599 7169 85
17947 3599 3817 83
17948 3599 2106 43
17949 3599 5572 38
17950 3599 384 3
17951 3599 11 49
17952 3599 8534 98
17953 3600 8087 45
17954 3600 14 24
17955 3600 7708 31
17956 3600 4929 31
17957 3600 5465 72
17958 3601 809 90
17959 3601 4884 100
17960 3601 9981 89
17961 3601 3113 14
17962 3602 1068 31
17963 3602 5430 84
17964 3602 1942 44
17965 3602 913 76
17966 3603 9503 73
17967 3603 445 6
17968 3603 9668 16
17969 3603 4364 10
17970 3603 3890 74
17971 3603 1164 78
17972 3604 8003 11
17973 3604 5567 94
17974 3604 8527 48
17975 3604 5438 21
17976 3604 1302 67
17977 3604 3477 55
17978 3604 9628 96
17979 3604 8104 60
17980 3604 2316 94
17981 3605 1247 61
17982 3605 4157 17
17983 3605 7309 78
17984 3606 9223 80
17985 3606 4782 6
17986 3606 5915 100
17987 3606 5671 50
17988 3606 8174 28
17989 3607 5491 97
17990 3607 2188 72
17991 3607 1377 48
17992 3607 6609 26
17993 3607 8549 34
17994 3607 8268 87
17995 3607 4558 16
17996 3607 7593 68
17997 3608 1713 85
17998 3608 1298 9
17999 3608 2592 70
18000 3608 8961 40
18001 3608 9244 64
18002 3608 7153 16
18003 3608 6282 10
18004 3609 6763 37
18005 3609 7629 3
18006 3610 2263 7
18007 3610 9491 46
18008 3610 3625 86
18009 3610 8451 24
18010 3610 5168 53
18011 3610 3490 42
18012 3610 1220 44
18013 3611 8402 82
18014 3611 7650 26
18015 3611 3824 84
18016 3611 4244 74
18017 3612 2790 90
18018 3612 7825 96
18019 3612 6358 1
18020 3612 3875 58
18021 3612 2217 86
18022 3612 4152 40
18023 3613 4676 100
18024 3613 9589 91
18025 3614 4059 35
18026 3614 695 92
18027 3614 2115 49
18028 3614 3196 30
18029 3615 6681 42
18030 3615 1763 25
18031 3616 6013 38
18032 3616 5035 66
18033 3616 1188 33
18034 3617 6566 74
18035 3617 3867 44
18036 3617 1130 26
18037 3617 8658 72
18038 3618 8030 16
18039 3618 841 71
18040 3618 1120 26
18041 3618 6212 43
18042 3618 2825 23
18043 3619 5467 81
18044 3619 3194 30
18045 3620 9875 62
18046 3620 9781 33
18047 3620 2002 23
18048 3621 9482 40
18049 3621 9353 75
18050 3621 997 95
18051 3622 3731 74
18052 3622 1966 76
18053 3622 1935 4
18054 3622 5245 98
18055 3622 498 75
18056 3622 8450 42
18057 3622 4140 96
18058 3624 329 12
18059 3624 4898 13
18060 3624 5775 99
18061 3624 804 13
18062 3624 2122 58
18063 3624 7972 62
18064 3624 565 85
18065 3625 7277 17
18066 3625 5861 99
18067 3625 4828 43
18068 3625 6722 65
18069 3625 9010 95
18070 3625 2983 61
18071 3625 8287 65
18072 3626 2584 43
18073 3626 8829 86
18074 3626 5047 20
18075 3626 7077 34
18076 3626 3451 88
18077 3627 2603 37
18078 3627 9149 38
18079 3627 8793 8
18080 3627 854 43
18081 3627 493 84
18082 3628 2902 27
18083 3628 8754 77
18084 3628 4517 97
18085 3628 1888 94
18086 3628 9092 22
18087 3628 966 18
18088 3628 2683 20
18089 3628 1541 57
18090 3629 3928 78
18091 3629 5661 53
18092 3629 8563 5
18093 3629 1612 15
18094 3629 1165 36
18095 3630 6720 82
18096 3630 9886 21
18097 3630 3043 91
18098 3630 8750 3
18099 3630 7024 10
18100 3630 4119 97
18101 3631 6900 39
18102 3631 9872 65
18103 3632 5654 86
18104 3632 8655 3
18105 3632 144 80
18106 3633 1387 57
18107 3633 6049 79
18108 3633 3196 65
18109 3633 560 93
18110 3633 304 16
18111 3634 5042 74
18112 3634 1120 16
18113 3634 5047 54
18114 3635 5449 31
18115 3635 6961 87
18116 3635 9200 6
18117 3635 2051 31
18118 3635 682 14
18119 3636 5778 92
18120 3636 281 71
18121 3636 303 59
18122 3636 4619 45
18123 3637 5198 27
18124 3637 7075 11
18125 3637 8052 24
18126 3637 9074 23
18127 3638 7026 38
18128 3638 5140 22
18129 3638 7911 75
18130 3638 3212 47
18131 3638 4963 29
18132 3638 7982 61
18133 3638 3787 81
18134 3639 8027 28
18135 3640 9769 88
18136 3640 3563 74
18137 3640 6045 29
18138 3640 9660 50
18139 3640 2734 33
18140 3641 8903 72
18141 3641 6735 63
18142 3641 1279 56
18143 3641 6299 60
18144 3641 8701 36
18145 3642 1545 51
18146 3642 894 15
18147 3642 9426 56
18148 3642 1857 27
18149 3642 5909 97
18150 3643 5025 57
18151 3643 8795 12
18152 3644 4190 18
18153 3644 6258 66
18154 3644 869 16
18155 3644 3832 40
18156 3644 703 96
18157 3645 8050 87
18158 3645 4669 56
18159 3645 2184 61
18160 3645 9435 11
18161 3646 5492 23
18162 3646 121 71
18163 3646 5697 25
18164 3646 6695 83
18165 3646 8815 26
18166 3647 4751 4
18167 3647 5073 66
18168 3647 7651 12
18169 3647 6122 1
18170 3647 5542 99
18171 3647 2888 93
18172 3648 1721 7
18173 3648 412 56
18174 3648 5713 60
18175 3649 8154 39
18176 3649 8021 94
18177 3649 1314 12
18178 3649 1796 3
18179 3649 1 38
18180 3649 1091 85
18181 3649 8441 80
18182 3649 5642 93
18183 3650 9351 29
18184 3650 5828 32
18185 3650 4602 4
18186 3650 3713 26
18187 3650 6370 14
18188 3650 1426 5
18189 3651 7421 76
18190 3651 6173 46
18191 3651 3612 93
18192 3651 354 30
18193 3651 7456 87
18194 3651 8934 86
18195 3651 9944 64
18196 3652 3147 31
18197 3652 2486 91
18198 3653 8596 41
18199 3653 5046 70
18200 3653 4678 2
18201 3653 124 21
18202 3653 4328 87
18203 3654 2249 88
18204 3654 5830 5
18205 3654 5218 32
18206 3654 1228 62
18207 3655 8437 34
18208 3655 1596 41
18209 3655 2703 14
18210 3655 1186 58
18211 3655 6036 4
18212 3655 9814 69
18213 3655 3970 69
18214 3657 4405 50
18215 3657 1999 70
18216 3657 6593 10
18217 3657 6286 13
18218 3657 5822 100
18219 3657 5428 19
18220 3658 7814 6
18221 3659 3192 41
18222 3659 6656 42
18223 3659 1806 36
18224 3659 3393 10
18225 3660 8705 44
18226 3660 765 59
18227 3661 1446 21
18228 3661 7045 66
18229 3661 2131 72
18230 3661 3956 19
18231 3661 7082 54
18232 3662 7737 21
18233 3662 8528 9
18234 3662 6709 78
18235 3663 9281 93
18236 3663 6590 98
18237 3663 8657 71
18238 3663 5548 36
18239 3664 6773 24
18240 3664 1767 41
18241 3664 336 17
18242 3664 9031 24
18243 3664 297 46
18244 3664 9879 49
18245 3665 2757 75
18246 3665 1173 31
18247 3665 9444 48
18248 3665 6689 13
18249 3665 2131 57
18250 3666 8894 21
18251 3666 914 76
18252 3666 2025 20
18253 3667 5601 82
18254 3667 2264 19
18255 3667 9307 82
18256 3667 7598 38
18257 3667 1334 20
18258 3667 3616 79
18259 3668 146 54
18260 3668 5239 78
18261 3668 2621 75
18262 3668 1929 74
18263 3668 5449 97
18264 3668 3293 13
18265 3668 8605 31
18266 3669 8246 55
18267 3669 3452 25
18268 3669 7336 1
18269 3670 1204 9
18270 3670 8891 60
18271 3670 7563 49
18272 3671 2497 6
18273 3672 9441 68
18274 3672 542 71
18275 3672 7567 86
18276 3672 7118 58
18277 3672 6722 87
18278 3672 5319 56
18279 3673 8279 66
18280 3673 5123 71
18281 3673 2995 19
18282 3673 990 20
18283 3673 4424 37
18284 3674 7155 4
18285 3674 3711 95
18286 3674 1175 22
18287 3674 5619 64
18288 3675 2495 68
18289 3675 732 48
18290 3675 5705 98
18291 3675 3975 94
18292 3675 8429 31
18293 3675 8483 26
18294 3676 4230 15
18295 3676 2715 13
18296 3677 2112 48
18297 3677 9933 62
18298 3677 7654 18
18299 3677 4325 94
18300 3677 2332 35
18301 3677 9462 5
18302 3677 5502 86
18303 3677 4119 2
18304 3678 8967 65
18305 3678 4208 23
18306 3678 5655 100
18307 3678 4117 51
18308 3679 8258 84
18309 3679 6134 65
18310 3679 1008 43
18311 3679 6009 70
18312 3679 9180 6
18313 3680 3567 48
18314 3680 4169 95
18315 3680 714 21
18316 3680 6563 52
18317 3680 3788 47
18318 3681 6681 43
18319 3681 7709 93
18320 3681 4627 25
18321 3681 7392 38
18322 3682 4546 4
18323 3682 3757 61
18324 3682 2420 65
18325 3682 4870 12
18326 3683 4172 58
18327 3683 1762 68
18328 3683 4494 25
18329 3684 8660 81
18330 3684 4529 69
18331 3684 5917 58
18332 3684 2836 36
18333 3684 4919 83
18334 3685 8152 48
18335 3685 6685 99
18336 3685 1293 13
18337 3685 383 65
18338 3686 1748 7
18339 3686 6181 55
18340 3686 2499 75
18341 3686 7951 7
18342 3687 6535 32
18343 3687 3811 44
18344 3687 5593 63
18345 3687 1403 3
18346 3688 4625 64
18347 3688 7194 24
18348 3688 5022 9
18349 3688 278 60
18350 3689 9165 88
18351 3689 6767 87
18352 3689 2746 95
18353 3689 1894 96
18354 3689 9048 63
18355 3689 5533 11
18356 3689 490 34
18357 3689 1693 86
18358 3691 3123 14
18359 3691 7925 1
18360 3691 9675 94
18361 3691 3435 59
18362 3691 1233 3
18363 3692 5971 68
18364 3692 7356 27
18365 3692 763 5
18366 3692 6582 52
18367 3693 2944 34
18368 3693 8120 54
18369 3693 7170 51
18370 3693 2732 77
18371 3693 1213 15
18372 3693 8500 65
18373 3693 5219 26
18374 3694 6994 91
18375 3694 2912 80
18376 3694 9645 50
18377 3694 1938 61
18378 3694 6982 43
18379 3694 3209 29
18380 3694 488 99
18381 3695 8260 9
18382 3695 4254 13
18383 3695 5381 71
18384 3695 9865 50
18385 3695 43 50
18386 3695 4774 49
18387 3696 2398 40
18388 3696 3183 83
18389 3697 1780 3
18390 3697 5114 18
18391 3697 5171 76
18392 3697 2583 22
18393 3697 7219 6
18394 3697 6216 40
18395 3697 9814 35
18396 3697 1977 25
18397 3697 241 48
18398 3698 9390 38
18399 3698 7122 80
18400 3699 7642 19
18401 3699 8870 21
18402 3699 4165 28
18403 3699 2621 62
18404 3700 9202 7
18405 3700 1823 40
18406 3700 4662 35
18407 3701 9570 76
18408 3701 6743 59
18409 3701 9594 61
18410 3701 9633 71
18411 3701 6362 19
18412 3701 3829 70
18413 3702 6945 18
18414 3702 6718 19
18415 3702 1705 49
18416 3702 2473 33
18417 3703 3188 4
18418 3704 1 44
18419 3704 2213 91
18420 3704 8609 43
18421 3704 8728 51
18422 3704 7409 26
18423 3705 4699 75
18424 3705 1187 63
18425 3705 4996 22
18426 3706 7188 44
18427 3707 1966 9
18428 3707 5669 37
18429 3707 5674 36
18430 3707 3286 1
18431 3707 4847 96
18432 3708 7705 79
18433 3708 8088 58
18434 3708 5889 45
18435 3708 6802 61
18436 3708 9092 93
18437 3708 585 53
18438 3709 8391 92
18439 3709 2615 62
18440 3709 8066 22
18441 3709 3286 53
18442 3709 5688 94
18443 3709 4147 41
18444 3709 8595 34
18445 3709 3009 6
18446 3710 6799 99
18447 3710 6491 9
18448 3710 1458 39
18449 3710 5559 33
18450 3710 8427 64
18451 3711 8878 71
18452 3711 9805 15
18453 3711 1059 37
18454 3711 5541 100
18455 3712 1402 26
18456 3712 4834 22
18457 3712 5865 28
18458 3712 9415 13
18459 3712 818 55
18460 3712 5551 85
18461 3713 5924 13
18462 3713 6115 77
18463 3713 2873 76
18464 3713 835 89
18465 3713 9006 67
18466 3713 2845 60
18467 3713 5951 87
18468 3714 1820 61
18469 3714 7353 29
18470 3714 9056 18
18471 3714 5891 68
18472 3714 2006 89
18473 3714 5478 50
18474 3714 2377 57
18475 3715 9882 96
18476 3715 5968 75
18477 3715 3083 37
18478 3715 9216 45
18479 3716 5505 83
18480 3716 2727 18
18481 3716 9032 12
18482 3716 1592 67
18483 3716 4755 15
18484 3716 8719 43
18485 3716 9737 82
18486 3716 4704 91
18487 3717 6001 52
18488 3717 4399 94
18489 3717 7993 87
18490 3717 1487 15
18491 3717 3681 27
18492 3717 8385 48
18493 3718 1060 2
18494 3718 2961 39
18495 3718 4821 28
18496 3719 3177 10
18497 3719 7739 68
18498 3719 3685 27
18499 3719 4183 84
18500 3719 1522 72
18501 3720 8802 25
18502 3720 3427 23
18503 3720 9766 39
18504 3720 7696 78
18505 3720 1667 88
18506 3720 2436 2
18507 3720 7823 10
18508 3721 6318 8
18509 3721 8561 44
18510 3721 6825 26
18511 3721 6988 9
18512 3721 810 38
18513 3721 5488 13
18514 3722 9175 43
18515 3722 7871 20
18516 3722 2272 57
18517 3722 7867 44
18518 3722 7690 11
18519 3722 8134 80
18520 3722 4446 83
18521 3722 9702 37
18522 3723 9900 36
18523 3723 1233 19
18524 3723 3244 94
18525 3723 7220 2
18526 3723 869 27
18527 3723 4072 90
18528 3724 6948 63
18529 3724 3663 68
18530 3724 9864 85
18531 3725 4896 100
18532 3725 5903 54
18533 3725 8868 3
18534 3725 1195 91
18535 3725 9003 45
18536 3726 5698 91
18537 3726 478 50
18538 3727 9494 48
18539 3727 648 24
18540 3728 2880 96
18541 3728 4929 47
18542 3728 3001 88
18543 3729 3134 9
18544 3729 9076 71
18545 3729 5251 69
18546 3729 7539 12
18547 3729 2557 91
18548 3730 5408 71
18549 3730 3010 65
18550 3730 2436 100
18551 3730 743 34
18552 3731 3583 86
18553 3731 3881 36
18554 3731 4845 34
18555 3731 9947 52
18556 3732 4555 86
18557 3732 6365 31
18558 3732 6159 1
18559 3732 5130 72
18560 3732 7366 3
18561 3732 6121 55
18562 3732 3847 13
18563 3732 6942 27
18564 3733 5640 13
18565 3733 4412 43
18566 3733 5880 34
18567 3733 4283 32
18568 3734 639 71
18569 3734 8456 71
18570 3734 9379 45
18571 3734 4221 32
18572 3734 3078 53
18573 3735 880 77
18574 3735 9508 50
18575 3735 1772 39
18576 3735 1269 83
18577 3736 5092 97
18578 3736 3317 96
18579 3736 1298 83
18580 3736 4849 99
18581 3736 9987 88
18582 3737 1548 8
18583 3737 8578 3
18584 3737 8400 79
18585 3738 2874 13
18586 3738 5399 63
18587 3738 7556 77
18588 3738 7160 77
18589 3738 5690 32
18590 3738 1445 19
18591 3739 9835 71
18592 3739 2270 23
18593 3739 2628 30
18594 3739 7147 29
18595 3740 7481 61
18596 3740 7509 83
18597 3740 1973 12
18598 3741 5316 54
18599 3741 483 57
18600 3741 3365 90
18601 3741 5128 6
18602 3742 8485 79
18603 3742 36 53
18604 3742 6867 86
18605 3742 1410 97
18606 3743 4029 13
18607 3743 1545 14
18608 3743 4657 6
18609 3743 1669 91
18610 3744 7992 91
18611 3744 2928 70
18612 3744 1059 47
18613 3745 1491 86
18614 3745 1412 85
18615 3745 2410 21
18616 3745 2541 36
18617 3745 9124 29
18618 3746 71 26
18619 3746 1669 73
18620 3746 1510 35
18621 3746 6561 52
18622 3747 196 57
18623 3747 2517 51
18624 3747 3252 61
18625 3747 1189 92
18626 3747 4387 65
18627 3747 504 19
18628 3748 5567 93
18629 3748 3973 62
18630 3748 6668 74
18631 3749 1584 70
18632 3749 5432 60
18633 3749 3798 22
18634 3749 6581 29
18635 3749 9844 34
18636 3749 8038 5
18637 3749 7639 24
18638 3750 4367 11
18639 3750 5557 35
18640 3750 5809 75
18641 3750 5618 33
18642 3750 4864 37
18643 3751 2749 33
18644 3751 2891 30
18645 3751 1154 64
18646 3751 2108 51
18647 3751 6007 63
18648 3751 5911 72
18649 3751 6122 61
18650 3751 8062 27
18651 3751 498 80
18652 3752 2100 7
18653 3752 3429 58
18654 3752 4398 85
18655 3752 8191 81
18656 3752 2453 92
18657 3752 4983 86
18658 3752 7218 34
18659 3753 4935 81
18660 3753 7206 21
18661 3753 6370 48
18662 3753 7210 67
18663 3753 706 87
18664 3754 2307 15
18665 3754 1234 16
18666 3754 7826 48
18667 3754 170 56
18668 3754 248 71
18669 3754 5219 33
18670 3755 6680 22
18671 3755 2604 70
18672 3755 2636 5
18673 3755 385 60
18674 3755 2391 92
18675 3755 8562 76
18676 3755 8061 22
18677 3755 9414 66
18678 3755 2606 50
18679 3756 4063 68
18680 3756 8569 43
18681 3757 8094 88
18682 3758 4538 96
18683 3758 6038 93
18684 3758 5968 39
18685 3758 4713 95
18686 3758 9986 43
18687 3758 3077 86
18688 3758 7626 28
18689 3759 1254 67
18690 3759 8854 26
18691 3760 3059 40
18692 3760 1910 87
18693 3760 1036 6
18694 3760 9104 88
18695 3760 1979 63
18696 3760 421 43
18697 3760 8924 14
18698 3761 772 100
18699 3761 1782 26
18700 3761 174 65
18701 3762 538 90
18702 3762 1934 18
18703 3762 8028 15
18704 3762 8803 64
18705 3763 5159 88
18706 3763 8035 73
18707 3763 6810 53
18708 3763 1555 52
18709 3763 1695 86
18710 3764 4253 28
18711 3765 1136 76
18712 3765 4804 64
18713 3765 4010 23
18714 3765 3224 71
18715 3765 5797 51
18716 3765 6206 4
18717 3765 7246 34
18718 3766 6257 81
18719 3766 4238 23
18720 3766 5818 48
18721 3766 5283 33
18722 3766 9772 51
18723 3766 5380 64
18724 3766 4694 7
18725 3767 6218 73
18726 3767 896 86
18727 3767 5333 75
18728 3767 9924 18
18729 3768 4918 2
18730 3768 5363 21
18731 3768 9451 78
18732 3768 4978 78
18733 3768 8008 5
18734 3768 3795 15
18735 3769 1299 95
18736 3769 5564 59
18737 3769 3616 53
18738 3770 1870 36
18739 3770 7510 65
18740 3770 3420 47
18741 3771 7712 14
18742 3771 4440 73
18743 3771 9743 85
18744 3771 5064 77
18745 3771 2551 58
18746 3771 9923 49
18747 3771 7661 81
18748 3771 1183 29
18749 3772 8142 91
18750 3772 7129 47
18751 3772 2550 34
18752 3772 194 72
18753 3772 5760 38
18754 3772 8740 57
18755 3773 4514 22
18756 3773 8116 65
18757 3773 9024 40
18758 3773 8029 49
18759 3773 4334 7
18760 3773 7371 8
18761 3773 3642 69
18762 3773 7085 96
18763 3774 9651 40
18764 3774 8210 56
18765 3774 5254 48
18766 3774 1704 38
18767 3774 2173 5
18768 3774 6462 63
18769 3775 7541 4
18770 3775 3869 69
18771 3775 2137 44
18772 3775 7168 2
18773 3775 4630 98
18774 3775 7073 62
18775 3776 1482 20
18776 3776 3920 94
18777 3777 7152 2
18778 3777 6529 77
18779 3777 8874 79
18780 3777 4477 95
18781 3777 9356 9
18782 3777 8571 4
18783 3777 495 77
18784 3778 4999 16
18785 3778 9635 93
18786 3778 3573 5
18787 3779 8529 60
18788 3779 951 35
18789 3779 584 2
18790 3779 5251 99
18791 3779 1865 26
18792 3780 7455 67
18793 3780 7177 30
18794 3780 4155 88
18795 3781 5987 41
18796 3781 9173 9
18797 3781 3003 40
18798 3781 6863 14
18799 3781 1396 89
18800 3781 7897 22
18801 3782 4751 97
18802 3782 875 73
18803 3782 2021 66
18804 3783 6956 32
18805 3783 7270 22
18806 3783 9586 14
18807 3783 9430 73
18808 3784 1586 99
18809 3784 5348 69
18810 3785 4501 82
18811 3785 892 35
18812 3785 6041 76
18813 3785 3482 18
18814 3785 4414 15
18815 3785 7439 31
18816 3785 6257 34
18817 3785 8649 9
18818 3786 2091 18
18819 3786 7845 43
18820 3786 8520 95
18821 3786 9354 18
18822 3786 2662 11
18823 3786 2309 74
18824 3787 1405 38
18825 3787 3583 16
18826 3787 6459 74
18827 3788 4033 65
18828 3788 9635 99
18829 3788 6104 73
18830 3788 3052 24
18831 3788 8723 82
18832 3788 5698 12
18833 3788 9253 75
18834 3788 4432 12
18835 3788 7189 57
18836 3789 4952 26
18837 3789 2748 47
18838 3789 5028 20
18839 3789 9551 42
18840 3789 8610 20
18841 3789 324 59
18842 3789 5282 36
18843 3790 8229 66
18844 3790 3292 5
18845 3790 8359 98
18846 3790 372 64
18847 3790 7041 64
18848 3790 7698 30
18849 3791 1524 82
18850 3792 1947 87
18851 3792 5668 28
18852 3792 2954 78
18853 3793 4255 88
18854 3793 4609 49
18855 3793 5962 34
18856 3794 3725 64
18857 3794 1679 97
18858 3794 7792 51
18859 3794 9434 24
18860 3794 4451 46
18861 3794 616 24
18862 3795 9952 94
18863 3795 2742 80
18864 3795 152 69
18865 3795 934 30
18866 3795 2780 46
18867 3795 815 72
18868 3795 9415 33
18869 3796 2325 86
18870 3796 7522 56
18871 3796 4860 81
18872 3796 5975 77
18873 3796 3748 93
18874 3796 5161 32
18875 3796 8003 83
18876 3796 7575 53
18877 3796 3719 8
18878 3798 2572 97
18879 3798 7462 48
18880 3798 277 18
18881 3799 9161 46
18882 3799 5350 36
18883 3799 8930 52
18884 3799 9514 91
18885 3799 7123 70
18886 3799 910 26
18887 3800 3867 31
18888 3800 1087 36
18889 3800 7070 75
18890 3800 9217 70
18891 3800 8787 85
18892 3800 5624 90
18893 3801 7413 46
18894 3801 778 69
18895 3801 5201 61
18896 3801 5163 32
18897 3801 439 5
18898 3801 7989 15
18899 3802 5987 34
18900 3802 7839 67
18901 3802 4895 6
18902 3802 5378 5
18903 3802 5006 22
18904 3802 5781 20
18905 3803 7163 57
18906 3803 9078 49
18907 3803 1846 38
18908 3803 8117 47
18909 3803 9555 24
18910 3804 244 38
18911 3804 2625 17
18912 3804 7699 26
18913 3804 9292 56
18914 3805 804 9
18915 3805 3101 17
18916 3805 2739 75
18917 3805 1908 82
18918 3807 848 90
18919 3807 6717 22
18920 3807 4427 23
18921 3807 7551 87
18922 3808 7556 56
18923 3808 5808 60
18924 3808 8203 55
18925 3808 6560 80
18926 3809 3188 94
18927 3809 8931 99
18928 3809 1459 45
18929 3809 3136 63
18930 3809 3196 64
18931 3810 7808 85
18932 3810 3118 74
18933 3810 3043 72
18934 3810 2826 11
18935 3810 9061 75
18936 3810 8610 98
18937 3811 5019 82
18938 3811 3202 48
18939 3811 2316 44
18940 3811 8327 32
18941 3812 8098 58
18942 3812 7943 64
18943 3812 1609 43
18944 3812 9407 31
18945 3813 1693 79
18946 3813 2933 67
18947 3813 4634 23
18948 3813 5047 38
18949 3814 4934 42
18950 3814 8720 44
18951 3814 5784 77
18952 3814 4430 41
18953 3814 6339 65
18954 3814 3392 85
18955 3815 8259 11
18956 3815 4086 11
18957 3815 734 62
18958 3815 8135 75
18959 3815 9934 82
18960 3815 1428 7
18961 3815 9256 18
18962 3815 8726 22
18963 3816 5338 42
18964 3816 4649 1
18965 3816 316 30
18966 3816 5352 85
18967 3816 7573 32
18968 3816 3641 60
18969 3816 6235 54
18970 3817 2236 39
18971 3817 6507 57
18972 3817 638 95
18973 3818 9188 99
18974 3818 5850 31
18975 3818 3845 83
18976 3818 9935 93
18977 3818 7527 28
18978 3819 9028 27
18979 3819 8294 87
18980 3819 5091 81
18981 3819 5587 36
18982 3820 66 22
18983 3820 9366 65
18984 3821 6797 85
18985 3821 4156 22
18986 3821 8488 36
18987 3821 5646 6
18988 3821 9600 5
18989 3822 6488 95
18990 3822 6657 56
18991 3823 9495 16
18992 3823 2028 24
18993 3823 2124 64
18994 3823 7065 19
18995 3823 3800 82
18996 3823 8903 36
18997 3824 7256 95
18998 3824 5878 78
18999 3824 9332 86
19000 3824 4749 9
19001 3824 9263 39
19002 3825 2003 48
19003 3825 5128 38
19004 3825 8243 91
19005 3825 6675 24
19006 3825 980 34
19007 3825 3305 71
19008 3825 3229 76
19009 3825 6331 15
19010 3825 9282 22
19011 3826 5266 63
19012 3826 3045 97
19013 3826 3399 42
19014 3826 6353 9
19015 3826 3997 24
19016 3826 9761 35
19017 3826 9228 41
19018 3826 5906 63
19019 3826 3232 87
19020 3826 3470 77
19021 3826 7905 31
19022 3827 6940 70
19023 3827 7679 14
19024 3827 9014 74
19025 3827 7471 93
19026 3827 7898 5
19027 3827 288 54
19028 3827 1274 28
19029 3828 3368 85
19030 3828 667 30
19031 3828 786 14
19032 3828 3299 30
19033 3828 1286 43
19034 3828 7248 51
19035 3828 1012 96
19036 3828 6937 68
19037 3828 7957 52
19038 3829 5805 35
19039 3829 5322 5
19040 3829 9973 66
19041 3829 504 58
19042 3829 5343 35
19043 3829 9841 58
19044 3829 4056 77
19045 3830 770 12
19046 3830 1761 69
19047 3830 6306 49
19048 3830 9295 41
19049 3830 3040 4
19050 3830 8353 57
19051 3831 4018 98
19052 3831 1209 52
19053 3831 5948 34
19054 3831 1562 64
19055 3831 956 87
19056 3831 8533 86
19057 3832 7257 53
19058 3832 6657 1
19059 3832 4692 69
19060 3832 4547 73
19061 3832 8947 21
19062 3832 5081 50
19063 3833 8318 14
19064 3833 9043 34
19065 3833 9250 35
19066 3833 6015 35
19067 3833 6618 18
19068 3833 285 69
19069 3833 2506 100
19070 3834 1664 33
19071 3834 9917 60
19072 3834 1877 68
19073 3835 9958 5
19074 3835 543 60
19075 3835 3532 31
19076 3835 5574 59
19077 3836 3657 88
19078 3836 8239 76
19079 3836 1443 64
19080 3836 40 30
19081 3837 6875 58
19082 3837 1010 69
19083 3837 7701 58
19084 3837 3768 54
19085 3837 8566 80
19086 3837 7222 77
19087 3837 1890 43
19088 3837 118 74
19089 3837 8266 60
19090 3837 841 32
19091 3838 3814 3
19092 3838 2907 50
19093 3838 8659 65
19094 3838 8378 66
19095 3838 6420 70
19096 3839 3772 43
19097 3839 5929 24
19098 3839 8107 31
19099 3839 4924 99
19100 3839 403 5
19101 3840 5477 53
19102 3840 5742 13
19103 3840 9930 21
19104 3841 5335 31
19105 3841 3183 51
19106 3841 6836 78
19107 3841 1775 87
19108 3842 7413 38
19109 3842 8695 32
19110 3842 4347 52
19111 3843 5113 79
19112 3843 6904 2
19113 3843 2517 41
19114 3844 4910 87
19115 3844 4505 99
19116 3845 9244 78
19117 3845 9499 46
19118 3845 716 58
19119 3845 8737 57
19120 3845 2718 24
19121 3845 9982 97
19122 3846 8999 90
19123 3846 5866 89
19124 3846 2034 74
19125 3846 574 9
19126 3846 2190 41
19127 3846 7015 54
19128 3846 600 64
19129 3847 49 40
19130 3847 8518 24
19131 3847 4880 39
19132 3847 1572 92
19133 3848 9845 73
19134 3848 5453 63
19135 3848 7713 98
19136 3848 9508 89
19137 3848 7964 8
19138 3849 5280 42
19139 3849 8580 61
19140 3849 8118 82
19141 3849 4064 77
19142 3849 7365 68
19143 3849 180 9
19144 3849 2290 38
19145 3850 2821 35
19146 3850 308 23
19147 3850 2550 5
19148 3850 5663 91
19149 3850 7383 90
19150 3850 862 59
19151 3850 4753 78
19152 3851 2508 57
19153 3851 6862 14
19154 3851 963 98
19155 3851 3734 32
19156 3852 7046 44
19157 3852 5851 75
19158 3852 3359 41
19159 3852 8636 12
19160 3852 8209 95
19161 3852 7180 44
19162 3852 6342 71
19163 3853 3406 49
19164 3853 7698 15
19165 3853 5490 89
19166 3853 4461 89
19167 3853 3751 94
19168 3854 7731 94
19169 3854 6680 99
19170 3854 3952 5
19171 3854 3374 31
19172 3855 367 87
19173 3855 2674 92
19174 3855 3327 59
19175 3855 2650 17
19176 3855 3119 55
19177 3855 9753 74
19178 3856 5149 41
19179 3856 875 47
19180 3856 7047 61
19181 3856 6328 67
19182 3857 7125 37
19183 3857 250 45
19184 3857 3442 62
19185 3857 2615 51
19186 3858 7191 28
19187 3858 234 52
19188 3859 5847 94
19189 3859 4693 65
19190 3859 4537 12
19191 3859 1348 7
19192 3859 9211 12
19193 3859 7039 57
19194 3860 5820 20
19195 3860 4179 90
19196 3860 6950 88
19197 3861 7905 69
19198 3861 1924 41
19199 3861 7591 52
19200 3861 2537 1
19201 3862 5726 89
19202 3862 730 53
19203 3862 3417 100
19204 3862 2824 36
19205 3862 6492 78
19206 3862 6911 50
19207 3863 7628 5
19208 3863 3972 49
19209 3863 8939 96
19210 3863 6828 73
19211 3863 5785 27
19212 3863 1056 64
19213 3863 1755 81
19214 3863 1059 18
19215 3863 3011 23
19216 3863 3519 39
19217 3863 6960 87
19218 3864 1551 85
19219 3864 3897 88
19220 3864 4441 48
19221 3864 9231 86
19222 3864 1379 10
19223 3865 5320 63
19224 3865 9489 74
19225 3865 3727 12
19226 3865 4314 14
19227 3866 7427 27
19228 3866 8161 28
19229 3866 2897 16
19230 3866 5607 5
19231 3866 6559 16
19232 3866 7203 92
19233 3866 6761 33
19234 3866 7950 73
19235 3866 4910 48
19236 3867 198 12
19237 3867 92 29
19238 3867 7993 14
19239 3867 7006 4
19240 3868 1194 45
19241 3868 7502 90
19242 3869 5164 49
19243 3869 2158 87
19244 3870 3470 29
19245 3870 7434 60
19246 3870 7104 68
19247 3870 9190 1
19248 3870 4241 11
19249 3870 4960 88
19250 3870 7613 82
19251 3870 474 48
19252 3870 1636 63
19253 3870 6558 10
19254 3871 1279 6
19255 3871 9676 40
19256 3871 5806 16
19257 3871 2251 24
19258 3871 2081 66
19259 3871 721 37
19260 3871 3894 27
19261 3872 5466 65
19262 3872 6592 96
19263 3872 3903 63
19264 3872 6957 3
19265 3872 1418 22
19266 3872 5160 54
19267 3872 889 52
19268 3872 1609 40
19269 3872 6548 73
19270 3872 3589 78
19271 3873 6491 63
19272 3873 9107 70
19273 3873 1151 100
19274 3873 4254 70
19275 3873 3646 62
19276 3873 328 12
19277 3873 8246 92
19278 3874 1484 38
19279 3874 4976 64
19280 3874 2932 40
19281 3874 5053 74
19282 3874 1485 36
19283 3874 1689 28
19284 3875 9101 28
19285 3875 3898 82
19286 3875 5115 49
19287 3875 4639 45
19288 3876 55 94
19289 3876 3183 66
19290 3876 8053 27
19291 3877 4611 35
19292 3877 844 62
19293 3877 8859 95
19294 3877 1213 51
19295 3878 8275 46
19296 3878 520 98
19297 3878 6281 76
19298 3878 1955 61
19299 3878 2265 98
19300 3878 1002 82
19301 3879 3382 39
19302 3879 3833 68
19303 3879 4439 30
19304 3880 3914 36
19305 3880 936 24
19306 3880 3091 1
19307 3881 2719 84
19308 3881 5411 69
19309 3881 4272 28
19310 3882 2203 31
19311 3882 1368 62
19312 3882 7158 91
19313 3882 3060 28
19314 3883 7903 95
19315 3883 5679 77
19316 3883 5646 39
19317 3883 8917 33
19318 3883 8387 99
19319 3883 6275 22
19320 3883 6200 11
19321 3884 5947 29
19322 3884 6058 14
19323 3884 4528 68
19324 3884 1380 85
19325 3884 6512 31
19326 3886 752 34
19327 3886 3957 27
19328 3886 6289 39
19329 3886 2570 13
19330 3886 8870 69
19331 3887 2684 60
19332 3887 3093 12
19333 3887 6192 51
19334 3888 3618 46
19335 3888 6239 39
19336 3889 687 13
19337 3889 8 97
19338 3889 8826 27
19339 3889 2024 38
19340 3889 6442 100
19341 3889 1407 57
19342 3889 3525 32
19343 3890 1078 3
19344 3890 4462 61
19345 3890 5651 95
19346 3890 2532 44
19347 3890 2646 15
19348 3891 5007 63
19349 3891 6623 93
19350 3891 6100 76
19351 3891 2617 86
19352 3891 852 90
19353 3891 1703 23
19354 3892 9902 5
19355 3892 3023 95
19356 3892 9431 46
19357 3892 6858 91
19358 3892 2702 4
19359 3892 7321 19
19360 3893 4479 78
19361 3893 6200 72
19362 3893 5271 84
19363 3893 9882 87
19364 3893 7018 73
19365 3894 6535 79
19366 3894 7237 10
19367 3894 7076 13
19368 3894 60 91
19369 3894 8148 80
19370 3894 9203 12
19371 3894 2306 51
19372 3895 1051 90
19373 3895 4635 80
19374 3895 2364 12
19375 3895 516 21
19376 3895 8346 6
19377 3895 4406 81
19378 3896 7095 95
19379 3896 2915 67
19380 3896 340 53
19381 3896 7788 35
19382 3896 4714 44
19383 3896 1428 58
19384 3897 9924 100
19385 3897 5742 85
19386 3897 3975 45
19387 3897 9928 32
19388 3897 8067 3
19389 3897 8574 85
19390 3897 4647 23
19391 3897 8019 69
19392 3898 7989 88
19393 3898 4590 35
19394 3898 725 41
19395 3898 3323 81
19396 3898 3415 78
19397 3898 8682 43
19398 3898 8612 69
19399 3898 5238 34
19400 3899 1717 24
19401 3899 984 62
19402 3899 2154 75
19403 3900 9127 55
19404 3900 1980 10
19405 3900 9954 2
19406 3900 601 55
19407 3900 1936 36
19408 3900 2892 79
19409 3900 3072 90
19410 3901 1483 50
19411 3901 2290 62
19412 3901 7403 3
19413 3901 4046 39
19414 3901 2252 81
19415 3901 598 28
19416 3901 2275 42
19417 3902 6146 53
19418 3902 3322 78
19419 3902 82 27
19420 3902 9968 51
19421 3902 656 43
19422 3902 5948 82
19423 3902 1872 25
19424 3903 4919 30
19425 3903 7533 55
19426 3903 7468 46
19427 3903 1189 62
19428 3903 2093 69
19429 3904 3710 70
19430 3904 7695 35
19431 3904 9852 15
19432 3904 9414 42
19433 3905 3072 49
19434 3905 9657 9
19435 3905 6843 78
19436 3905 6569 71
19437 3905 7492 98
19438 3905 9005 3
19439 3905 6792 4
19440 3905 7115 65
19441 3906 6117 43
19442 3906 2888 42
19443 3907 9174 9
19444 3907 3057 89
19445 3907 6790 15
19446 3907 6945 70
19447 3907 3234 38
19448 3908 1912 76
19449 3908 8155 27
19450 3908 8438 65
19451 3908 2713 22
19452 3908 1448 64
19453 3908 1596 20
19454 3908 1622 2
19455 3909 3401 4
19456 3909 1837 39
19457 3909 9929 74
19458 3910 4292 2
19459 3910 2065 65
19460 3910 1211 87
19461 3911 3669 24
19462 3911 2319 16
19463 3911 1781 4
19464 3911 881 12
19465 3911 9576 18
19466 3911 3882 19
19467 3911 3619 37
19468 3912 9534 46
19469 3912 7332 51
19470 3913 3370 19
19471 3913 2500 57
19472 3913 7205 28
19473 3913 1245 71
19474 3913 6998 69
19475 3914 4646 63
19476 3914 9863 38
19477 3914 551 12
19478 3914 9508 42
19479 3914 8872 83
19480 3914 6840 24
19481 3914 8714 75
19482 3914 2251 20
19483 3914 1137 48
19484 3915 3562 78
19485 3915 1256 16
19486 3915 1014 4
19487 3915 5677 96
19488 3915 2217 31
19489 3915 2656 1
19490 3915 4858 5
19491 3915 8786 27
19492 3915 1982 12
19493 3915 4970 99
19494 3915 4801 18
19495 3916 6188 82
19496 3916 1589 31
19497 3916 4347 33
19498 3917 8334 30
19499 3917 6780 67
19500 3917 8811 93
19501 3917 1780 40
19502 3917 4507 84
19503 3917 6118 5
19504 3917 169 25
19505 3918 4993 48
19506 3918 8293 23
19507 3918 689 51
19508 3918 9369 36
19509 3918 4735 8
19510 3919 9580 73
19511 3919 5489 79
19512 3919 5981 15
19513 3920 7717 57
19514 3920 2321 52
19515 3920 6406 38
19516 3921 3213 51
19517 3921 5122 54
19518 3921 3734 61
19519 3921 9265 44
19520 3921 3656 2
19521 3921 5661 78
19522 3921 3546 75
19523 3922 1153 56
19524 3922 6043 28
19525 3923 2737 58
19526 3923 7992 48
19527 3923 7584 71
19528 3923 212 72
19529 3923 6103 62
19530 3924 9050 19
19531 3924 7396 80
19532 3924 3322 90
19533 3924 1909 95
19534 3924 9561 64
19535 3924 8934 62
19536 3925 3449 17
19537 3925 6021 78
19538 3925 7110 27
19539 3925 1243 11
19540 3925 2635 74
19541 3926 4636 17
19542 3926 7667 75
19543 3926 3651 10
19544 3926 9547 66
19545 3926 3871 17
19546 3927 6973 44
19547 3927 639 97
19548 3927 2263 10
19549 3927 2160 59
19550 3927 1550 32
19551 3927 9829 39
19552 3928 7143 40
19553 3928 740 27
19554 3928 2124 63
19555 3928 8021 59
19556 3928 8820 66
19557 3928 9632 7
19558 3929 2137 61
19559 3929 8939 14
19560 3929 5506 60
19561 3929 1167 38
19562 3929 8233 45
19563 3930 6428 76
19564 3930 592 42
19565 3930 2356 55
19566 3931 9132 64
19567 3931 5607 91
19568 3931 5175 41
19569 3931 529 58
19570 3931 4716 42
19571 3932 6029 88
19572 3932 3688 12
19573 3932 7801 93
19574 3932 940 51
19575 3932 8827 25
19576 3932 8892 68
19577 3934 5011 80
19578 3934 812 71
19579 3934 3490 29
19580 3934 2927 71
19581 3934 2319 100
19582 3934 6323 98
19583 3934 7213 44
19584 3934 2187 72
19585 3934 2659 14
19586 3935 2219 10
19587 3935 8292 7
19588 3935 1737 11
19589 3935 1433 14
19590 3935 1380 66
19591 3935 954 82
19592 3936 6258 28
19593 3936 3806 16
19594 3936 4688 25
19595 3936 4113 12
19596 3937 5870 79
19597 3937 8220 21
19598 3937 1204 12
19599 3937 5606 14
19600 3938 3403 67
19601 3938 8809 8
19602 3938 8905 26
19603 3938 3762 69
19604 3939 6511 75
19605 3939 9902 16
19606 3939 1524 43
19607 3939 958 58
19608 3940 2563 20
19609 3940 770 17
19610 3940 2763 21
19611 3940 9487 16
19612 3940 5255 1
19613 3940 7423 87
19614 3940 505 83
19615 3941 8278 94
19616 3941 4100 35
19617 3941 5269 29
19618 3941 6871 33
19619 3941 419 55
19620 3942 9015 76
19621 3942 6460 42
19622 3942 8090 75
19623 3942 509 85
19624 3943 4596 9
19625 3943 4655 86
19626 3943 2404 92
19627 3943 9363 68
19628 3944 7142 89
19629 3944 216 18
19630 3944 3417 26
19631 3944 2848 37
19632 3944 564 15
19633 3945 7369 43
19634 3945 867 57
19635 3945 2939 92
19636 3945 5508 53
19637 3945 7570 40
19638 3945 8601 87
19639 3945 4345 68
19640 3945 285 78
19641 3945 9999 29
19642 3945 6798 16
19643 3945 4576 98
19644 3945 9277 86
19645 3946 5859 38
19646 3946 8674 91
19647 3946 1910 1
19648 3946 108 68
19649 3946 5026 62
19650 3946 1180 40
19651 3947 2374 70
19652 3947 4840 47
19653 3947 325 70
19654 3947 8689 46
19655 3948 255 77
19656 3948 8289 71
19657 3948 5440 43
19658 3948 9633 28
19659 3948 4140 16
19660 3948 2653 64
19661 3949 8404 4
19662 3949 6936 21
19663 3949 6162 32
19664 3950 5281 34
19665 3950 6131 50
19666 3950 2577 38
19667 3950 103 81
19668 3950 7954 19
19669 3951 7982 90
19670 3951 5486 17
19671 3951 2602 75
19672 3951 1564 49
19673 3951 5434 14
19674 3952 4512 61
19675 3952 3655 98
19676 3952 7764 57
19677 3952 8069 5
19678 3952 9051 28
19679 3952 4641 1
19680 3952 2889 80
19681 3952 7243 12
19682 3953 6815 2
19683 3953 6611 33
19684 3953 2574 60
19685 3953 3784 98
19686 3953 232 53
19687 3953 9738 15
19688 3954 3636 66
19689 3954 7598 93
19690 3954 544 88
19691 3954 4830 64
19692 3954 3621 63
19693 3954 2058 10
19694 3955 1703 10
19695 3955 9121 100
19696 3955 5392 14
19697 3955 7809 67
19698 3956 6724 55
19699 3956 337 61
19700 3956 9106 94
19701 3956 7221 19
19702 3957 1380 98
19703 3957 6999 67
19704 3957 8986 40
19705 3957 2761 3
19706 3957 1810 45
19707 3958 4907 8
19708 3958 4582 33
19709 3958 9961 34
19710 3958 4116 76
19711 3958 5694 11
19712 3959 1924 76
19713 3959 4734 97
19714 3959 6078 73
19715 3959 8648 57
19716 3960 484 56
19717 3960 5343 23
19718 3960 4134 44
19719 3961 9680 19
19720 3961 8704 8
19721 3961 4096 94
19722 3961 4160 8
19723 3962 2201 7
19724 3962 9164 52
19725 3962 264 82
19726 3962 1080 78
19727 3962 7084 81
19728 3962 2108 34
19729 3962 2884 66
19730 3963 1440 77
19731 3963 2675 30
19732 3963 9196 39
19733 3965 1759 97
19734 3965 6762 62
19735 3965 7853 59
19736 3965 9402 93
19737 3965 7694 76
19738 3965 2440 49
19739 3966 3161 98
19740 3966 3192 10
19741 3966 540 52
19742 3966 3700 79
19743 3966 3520 22
19744 3967 6122 4
19745 3967 5156 72
19746 3968 4210 62
19747 3968 9388 76
19748 3969 5817 50
19749 3969 4420 47
19750 3969 498 62
19751 3969 3100 17
19752 3969 4211 24
19753 3969 8648 48
19754 3970 9963 33
19755 3970 9409 45
19756 3971 7326 95
19757 3971 8572 74
19758 3971 7727 51
19759 3971 760 59
19760 3971 5087 3
19761 3972 9881 83
19762 3972 7163 62
19763 3972 9720 19
19764 3972 5871 71
19765 3972 2386 76
19766 3973 4016 75
19767 3973 6547 50
19768 3974 402 52
19769 3974 8161 48
19770 3974 9309 14
19771 3974 4620 16
19772 3975 5056 56
19773 3975 1954 36
19774 3975 9908 61
19775 3975 6505 23
19776 3975 1419 31
19777 3975 9726 6
19778 3975 5468 41
19779 3976 6234 91
19780 3976 7746 88
19781 3976 355 13
19782 3976 4807 57
19783 3977 331 38
19784 3977 1701 20
19785 3977 9189 84
19786 3977 2904 71
19787 3977 1238 23
19788 3977 1623 21
19789 3977 5596 16
19790 3978 7703 80
19791 3978 7142 63
19792 3978 6158 81
19793 3978 4077 63
19794 3978 3317 16
19795 3979 4849 70
19796 3979 1455 83
19797 3979 3971 81
19798 3980 4015 71
19799 3980 403 92
19800 3980 9296 65
19801 3980 4406 64
19802 3981 9800 69
19803 3981 8418 10
19804 3981 2093 64
19805 3981 8143 80
19806 3982 72 53
19807 3982 982 56
19808 3982 9045 96
19809 3982 9902 72
19810 3982 297 69
19811 3983 2673 23
19812 3983 4324 91
19813 3983 5974 5
19814 3984 9642 44
19815 3984 6004 63
19816 3984 5610 17
19817 3984 6883 63
19818 3985 4944 15
19819 3985 8527 38
19820 3985 915 7
19821 3986 6921 7
19822 3986 7239 1
19823 3986 6445 60
19824 3986 8641 15
19825 3986 9186 25
19826 3986 3410 31
19827 3987 7963 36
19828 3987 2756 5
19829 3987 3418 7
19830 3988 3967 20
19831 3988 5227 12
19832 3988 7921 67
19833 3988 5984 6
19834 3988 6867 98
19835 3988 4367 89
19836 3988 4081 20
19837 3989 3231 33
19838 3989 6798 31
19839 3990 6362 47
19840 3990 8319 4
19841 3991 3861 2
19842 3991 2846 8
19843 3991 502 44
19844 3991 4397 65
19845 3991 9985 68
19846 3991 4822 84
19847 3992 90 15
19848 3992 6652 46
19849 3992 512 55
19850 3992 6361 66
19851 3992 6200 81
19852 3992 9034 77
19853 3992 1494 20
19854 3992 9996 99
19855 3993 5824 30
19856 3993 8842 12
19857 3993 9382 84
19858 3994 3822 91
19859 3994 8579 59
19860 3994 8402 52
19861 3994 1382 100
19862 3995 1403 14
19863 3995 5401 69
19864 3995 6801 40
19865 3995 6122 8
19866 3995 2040 45
19867 3995 3521 23
19868 3996 7309 23
19869 3996 8931 96
19870 3996 1947 15
19871 3996 6026 56
19872 3996 7869 4
19873 3997 8899 44
19874 3997 5177 54
19875 3997 6538 6
19876 3997 3567 6
19877 3998 6165 39
19878 3998 4837 53
19879 3998 1671 25
19880 3998 4521 91
19881 3998 626 26
19882 3998 2056 16
19883 3999 6441 62
19884 3999 7936 39
19885 3999 1655 38
19886 3999 5445 95
19887 3999 6000 45
19888 4000 4633 77
19889 4000 9247 95
19890 4000 4395 80
19891 4000 4204 40
19892 4000 1972 36
19893 4000 3694 4
19894 4000 9713 16
19895 4000 4593 57
19896 4000 6618 15
19897 4001 481 57
19898 4001 6827 3
19899 4001 5235 49
19900 4001 3750 51
19901 4001 1193 42
19902 4002 3412 40
19903 4002 1410 19
19904 4002 8112 92
19905 4002 2247 23
19906 4002 1763 77
19907 4002 1770 25
19908 4002 4511 12
19909 4003 5281 64
19910 4003 6009 67
19911 4003 5279 22
19912 4003 2948 61
19913 4003 2359 99
19914 4003 1767 26
19915 4004 2619 95
19916 4004 4930 80
19917 4005 7306 42
19918 4005 1942 65
19919 4005 9019 53
19920 4005 801 78
19921 4005 1541 95
19922 4005 7979 29
19923 4006 9603 96
19924 4006 6518 39
19925 4006 2926 68
19926 4006 8454 46
19927 4007 4736 80
19928 4007 3999 51
19929 4007 8142 20
19930 4007 799 87
19931 4007 2050 81
19932 4007 375 38
19933 4007 7449 37
19934 4007 696 30
19935 4008 9433 100
19936 4008 6992 65
19937 4008 7109 53
19938 4008 3875 30
19939 4008 9885 29
19940 4008 2099 85
19941 4009 5279 23
19942 4009 1136 40
19943 4009 7442 94
19944 4010 4420 21
19945 4010 7897 47
19946 4010 778 10
19947 4010 6074 85
19948 4010 6175 63
19949 4011 3179 2
19950 4011 8957 2
19951 4011 3193 52
19952 4012 7241 51
19953 4012 3230 29
19954 4012 8914 98
19955 4013 3402 74
19956 4013 8328 78
19957 4013 9303 100
19958 4013 8224 40
19959 4013 1361 70
19960 4014 1770 18
19961 4014 2213 22
19962 4014 1235 92
19963 4014 7028 36
19964 4014 6467 31
19965 4014 3426 11
19966 4014 6256 68
19967 4015 5853 24
19968 4015 8991 39
19969 4015 2512 45
19970 4015 7720 45
19971 4015 3244 53
19972 4016 7628 92
19973 4016 1738 83
19974 4016 3612 25
19975 4016 7998 20
19976 4016 7448 7
19977 4016 3495 71
19978 4017 7224 56
19979 4017 8341 25
19980 4017 2532 40
19981 4018 1967 47
19982 4018 5767 61
19983 4018 9246 6
19984 4018 1233 93
19985 4018 133 37
19986 4018 977 66
19987 4018 154 39
19988 4019 3080 6
19989 4019 5161 80
19990 4019 9822 76
19991 4019 6940 66
19992 4020 2269 10
19993 4020 6734 37
19994 4020 1887 71
19995 4020 8178 37
19996 4020 5717 96
19997 4020 4580 76
19998 4020 3635 80
19999 4020 9815 11
20000 4021 5339 69
20001 4021 7635 4
20002 4021 759 4
20003 4021 7615 22
20004 4021 321 59
20005 4021 5618 12
20006 4021 6000 25
20007 4021 5584 63
20008 4021 8471 24
20009 4022 9758 4
20010 4022 113 98
20011 4022 6951 66
20012 4022 1938 84
20013 4023 4392 90
20014 4023 3753 12
20015 4024 9837 23
20016 4024 5071 67
20017 4024 5013 86
20018 4025 5813 47
20019 4025 4732 65
20020 4025 1544 2
20021 4025 2203 15
20022 4025 1043 58
20023 4026 5698 84
20024 4026 7882 23
20025 4026 5758 38
20026 4026 8811 39
20027 4026 2679 72
20028 4027 1985 11
20029 4027 2034 2
20030 4027 8819 92
20031 4027 3341 43
20032 4027 4878 22
20033 4027 3244 32
20034 4027 8578 80
20035 4027 5048 97
20036 4027 5592 31
20037 4028 3921 27
20038 4028 5514 93
20039 4028 619 64
20040 4028 6964 100
20041 4028 3436 78
20042 4029 698 23
20043 4029 2994 5
20044 4029 5412 88
20045 4029 1410 70
20046 4030 2002 87
20047 4030 1738 46
20048 4030 4396 12
20049 4030 2907 54
20050 4031 472 21
20051 4031 8597 87
20052 4032 6739 3
20053 4032 2578 78
20054 4032 6556 33
20055 4032 2022 72
20056 4032 1040 77
20057 4032 8532 11
20058 4032 485 12
20059 4032 311 68
20060 4032 2662 19
20061 4032 4297 17
20062 4032 6222 25
20063 4032 536 24
20064 4033 4998 26
20065 4033 5727 79
20066 4033 1830 65
20067 4033 9168 26
20068 4033 2381 79
20069 4033 7095 80
20070 4033 8406 29
20071 4034 8969 57
20072 4035 3076 6
20073 4035 2231 60
20074 4035 7708 34
20075 4035 2726 23
20076 4035 1346 75
20077 4036 9038 53
20078 4036 7736 86
20079 4036 9576 55
20080 4036 7632 53
20081 4036 4967 29
20082 4036 2603 90
20083 4036 937 76
20084 4036 1246 7
20085 4036 1251 95
20086 4036 3628 58
20087 4036 4424 65
20088 4036 7035 46
20089 4036 1038 16
20090 4037 9241 72
20091 4037 5478 14
20092 4037 8600 97
20093 4037 1829 41
20094 4038 4016 48
20095 4038 8508 62
20096 4038 3140 76
20097 4038 7802 67
20098 4038 9628 29
20099 4038 526 87
20100 4039 9667 37
20101 4039 7157 38
20102 4039 5099 61
20103 4039 309 79
20104 4040 2838 76
20105 4040 9574 65
20106 4040 4956 74
20107 4041 6834 30
20108 4041 7892 26
20109 4041 1871 79
20110 4041 4121 79
20111 4041 1240 55
20112 4041 7271 62
20113 4042 9031 84
20114 4042 4548 70
20115 4042 1635 74
20116 4043 4728 64
20117 4043 2008 40
20118 4044 9407 13
20119 4044 9739 17
20120 4044 3095 55
20121 4044 999 19
20122 4044 9805 87
20123 4044 52 69
20124 4044 839 25
20125 4045 9082 66
20126 4045 7829 42
20127 4045 6187 61
20128 4045 7331 77
20129 4045 7156 40
20130 4045 6632 32
20131 4046 9048 90
20132 4046 6287 40
20133 4046 4761 77
20134 4047 4941 4
20135 4047 5855 12
20136 4047 8466 32
20137 4047 1033 36
20138 4047 4356 86
20139 4048 900 73
20140 4048 2850 69
20141 4048 4644 10
20142 4048 7509 30
20143 4048 8927 39
20144 4048 9128 86
20145 4048 8566 94
20146 4048 5944 10
20147 4049 4938 7
20148 4049 5395 45
20149 4049 6082 30
20150 4050 8858 56
20151 4050 646 66
20152 4050 2250 22
20153 4050 5007 36
20154 4050 5553 27
20155 4050 2450 45
20156 4050 2817 4
20157 4050 3558 77
20158 4050 2405 36
20159 4050 1053 89
20160 4051 5812 95
20161 4051 6938 57
20162 4051 3563 33
20163 4051 3559 54
20164 4051 9572 4
20165 4051 2437 61
20166 4051 4967 25
20167 4051 4335 4
20168 4051 8065 29
20169 4052 9134 93
20170 4052 1851 25
20171 4052 2719 71
20172 4052 7188 73
20173 4052 7904 40
20174 4052 5934 37
20175 4052 2593 96
20176 4052 3984 48
20177 4052 7630 92
20178 4053 1470 42
20179 4053 4936 35
20180 4053 940 35
20181 4054 9729 52
20182 4054 1032 57
20183 4054 6226 56
20184 4054 7371 6
20185 4054 1408 29
20186 4055 7753 11
20187 4055 3770 51
20188 4055 2579 77
20189 4055 7904 18
20190 4056 9928 19
20191 4056 3527 18
20192 4056 659 69
20193 4056 5746 53
20194 4056 9499 24
20195 4056 6744 53
20196 4056 3506 19
20197 4056 6950 58
20198 4056 877 49
20199 4057 7772 97
20200 4057 3690 37
20201 4057 6890 34
20202 4057 299 33
20203 4057 9090 77
20204 4057 3786 94
20205 4057 6114 87
20206 4057 3538 4
20207 4057 5086 100
20208 4058 4185 51
20209 4058 9882 75
20210 4058 8710 82
20211 4058 2977 46
20212 4059 8294 60
20213 4059 2259 55
20214 4059 5567 28
20215 4060 406 42
20216 4060 8430 53
20217 4060 5184 85
20218 4061 8857 48
20219 4061 431 33
20220 4061 5407 4
20221 4061 2166 55
20222 4061 2135 29
20223 4061 3237 75
20224 4062 7018 88
20225 4062 2582 30
20226 4062 314 50
20227 4062 6306 15
20228 4062 9986 2
20229 4062 3137 81
20230 4062 6695 70
20231 4063 2058 46
20232 4063 1400 85
20233 4063 7343 93
20234 4063 9822 95
20235 4063 1284 67
20236 4063 7584 73
20237 4063 6711 63
20238 4063 4793 62
20239 4063 1590 82
20240 4064 970 39
20241 4064 7223 16
20242 4064 5420 50
20243 4064 1599 42
20244 4064 6558 62
20245 4065 6718 95
20246 4065 5580 88
20247 4065 332 100
20248 4065 3349 51
20249 4066 1518 73
20250 4066 8439 76
20251 4066 2311 47
20252 4066 5494 3
20253 4067 8841 59
20254 4067 4255 37
20255 4067 6830 35
20256 4067 7079 23
20257 4067 9964 59
20258 4067 5597 21
20259 4067 5163 24
20260 4067 2885 80
20261 4068 5537 63
20262 4068 9904 78
20263 4068 8898 62
20264 4068 715 62
20265 4069 7114 30
20266 4069 5725 11
20267 4069 7539 8
20268 4069 4982 88
20269 4069 5570 7
20270 4069 1543 1
20271 4069 9118 36
20272 4070 3283 14
20273 4070 8164 41
20274 4070 4085 23
20275 4070 5795 51
20276 4071 5451 95
20277 4071 4898 3
20278 4071 9099 41
20279 4071 8202 32
20280 4071 6296 1
20281 4072 6638 10
20282 4072 590 14
20283 4072 1609 43
20284 4072 3830 66
20285 4072 8509 22
20286 4072 730 22
20287 4073 4893 75
20288 4073 6023 83
20289 4073 291 56
20290 4073 8634 93
20291 4073 2582 15
20292 4073 3971 28
20293 4074 4298 37
20294 4074 4714 23
20295 4074 5753 56
20296 4074 9491 70
20297 4075 4105 22
20298 4075 5770 29
20299 4075 9018 45
20300 4075 6039 24
20301 4075 9565 97
20302 4075 293 54
20303 4075 1593 7
20304 4075 9126 43
20305 4076 9332 15
20306 4076 7431 24
20307 4076 1301 40
20308 4077 8390 8
20309 4077 3633 4
20310 4077 4213 98
20311 4077 5224 48
20312 4077 1433 55
20313 4077 3446 48
20314 4077 5210 51
20315 4077 3781 63
20316 4077 8212 94
20317 4078 5756 54
20318 4078 6464 96
20319 4078 4578 56
20320 4079 9349 98
20321 4079 5312 14
20322 4079 1647 8
20323 4079 2701 84
20324 4079 6771 80
20325 4079 8668 25
20326 4080 7543 72
20327 4080 8266 49
20328 4080 9657 54
20329 4080 9390 98
20330 4080 7597 58
20331 4080 5702 50
20332 4080 9441 83
20333 4080 7798 100
20334 4081 8472 76
20335 4081 3204 95
20336 4081 9442 26
20337 4081 2289 97
20338 4082 9852 57
20339 4082 9703 30
20340 4083 4373 54
20341 4083 7891 33
20342 4083 6772 72
20343 4083 6479 36
20344 4084 6368 81
20345 4084 7976 50
20346 4084 5045 29
20347 4084 7549 74
20348 4085 7303 16
20349 4085 6251 87
20350 4085 6958 62
20351 4085 9846 84
20352 4085 3628 75
20353 4085 1861 45
20354 4085 8269 61
20355 4085 8574 81
20356 4086 7957 66
20357 4086 7711 51
20358 4086 9784 76
20359 4086 292 75
20360 4086 5929 38
20361 4086 8012 78
20362 4086 1354 93
20363 4087 5784 78
20364 4087 686 6
20365 4087 7887 38
20366 4087 1529 84
20367 4087 8704 36
20368 4087 8023 91
20369 4087 6994 23
20370 4088 194 58
20371 4088 6648 17
20372 4088 3672 30
20373 4088 231 60
20374 4088 7695 27
20375 4088 1020 28
20376 4088 7372 71
20377 4088 5922 81
20378 4089 917 45
20379 4089 4458 37
20380 4089 8704 18
20381 4089 8063 19
20382 4089 7650 72
20383 4089 1193 48
20384 4089 3215 93
20385 4090 3807 60
20386 4090 3220 25
20387 4090 6486 77
20388 4090 1264 90
20389 4090 2718 56
20390 4090 3156 76
20391 4091 4700 100
20392 4091 8667 2
20393 4091 386 47
20394 4092 8750 8
20395 4092 7613 58
20396 4092 858 50
20397 4092 1632 97
20398 4093 2863 93
20399 4093 3606 73
20400 4093 293 31
20401 4094 7903 39
20402 4094 569 84
20403 4095 2413 67
20404 4095 6344 5
20405 4095 2094 36
20406 4096 8431 94
20407 4096 3812 60
20408 4096 1805 86
20409 4096 9871 86
20410 4096 5813 18
20411 4097 7523 21
20412 4097 5013 32
20413 4097 8838 21
20414 4097 218 75
20415 4097 4583 73
20416 4098 8928 76
20417 4098 2373 21
20418 4098 5105 33
20419 4099 5168 96
20420 4099 2317 73
20421 4099 4601 83
20422 4099 8072 63
20423 4100 9782 27
20424 4100 5610 89
20425 4100 5444 23
20426 4100 1469 37
20427 4100 1512 39
20428 4101 631 94
20429 4101 9021 49
20430 4101 8754 87
20431 4101 2741 35
20432 4101 705 22
20433 4101 9672 12
20434 4101 8038 72
20435 4101 1350 53
20436 4101 2863 76
20437 4102 5623 87
20438 4102 6383 68
20439 4102 1460 6
20440 4102 6406 82
20441 4102 1620 66
20442 4102 2072 75
20443 4103 4503 48
20444 4103 6818 75
20445 4103 7280 35
20446 4104 8658 71
20447 4104 3124 50
20448 4104 6493 11
20449 4104 5485 21
20450 4104 6260 97
20451 4105 4186 89
20452 4105 917 20
20453 4105 9986 45
20454 4106 2075 39
20455 4106 1158 40
20456 4106 5198 96
20457 4106 3782 25
20458 4106 6272 68
20459 4107 8489 96
20460 4107 4993 42
20461 4107 6384 72
20462 4108 1476 95
20463 4108 5236 15
20464 4108 9229 6
20465 4108 194 76
20466 4108 4953 39
20467 4108 5328 21
20468 4108 3642 84
20469 4108 99 86
20470 4108 131 91
20471 4108 7737 6
20472 4109 2608 74
20473 4109 1439 22
20474 4109 8904 38
20475 4109 3219 85
20476 4109 9249 9
20477 4110 9160 40
20478 4110 883 19
20479 4110 3934 36
20480 4110 1485 23
20481 4110 8295 35
20482 4110 7572 47
20483 4110 9282 76
20484 4111 7163 27
20485 4111 540 64
20486 4111 9023 29
20487 4111 929 26
20488 4112 3364 5
20489 4112 432 87
20490 4112 9720 1
20491 4112 256 83
20492 4112 8401 48
20493 4112 913 49
20494 4113 4267 72
20495 4113 6937 29
20496 4113 3444 57
20497 4113 2827 97
20498 4113 6404 10
20499 4113 5621 89
20500 4113 7596 48
20501 4114 8135 47
20502 4115 8384 6
20503 4115 3905 55
20504 4115 5239 45
20505 4115 8372 27
20506 4115 7084 69
20507 4115 3779 37
20508 4116 3267 9
20509 4116 6849 30
20510 4116 2229 70
20511 4116 989 56
20512 4116 8589 29
20513 4116 6560 83
20514 4117 7576 32
20515 4117 4751 50
20516 4117 618 81
20517 4117 8869 5
20518 4117 8266 3
20519 4117 6647 21
20520 4118 7492 11
20521 4118 7530 32
20522 4118 7581 20
20523 4119 6628 37
20524 4119 2134 78
20525 4119 1330 48
20526 4119 9592 55
20527 4119 5379 63
20528 4119 8919 71
20529 4119 4250 92
20530 4120 1955 88
20531 4120 6464 56
20532 4120 6017 58
20533 4120 6463 72
20534 4121 4104 67
20535 4121 5065 9
20536 4121 8538 23
20537 4121 8707 21
20538 4121 6754 8
20539 4122 2213 20
20540 4122 3324 21
20541 4122 651 60
20542 4122 3888 15
20543 4123 724 30
20544 4123 5781 51
20545 4123 5333 91
20546 4123 6033 77
20547 4123 5020 11
20548 4123 961 70
20549 4124 3282 12
20550 4124 6233 7
20551 4124 3644 99
20552 4125 2262 95
20553 4125 9472 27
20554 4125 9870 35
20555 4126 2206 29
20556 4126 8946 82
20557 4126 7703 91
20558 4126 6161 52
20559 4126 8414 59
20560 4126 6679 88
20561 4126 4778 22
20562 4126 4272 97
20563 4127 3241 60
20564 4127 4736 56
20565 4127 9993 64
20566 4128 1504 50
20567 4128 4637 92
20568 4128 5049 62
20569 4128 5421 63
20570 4129 6042 56
20571 4129 7494 75
20572 4129 9614 83
20573 4129 8594 20
20574 4130 9184 96
20575 4130 1815 18
20576 4130 3748 68
20577 4130 1793 6
20578 4130 4792 4
20579 4130 493 66
20580 4131 1760 41
20581 4131 2387 74
20582 4131 3783 43
20583 4132 9591 86
20584 4132 4593 15
20585 4132 21 35
20586 4132 6696 61
20587 4132 3134 19
20588 4133 9915 21
20589 4133 3817 11
20590 4133 4340 88
20591 4134 6903 9
20592 4134 6778 43
20593 4134 1740 97
20594 4134 2455 99
20595 4134 5108 95
20596 4134 6531 23
20597 4135 8064 27
20598 4135 8832 21
20599 4135 2614 40
20600 4135 6965 92
20601 4135 8820 83
20602 4135 3381 54
20603 4135 1298 94
20604 4135 5163 23
20605 4136 2657 28
20606 4136 7242 80
20607 4136 5992 90
20608 4137 7839 48
20609 4137 967 75
20610 4137 5295 64
20611 4137 9296 71
20612 4137 8906 32
20613 4137 2270 12
20614 4137 4597 30
20615 4137 3346 75
20616 4137 5595 63
20617 4137 2233 11
20618 4138 7979 45
20619 4138 5712 39
20620 4138 6881 68
20621 4138 3687 46
20622 4138 5012 88
20623 4138 4641 24
20624 4138 4278 68
20625 4139 8067 97
20626 4139 6656 7
20627 4139 9691 38
20628 4139 8608 33
20629 4140 6868 8
20630 4140 2276 17
20631 4140 8540 65
20632 4141 33 89
20633 4141 8880 51
20634 4141 7666 68
20635 4141 2817 16
20636 4141 9805 56
20637 4141 8669 43
20638 4141 9748 48
20639 4141 6837 31
20640 4141 5868 30
20641 4141 856 33
20642 4142 209 1
20643 4142 370 42
20644 4142 1174 65
20645 4142 7297 55
20646 4142 9649 46
20647 4143 1280 38
20648 4143 6498 7
20649 4143 3380 11
20650 4144 8992 67
20651 4144 5392 69
20652 4144 2486 49
20653 4144 2428 16
20654 4144 5043 4
20655 4144 245 45
20656 4144 9395 37
20657 4144 672 96
20658 4145 2566 82
20659 4145 4385 80
20660 4146 3172 82
20661 4146 9323 46
20662 4146 2432 14
20663 4146 9288 65
20664 4146 7584 12
20665 4146 3204 60
20666 4147 3319 21
20667 4147 2021 86
20668 4147 3595 65
20669 4147 4596 56
20670 4147 5470 41
20671 4147 6569 90
20672 4147 6464 21
20673 4147 7481 29
20674 4147 1884 88
20675 4147 9796 19
20676 4148 6997 96
20677 4148 1729 57
20678 4148 804 28
20679 4148 3070 13
20680 4148 1129 100
20681 4148 4365 73
20682 4148 6410 75
20683 4148 5117 72
20684 4149 7340 36
20685 4149 2356 15
20686 4149 1767 31
20687 4149 6806 65
20688 4149 6655 96
20689 4149 6241 29
20690 4149 3133 27
20691 4149 5885 56
20692 4149 4162 47
20693 4149 2210 62
20694 4150 7301 60
20695 4150 5381 8
20696 4150 6054 93
20697 4150 3391 17
20698 4151 4676 80
20699 4151 6315 53
20700 4151 6499 70
20701 4151 3900 40
20702 4151 4487 38
20703 4152 5416 15
20704 4152 9216 82
20705 4152 8485 13
20706 4152 1862 35
20707 4152 6333 36
20708 4152 627 19
20709 4153 1643 48
20710 4153 9748 51
20711 4153 3204 43
20712 4153 5734 30
20713 4153 3627 68
20714 4154 471 82
20715 4154 38 54
20716 4154 52 81
20717 4154 136 59
20718 4154 9731 34
20719 4155 9974 30
20720 4155 7563 61
20721 4155 4365 67
20722 4155 3194 99
20723 4155 1157 83
20724 4155 1100 34
20725 4155 7801 49
20726 4156 3167 60
20727 4156 9472 21
20728 4156 8589 4
20729 4156 1333 75
20730 4156 2093 41
20731 4156 4152 5
20732 4156 1645 52
20733 4157 1286 98
20734 4157 4906 100
20735 4157 5241 38
20736 4157 7994 73
20737 4158 1184 46
20738 4158 2656 63
20739 4158 9785 37
20740 4159 9270 75
20741 4159 9090 46
20742 4159 7136 74
20743 4159 4465 21
20744 4159 1664 6
20745 4159 2199 60
20746 4160 1878 64
20747 4160 6526 6
20748 4160 2503 98
20749 4160 5688 27
20750 4161 5051 48
20751 4161 7155 64
20752 4161 3660 22
20753 4161 2688 4
20754 4162 8810 50
20755 4162 83 58
20756 4162 6099 45
20757 4162 794 56
20758 4162 5146 9
20759 4162 1841 52
20760 4162 1988 52
20761 4163 1619 87
20762 4163 8858 16
20763 4163 8458 56
20764 4163 3530 90
20765 4164 4562 42
20766 4164 4324 53
20767 4164 7576 94
20768 4164 5017 32
20769 4164 4370 43
20770 4165 5920 13
20771 4165 2900 30
20772 4165 9671 81
20773 4166 255 38
20774 4166 2270 1
20775 4166 8084 69
20776 4166 8340 28
20777 4168 5044 78
20778 4168 7551 49
20779 4168 7335 73
20780 4168 4541 70
20781 4169 3301 74
20782 4169 1849 38
20783 4169 6863 48
20784 4169 570 63
20785 4170 1323 74
20786 4170 5560 71
20787 4170 6120 11
20788 4170 8305 56
20789 4170 7726 96
20790 4171 8342 62
20791 4171 6103 13
20792 4171 7408 10
20793 4171 7691 36
20794 4171 9215 52
20795 4171 1815 85
20796 4171 1196 87
20797 4171 83 15
20798 4171 3534 63
20799 4171 1702 22
20800 4172 7227 9
20801 4172 8781 4
20802 4172 7523 52
20803 4172 5676 23
20804 4172 1972 7
20805 4172 4197 98
20806 4172 5380 70
20807 4173 5090 68
20808 4173 6132 32
20809 4173 9420 7
20810 4173 9432 80
20811 4174 8561 64
20812 4174 3721 16
20813 4174 6635 72
20814 4174 5160 63
20815 4174 1465 6
20816 4175 7837 32
20817 4175 2521 58
20818 4175 641 83
20819 4175 6975 64
20820 4175 2729 63
20821 4175 2722 65
20822 4175 997 84
20823 4175 5065 2
20824 4176 2302 8
20825 4176 5022 48
20826 4176 4858 47
20827 4176 7108 32
20828 4176 1538 91
20829 4176 7141 81
20830 4177 9800 46
20831 4177 394 60
20832 4177 1369 93
20833 4177 6839 36
20834 4177 9056 5
20835 4177 2147 49
20836 4178 2195 44
20837 4178 3006 96
20838 4178 8373 75
20839 4178 6653 17
20840 4178 4147 82
20841 4178 8532 88
20842 4178 419 58
20843 4179 8642 59
20844 4179 313 93
20845 4179 6553 54
20846 4179 6054 6
20847 4179 2982 94
20848 4180 4047 49
20849 4180 6156 14
20850 4180 9280 17
20851 4180 886 37
20852 4181 4810 20
20853 4181 2838 38
20854 4182 1273 27
20855 4182 535 23
20856 4182 6153 36
20857 4183 2737 64
20858 4184 4686 76
20859 4184 9598 9
20860 4184 5235 57
20861 4184 4117 88
20862 4184 6695 70
20863 4184 7824 50
20864 4185 8588 12
20865 4185 429 15
20866 4185 8385 23
20867 4185 7360 76
20868 4185 7188 55
20869 4185 6609 49
20870 4185 9381 19
20871 4185 7591 54
20872 4185 7443 40
20873 4185 4870 55
20874 4186 3437 55
20875 4186 9279 41
20876 4186 2027 3
20877 4186 2856 64
20878 4186 7722 53
20879 4186 8979 75
20880 4186 88 1
20881 4187 3579 81
20882 4187 9550 91
20883 4187 9924 49
20884 4188 7732 49
20885 4188 8194 37
20886 4188 8813 81
20887 4188 7925 32
20888 4188 614 27
20889 4188 2038 41
20890 4189 1476 89
20891 4189 5802 43
20892 4189 5055 43
20893 4190 2885 3
20894 4190 5158 68
20895 4190 226 26
20896 4190 4459 4
20897 4190 2338 66
20898 4190 2524 4
20899 4190 7912 76
20900 4190 9254 66
20901 4191 8560 14
20902 4191 2461 91
20903 4191 4131 25
20904 4192 7354 58
20905 4192 5025 22
20906 4192 2450 65
20907 4192 213 43
20908 4192 9234 74
20909 4193 4022 84
20910 4193 4140 45
20911 4193 6223 21
20912 4193 8707 16
20913 4194 84 73
20914 4194 171 61
20915 4194 9404 87
20916 4194 1667 66
20917 4194 626 84
20918 4195 1551 94
20919 4195 4622 37
20920 4195 2653 67
20921 4195 5315 16
20922 4195 5242 69
20923 4195 1536 3
20924 4196 4048 19
20925 4196 6244 80
20926 4196 5512 32
20927 4196 1897 11
20928 4196 6474 85
20929 4197 9741 74
20930 4197 8566 62
20931 4197 9703 65
20932 4197 9169 91
20933 4197 8246 50
20934 4198 1586 57
20935 4198 6742 53
20936 4198 8848 24
20937 4198 8655 38
20938 4199 3411 71
20939 4199 1673 44
20940 4199 2861 30
20941 4200 9387 97
20942 4200 679 65
20943 4201 342 37
20944 4201 8528 46
20945 4201 4278 47
20946 4201 6208 72
20947 4202 8873 74
20948 4202 171 48
20949 4202 9460 14
20950 4202 1460 78
20951 4202 1425 21
20952 4202 9246 13
20953 4202 932 49
20954 4202 6365 47
20955 4203 457 88
20956 4203 720 83
20957 4203 6693 56
20958 4204 3128 27
20959 4204 5923 49
20960 4204 7519 84
20961 4204 1283 5
20962 4204 4440 68
20963 4204 8229 37
20964 4205 2174 19
20965 4205 5422 98
20966 4205 6809 91
20967 4205 7741 74
20968 4205 285 95
20969 4206 62 4
20970 4206 69 61
20971 4206 8659 52
20972 4206 1063 42
20973 4206 3163 43
20974 4207 3523 54
20975 4207 9306 13
20976 4207 9743 8
20977 4207 8653 13
20978 4208 6279 13
20979 4208 3186 28
20980 4208 715 79
20981 4209 7435 99
20982 4209 6373 14
20983 4209 7454 82
20984 4209 4064 78
20985 4209 882 41
20986 4210 5932 31
20987 4211 9731 47
20988 4211 3476 2
20989 4212 2814 94
20990 4212 3394 81
20991 4212 3526 79
20992 4214 888 16
20993 4214 3748 34
20994 4214 6877 35
20995 4215 6217 24
20996 4215 8983 19
20997 4215 9047 49
20998 4215 9671 49
20999 4216 5728 32
21000 4216 9922 47
21001 4216 9733 73
21002 4216 3555 37
21003 4216 3140 90
21004 4217 2712 20
21005 4217 5343 42
21006 4217 382 20
21007 4217 7613 18
21008 4217 9847 52
21009 4217 7435 22
21010 4218 8366 3
21011 4218 5860 73
21012 4218 1212 70
21013 4218 7242 63
21014 4218 7180 55
21015 4219 1659 35
21016 4219 695 94
21017 4219 5282 60
21018 4220 8119 28
21019 4220 8133 45
21020 4220 4163 84
21021 4220 4446 7
21022 4220 1010 80
21023 4220 4283 58
21024 4220 2565 1
21025 4220 6150 91
21026 4221 526 29
21027 4221 420 4
21028 4221 2938 39
21029 4221 8910 61
21030 4221 2463 77
21031 4221 3516 57
21032 4222 3395 78
21033 4222 4622 49
21034 4222 8700 33
21035 4222 7841 34
21036 4223 7525 10
21037 4223 4436 66
21038 4223 5064 36
21039 4223 7992 59
21040 4223 3144 4
21041 4224 8731 25
21042 4224 96 56
21043 4224 5755 100
21044 4224 9728 60
21045 4225 5174 68
21046 4225 3674 28
21047 4225 5671 93
21048 4225 4033 68
21049 4225 9391 70
21050 4225 9481 49
21051 4225 4954 69
21052 4225 9369 1
21053 4226 3871 79
21054 4226 7529 70
21055 4226 4465 59
21056 4226 6481 86
21057 4226 9708 28
21058 4227 9252 81
21059 4227 3144 84
21060 4227 3656 6
21061 4227 4898 45
21062 4228 942 85
21063 4228 9252 49
21064 4228 3472 15
21065 4228 4191 10
21066 4228 6610 10
21067 4228 9342 21
21068 4229 9449 47
21069 4229 9524 19
21070 4229 763 83
21071 4229 4202 83
21072 4229 3132 41
21073 4230 4260 64
21074 4230 7175 86
21075 4230 7211 72
21076 4230 8023 73
21077 4230 3784 57
21078 4230 7252 25
21079 4231 6701 43
21080 4231 8075 54
21081 4231 5976 28
21082 4231 1978 66
21083 4232 5385 64
21084 4233 4081 27
21085 4233 1983 55
21086 4233 5233 70
21087 4233 8565 16
21088 4234 5827 93
21089 4234 6351 73
21090 4234 3225 58
21091 4234 4477 22
21092 4235 5388 35
21093 4235 9199 44
21094 4236 4568 68
21095 4236 7446 23
21096 4237 5842 31
21097 4237 8273 49
21098 4237 1198 33
21099 4237 1626 22
21100 4238 6627 46
21101 4238 9351 13
21102 4238 8028 78
21103 4238 9472 85
21104 4238 9319 65
21105 4239 5734 93
21106 4239 8652 75
21107 4239 9821 62
21108 4239 9215 98
21109 4239 4940 11
21110 4239 2598 99
21111 4239 804 73
21112 4239 9684 14
21113 4240 1157 61
21114 4240 5015 35
21115 4240 9456 46
21116 4240 3104 83
21117 4241 1104 37
21118 4241 1900 26
21119 4241 7453 18
21120 4241 2695 73
21121 4241 5490 95
21122 4241 1649 40
21123 4242 623 2
21124 4242 5861 92
21125 4242 7912 80
21126 4242 3512 73
21127 4243 4325 90
21128 4243 2821 48
21129 4243 3659 60
21130 4243 5901 47
21131 4243 650 64
21132 4244 588 34
21133 4244 9193 42
21134 4244 9426 7
21135 4245 613 36
21136 4245 5054 77
21137 4245 9158 22
21138 4245 8281 27
21139 4245 8637 82
21140 4245 8424 72
21141 4245 343 62
21142 4245 7623 56
21143 4245 3022 65
21144 4246 9512 32
21145 4246 333 37
21146 4246 2627 66
21147 4247 1931 83
21148 4247 6642 46
21149 4247 5460 39
21150 4247 9480 66
21151 4247 2437 62
21152 4247 4160 99
21153 4247 4275 2
21154 4248 3886 94
21155 4248 1615 56
21156 4248 6391 24
21157 4248 4713 62
21158 4249 9194 66
21159 4249 1423 44
21160 4250 9786 96
21161 4250 4598 32
21162 4250 2156 90
21163 4250 1609 100
21164 4250 1270 94
21165 4250 7193 55
21166 4250 2487 49
21167 4251 667 30
21168 4251 8921 91
21169 4252 3955 82
21170 4252 3270 50
21171 4253 9507 27
21172 4253 8263 51
21173 4254 4202 75
21174 4254 6750 26
21175 4254 7843 71
21176 4254 2247 95
21177 4255 7672 18
21178 4255 7527 29
21179 4255 2218 82
21180 4256 3066 97
21181 4256 5374 46
21182 4257 7452 74
21183 4257 4400 18
21184 4257 7654 36
21185 4258 6534 78
21186 4258 7972 57
21187 4258 6571 26
21188 4258 3904 83
21189 4258 4365 99
21190 4258 6699 88
21191 4259 1535 4
21192 4259 3318 64
21193 4259 2905 41
21194 4259 107 3
21195 4259 3349 79
21196 4260 2179 47
21197 4260 9353 8
21198 4260 8998 14
21199 4260 7358 50
21200 4260 9071 40
21201 4260 7778 60
21202 4261 8002 96
21203 4261 5083 37
21204 4261 7850 58
21205 4261 9867 22
21206 4262 8104 61
21207 4262 4793 47
21208 4262 6886 88
21209 4262 5138 23
21210 4262 1815 40
21211 4263 4127 42
21212 4263 2564 29
21213 4263 364 70
21214 4263 2997 31
21215 4263 3956 73
21216 4263 5685 100
21217 4264 2487 68
21218 4264 5200 44
21219 4264 5865 62
21220 4264 5644 44
21221 4264 3189 59
21222 4264 3384 7
21223 4264 942 19
21224 4265 785 33
21225 4265 1190 13
21226 4265 6470 7
21227 4265 1422 44
21228 4265 2395 58
21229 4265 9255 29
21230 4265 9008 21
21231 4266 7651 1
21232 4266 3654 84
21233 4266 2889 85
21234 4267 5343 51
21235 4267 7673 86
21236 4267 5550 97
21237 4267 6574 23
21238 4267 6831 44
21239 4267 4569 26
21240 4268 6329 79
21241 4268 3624 99
21242 4268 6744 3
21243 4269 9710 96
21244 4269 9314 96
21245 4269 951 78
21246 4269 9635 13
21247 4269 7381 42
21248 4269 3832 97
21249 4269 4390 69
21250 4270 5895 17
21251 4270 231 64
21252 4270 343 43
21253 4270 390 65
21254 4270 3811 39
21255 4270 9418 67
21256 4270 7246 21
21257 4271 9675 61
21258 4271 1164 27
21259 4271 3772 98
21260 4271 8122 68
21261 4272 934 27
21262 4272 556 48
21263 4272 3815 21
21264 4273 957 38
21265 4273 4681 65
21266 4273 8610 39
21267 4275 2945 25
21268 4275 6487 2
21269 4275 9935 67
21270 4275 8358 88
21271 4275 7314 20
21272 4275 8925 5
21273 4276 5187 69
21274 4276 782 48
21275 4276 1159 56
21276 4276 250 6
21277 4277 8229 81
21278 4277 40 73
21279 4277 7471 23
21280 4277 5222 57
21281 4277 2552 70
21282 4278 8722 47
21283 4278 534 8
21284 4278 435 78
21285 4278 9145 23
21286 4279 5988 17
21287 4279 5001 47
21288 4280 4366 88
21289 4281 7012 7
21290 4281 9552 5
21291 4281 5385 86
21292 4281 1477 58
21293 4281 8233 38
21294 4282 8663 75
21295 4282 7653 13
21296 4282 9798 22
21297 4282 8897 76
21298 4282 213 59
21299 4282 5161 65
21300 4282 809 33
21301 4282 3294 35
21302 4282 9664 54
21303 4283 4211 25
21304 4283 9056 48
21305 4283 751 53
21306 4283 3073 40
21307 4283 5145 76
21308 4283 6449 38
21309 4283 246 69
21310 4284 5634 63
21311 4284 4375 23
21312 4284 4462 78
21313 4284 9318 25
21314 4285 8540 87
21315 4285 6703 84
21316 4286 1250 68
21317 4286 9641 19
21318 4286 9436 11
21319 4286 4489 100
21320 4286 8031 93
21321 4286 396 88
21322 4287 7483 98
21323 4287 6494 72
21324 4287 7800 100
21325 4287 4240 91
21326 4287 4548 51
21327 4288 8673 62
21328 4288 4210 99
21329 4289 5313 43
21330 4289 2450 1
21331 4289 2443 90
21332 4289 8831 74
21333 4289 8759 26
21334 4289 5298 69
21335 4290 4956 26
21336 4290 1724 93
21337 4290 4918 28
21338 4290 5146 63
21339 4290 4081 57
21340 4290 3684 42
21341 4290 3645 95
21342 4290 4586 45
21343 4290 5265 78
21344 4290 6004 54
21345 4290 887 5
21346 4291 9222 92
21347 4291 5589 18
21348 4291 6005 41
21349 4291 3467 82
21350 4291 4260 30
21351 4292 4710 40
21352 4292 8451 90
21353 4293 2828 79
21354 4293 3595 17
21355 4293 5253 11
21356 4294 493 34
21357 4294 9505 31
21358 4294 7866 80
21359 4294 2156 86
21360 4294 4166 19
21361 4295 3817 15
21362 4295 6686 20
21363 4295 7824 26
21364 4295 3133 78
21365 4295 2000 80
21366 4296 1776 98
21367 4296 1269 52
21368 4296 1589 72
21369 4296 4748 20
21370 4296 6016 89
21371 4296 3031 84
21372 4297 9408 100
21373 4297 5160 68
21374 4297 3951 5
21375 4297 3399 45
21376 4298 8824 2
21377 4299 9579 22
21378 4299 5643 82
21379 4299 7442 15
21380 4299 9837 7
21381 4299 3381 33
21382 4299 2275 18
21383 4299 9340 36
21384 4300 9843 36
21385 4300 2521 6
21386 4300 9559 51
21387 4300 5749 33
21388 4300 683 28
21389 4300 3399 19
21390 4300 2999 72
21391 4301 5305 3
21392 4301 8624 43
21393 4301 1714 80
21394 4301 6634 79
21395 4301 6654 95
21396 4301 650 53
21397 4301 8348 32
21398 4301 5882 88
21399 4302 4116 10
21400 4302 6153 1
21401 4302 7269 78
21402 4302 5217 66
21403 4302 9409 84
21404 4302 3484 6
21405 4302 2008 1
21406 4303 8192 16
21407 4303 2453 85
21408 4304 1998 72
21409 4304 3565 49
21410 4304 4705 57
21411 4304 3425 10
21412 4305 6040 18
21413 4305 4465 75
21414 4306 8478 83
21415 4306 3625 88
21416 4306 8697 57
21417 4306 709 12
21418 4307 1874 33
21419 4307 6989 36
21420 4307 5096 95
21421 4307 4982 42
21422 4308 663 8
21423 4308 7795 94
21424 4308 2104 93
21425 4308 6582 88
21426 4308 1311 42
21427 4308 3826 96
21428 4308 5616 6
21429 4308 2190 30
21430 4308 8494 89
21431 4308 1185 13
21432 4308 5708 81
21433 4308 611 2
21434 4308 2869 73
21435 4309 4082 84
21436 4309 3645 62
21437 4309 2079 62
21438 4309 229 7
21439 4310 7070 92
21440 4310 2645 26
21441 4310 3425 12
21442 4310 1657 85
21443 4310 9367 36
21444 4311 6192 71
21445 4311 7655 41
21446 4311 1855 72
21447 4311 3145 13
21448 4311 2063 16
21449 4311 8007 75
21450 4312 148 36
21451 4312 9221 18
21452 4312 3062 90
21453 4312 4904 21
21454 4312 3621 20
21455 4313 9702 87
21456 4313 1147 5
21457 4313 8317 99
21458 4314 5788 44
21459 4314 1258 81
21460 4314 2264 97
21461 4314 233 80
21462 4315 3334 66
21463 4316 1769 64
21464 4316 3133 95
21465 4316 4103 21
21466 4316 1621 56
21467 4317 9524 47
21468 4317 5021 55
21469 4317 216 95
21470 4317 2443 29
21471 4317 387 64
21472 4318 8834 76
21473 4318 6655 94
21474 4318 1307 28
21475 4318 4838 42
21476 4318 9888 32
21477 4319 9274 56
21478 4319 6066 89
21479 4319 2704 48
21480 4319 778 49
21481 4319 1691 47
21482 4319 8328 43
21483 4319 9849 59
21484 4319 6630 62
21485 4320 664 6
21486 4320 2314 58
21487 4320 703 84
21488 4320 3518 5
21489 4320 8818 38
21490 4320 1412 72
21491 4320 4532 97
21492 4320 7456 20
21493 4320 1657 37
21494 4320 9221 60
21495 4321 8284 18
21496 4321 7203 86
21497 4321 8825 94
21498 4321 9571 93
21499 4321 7700 93
21500 4321 1475 87
21501 4321 8271 39
21502 4321 4001 7
21503 4321 877 2
21504 4322 1827 68
21505 4322 5134 50
21506 4322 5893 28
21507 4322 9528 63
21508 4322 756 85
21509 4323 2196 9
21510 4323 7797 30
21511 4323 5185 73
21512 4323 1998 64
21513 4323 3714 2
21514 4323 110 58
21515 4324 9443 5
21516 4324 8673 76
21517 4324 8102 72
21518 4324 578 22
21519 4325 802 41
21520 4325 9897 39
21521 4325 9320 6
21522 4326 3187 19
21523 4326 6111 73
21524 4326 7987 17
21525 4326 1349 52
21526 4326 6990 39
21527 4326 3898 37
21528 4327 4666 71
21529 4327 9708 91
21530 4327 6039 67
21531 4327 307 6
21532 4327 5315 82
21533 4327 8105 73
21534 4328 4996 23
21535 4328 2909 9
21536 4328 2429 37
21537 4328 9398 71
21538 4328 999 69
21539 4329 1046 84
21540 4329 9913 94
21541 4329 2237 58
21542 4329 4087 30
21543 4330 2526 72
21544 4331 733 52
21545 4331 8540 36
21546 4331 7002 74
21547 4331 5988 62
21548 4332 6865 4
21549 4332 5772 86
21550 4332 8805 80
21551 4333 3396 1
21552 4333 5689 45
21553 4333 7706 92
21554 4333 4474 35
21555 4334 780 3
21556 4334 5708 61
21557 4334 9815 12
21558 4334 8018 70
21559 4334 6181 31
21560 4334 7193 68
21561 4335 8677 18
21562 4335 5931 28
21563 4335 5547 20
21564 4335 7193 49
21565 4335 7382 81
21566 4336 4399 52
21567 4336 2056 53
21568 4336 3037 69
21569 4336 8931 99
21570 4336 473 34
21571 4336 9001 30
21572 4337 4681 61
21573 4337 7403 35
21574 4337 2167 17
21575 4337 122 71
21576 4337 1665 23
21577 4337 3383 9
21578 4338 8206 38
21579 4338 1254 99
21580 4338 8330 88
21581 4338 520 12
21582 4338 5886 40
21583 4339 3801 95
21584 4339 8867 86
21585 4339 8575 35
21586 4339 6686 81
21587 4339 870 32
21588 4339 7830 95
21589 4339 9592 48
21590 4340 3392 57
21591 4340 5590 63
21592 4340 1343 37
21593 4340 7849 8
21594 4340 972 70
21595 4341 6464 34
21596 4341 3992 59
21597 4341 4976 16
21598 4342 8723 80
21599 4344 3624 17
21600 4344 3051 77
21601 4344 2171 87
21602 4344 6271 50
21603 4344 2955 24
21604 4344 2272 4
21605 4345 9762 48
21606 4345 9549 76
21607 4345 52 15
21608 4345 724 83
21609 4345 9176 43
21610 4345 1226 33
21611 4345 607 15
21612 4346 6292 4
21613 4346 8249 98
21614 4346 6600 69
21615 4346 1311 12
21616 4346 2993 69
21617 4347 3052 16
21618 4347 3499 9
21619 4347 8408 71
21620 4347 7285 8
21621 4347 1007 91
21622 4347 3329 78
21623 4347 9413 71
21624 4347 849 63
21625 4347 5850 42
21626 4347 6382 18
21627 4347 964 47
21628 4348 9030 28
21629 4348 308 78
21630 4348 8818 40
21631 4348 4737 66
21632 4348 9117 4
21633 4348 7752 99
21634 4348 4883 56
21635 4348 561 54
21636 4349 2465 33
21637 4349 7469 51
21638 4349 8652 96
21639 4350 182 27
21640 4350 9274 33
21641 4350 2355 36
21642 4350 8604 24
21643 4350 5938 82
21644 4350 9456 7
21645 4350 8408 67
21646 4350 8976 20
21647 4351 4868 60
21648 4351 550 41
21649 4351 1168 36
21650 4351 8112 17
21651 4351 1562 14
21652 4352 1689 15
21653 4353 2721 78
21654 4353 2906 44
21655 4353 9273 39
21656 4353 8115 76
21657 4353 3544 31
21658 4353 7996 13
21659 4354 6211 97
21660 4354 7391 54
21661 4354 6994 64
21662 4355 3049 27
21663 4355 8849 2
21664 4356 1825 19
21665 4356 6335 34
21666 4356 7747 89
21667 4356 7878 90
21668 4356 7144 31
21669 4356 7146 36
21670 4356 4549 95
21671 4357 9738 39
21672 4357 4304 65
21673 4357 9343 23
21674 4357 5724 67
21675 4357 7963 100
21676 4357 7724 59
21677 4357 1594 29
21678 4358 3038 43
21679 4358 7108 2
21680 4358 1845 56
21681 4358 7732 78
21682 4358 5611 1
21683 4359 6895 20
21684 4360 295 58
21685 4360 7635 35
21686 4360 1844 92
21687 4360 1151 77
21688 4360 3357 15
21689 4360 4352 46
21690 4360 4937 66
21691 4360 5943 82
21692 4360 8755 53
21693 4361 6495 90
21694 4361 1594 42
21695 4361 1860 99
21696 4361 2434 74
21697 4361 4020 7
21698 4361 378 78
21699 4361 9249 7
21700 4362 7533 62
21701 4362 2095 37
21702 4362 7714 23
21703 4362 6220 44
21704 4362 5249 52
21705 4362 8776 63
21706 4362 8977 92
21707 4363 3450 26
21708 4363 3773 26
21709 4363 5271 17
21710 4363 4539 68
21711 4363 6388 93
21712 4364 4922 25
21713 4364 8938 95
21714 4364 5922 73
21715 4364 9973 47
21716 4365 4076 43
21717 4365 5972 20
21718 4365 8651 96
21719 4365 8851 56
21720 4365 9051 11
21721 4366 1987 50
21722 4366 3734 24
21723 4367 1291 47
21724 4367 2774 43
21725 4367 7803 11
21726 4367 7100 39
21727 4368 6901 40
21728 4368 686 2
21729 4368 8876 55
21730 4368 9098 97
21731 4368 9114 92
21732 4369 5762 2
21733 4369 5626 80
21734 4369 5752 92
21735 4369 3900 28
21736 4369 2133 19
21737 4369 3618 10
21738 4370 2733 45
21739 4370 7313 34
21740 4370 605 13
21741 4371 6912 73
21742 4371 8668 62
21743 4371 485 66
21744 4371 9682 31
21745 4371 6457 76
21746 4371 2170 91
21747 4372 2942 93
21748 4372 1125 88
21749 4372 9039 45
21750 4372 266 77
21751 4372 395 65
21752 4372 7131 24
21753 4373 2536 88
21754 4373 4102 91
21755 4373 2750 2
21756 4373 8080 7
21757 4373 2284 91
21758 4374 167 72
21759 4374 1380 73
21760 4374 825 7
21761 4374 7444 43
21762 4374 4552 61
21763 4375 4343 43
21764 4375 6096 43
21765 4375 7196 43
21766 4375 4273 40
21767 4375 994 85
21768 4376 9163 65
21769 4376 5031 61
21770 4376 5307 80
21771 4376 3970 86
21772 4376 8582 13
21773 4376 630 62
21774 4376 6749 5
21775 4376 9428 24
21776 4377 7720 8
21777 4377 7130 28
21778 4377 6731 16
21779 4377 9083 62
21780 4377 9327 89
21781 4377 4926 40
21782 4377 2136 82
21783 4377 9788 99
21784 4378 3462 67
21785 4378 1751 19
21786 4379 9651 93
21787 4379 2306 4
21788 4379 6526 19
21789 4379 9914 46
21790 4379 7775 33
21791 4380 9816 58
21792 4380 3649 46
21793 4380 2481 25
21794 4380 2589 54
21795 4381 6087 63
21796 4381 2151 82
21797 4382 716 7
21798 4382 2238 13
21799 4382 4055 72
21800 4382 634 98
21801 4382 7734 97
21802 4383 9422 7
21803 4384 9912 76
21804 4384 5568 41
21805 4384 7711 18
21806 4384 3767 27
21807 4384 1129 3
21808 4385 4878 32
21809 4385 8293 6
21810 4385 3186 14
21811 4385 5787 9
21812 4385 477 40
21813 4386 1999 36
21814 4386 2224 94
21815 4386 3189 79
21816 4386 26 30
21817 4386 7914 55
21818 4386 5048 85
21819 4387 8893 2
21820 4387 1428 100
21821 4387 1452 42
21822 4388 8920 43
21823 4388 9801 54
21824 4388 3892 93
21825 4388 8864 16
21826 4388 5960 24
21827 4388 3336 93
21828 4388 5655 61
21829 4388 9201 10
21830 4389 2098 76
21831 4389 3869 40
21832 4389 9739 62
21833 4389 2171 20
21834 4389 6252 49
21835 4390 8748 41
21836 4390 5766 41
21837 4390 2679 70
21838 4390 2540 19
21839 4390 6626 54
21840 4391 3554 70
21841 4391 5912 9
21842 4391 8910 75
21843 4392 4185 49
21844 4392 5940 50
21845 4392 9293 60
21846 4392 4125 6
21847 4392 5919 16
21848 4393 6153 55
21849 4393 8613 100
21850 4393 1935 49
21851 4393 1155 40
21852 4393 4939 30
21853 4393 877 1
21854 4393 1233 94
21855 4394 618 67
21856 4394 9957 31
21857 4394 7290 82
21858 4395 9095 97
21859 4395 1223 26
21860 4395 8571 65
21861 4395 5795 5
21862 4395 7318 87
21863 4396 2937 50
21864 4396 2558 13
21865 4396 2405 93
21866 4397 3328 76
21867 4397 7509 82
21868 4397 9945 69
21869 4397 1282 59
21870 4397 5166 84
21871 4397 7515 69
21872 4398 41 72
21873 4398 9262 47
21874 4398 8684 97
21875 4398 855 53
21876 4398 9008 53
21877 4398 8512 20
21878 4399 3988 4
21879 4399 2648 30
21880 4399 2941 13
21881 4399 7853 89
21882 4399 3688 78
21883 4400 2948 44
21884 4400 3526 31
21885 4400 4778 79
21886 4400 6267 79
21887 4400 985 10
21888 4400 707 57
21889 4401 3770 1
21890 4401 9253 43
21891 4401 7008 62
21892 4401 5863 100
21893 4401 9829 95
21894 4401 4354 79
21895 4401 1738 20
21896 4402 6249 45
21897 4402 4003 78
21898 4402 8206 9
21899 4402 8466 4
21900 4403 1446 53
21901 4403 1360 79
21902 4403 1458 79
21903 4403 244 56
21904 4403 799 100
21905 4403 8119 79
21906 4404 1352 25
21907 4404 817 37
21908 4404 1709 80
21909 4404 7140 8
21910 4405 4740 96
21911 4405 3077 93
21912 4405 4300 44
21913 4405 9247 64
21914 4405 9516 81
21915 4405 7514 15
21916 4406 1344 16
21917 4406 5355 77
21918 4406 483 22
21919 4406 4164 19
21920 4406 9853 42
21921 4407 7575 44
21922 4407 5569 40
21923 4407 5545 11
21924 4407 5890 27
21925 4407 3947 64
21926 4407 3252 30
21927 4408 7730 7
21928 4408 4394 52
21929 4408 5316 67
21930 4408 9866 30
21931 4408 6755 58
21932 4409 5067 34
21933 4409 246 26
21934 4409 7212 73
21935 4409 219 16
21936 4409 7931 69
21937 4409 940 44
21938 4409 4012 55
21939 4409 2411 62
21940 4409 9929 50
21941 4409 7145 89
21942 4410 9439 92
21943 4410 691 8
21944 4410 7794 88
21945 4410 6098 68
21946 4410 4893 80
21947 4410 7838 86
21948 4411 2313 16
21949 4411 7374 97
21950 4411 8658 6
21951 4411 5241 32
21952 4411 8552 36
21953 4411 7162 87
21954 4411 4833 45
21955 4411 9952 76
21956 4412 9939 77
21957 4412 6120 53
21958 4412 8083 99
21959 4412 7582 91
21960 4412 5623 22
21961 4412 9749 40
21962 4413 997 67
21963 4413 4097 70
21964 4413 1717 71
21965 4414 8143 25
21966 4414 3242 87
21967 4414 2277 45
21968 4414 3700 41
21969 4414 4 87
21970 4414 9366 12
21971 4414 9645 91
21972 4415 7153 80
21973 4415 9797 73
21974 4415 6184 12
21975 4415 4090 85
21976 4415 8425 82
21977 4415 1896 72
21978 4415 2330 11
21979 4416 3093 29
21980 4416 8201 80
21981 4416 3613 18
21982 4416 7883 16
21983 4416 4033 66
21984 4416 9477 51
21985 4416 8773 91
21986 4417 4876 89
21987 4417 5284 14
21988 4417 4312 83
21989 4417 8408 67
21990 4417 6262 16
21991 4417 7510 51
21992 4417 8075 2
21993 4418 5699 14
21994 4418 193 95
21995 4418 52 45
21996 4418 5671 98
21997 4418 465 13
21998 4418 5258 84
21999 4418 6103 14
22000 4418 569 45
22001 4418 2211 17
22002 4419 2075 8
22003 4419 379 87
22004 4419 5568 23
22005 4420 4458 87
22006 4420 1695 23
22007 4420 5947 70
22008 4420 9467 36
22009 4420 7715 86
22010 4420 115 86
22011 4420 6292 50
22012 4420 316 13
22013 4421 7815 54
22014 4421 80 78
22015 4421 503 85
22016 4421 6940 62
22017 4421 9781 90
22018 4421 4159 2
22019 4422 2766 42
22020 4422 8437 23
22021 4422 4255 24
22022 4422 8063 21
22023 4422 3291 91
22024 4422 9315 7
22025 4423 5180 58
22026 4423 4286 25
22027 4423 4662 19
22028 4423 3489 91
22029 4423 4426 79
22030 4423 6034 37
22031 4423 2818 76
22032 4423 9276 15
22033 4423 5553 49
22034 4423 1638 76
22035 4423 6816 64
22036 4424 8941 92
22037 4424 2519 85
22038 4425 466 5
22039 4425 8377 96
22040 4425 4765 6
22041 4426 5073 20
22042 4427 4346 62
22043 4427 7947 64
22044 4427 405 44
22045 4427 258 75
22046 4427 3353 46
22047 4427 700 16
22048 4427 4606 20
22049 4428 7460 9
22050 4428 3773 52
22051 4428 8527 77
22052 4428 6342 75
22053 4429 8447 83
22054 4429 3444 93
22055 4429 8351 16
22056 4429 6924 62
22057 4429 3313 54
22058 4429 4848 3
22059 4429 6204 89
22060 4430 8905 6
22061 4430 6262 38
22062 4430 7118 78
22063 4430 699 12
22064 4430 3309 28
22065 4431 9048 15
22066 4431 3566 22
22067 4431 9544 48
22068 4432 2561 40
22069 4433 1689 44
22070 4433 2085 87
22071 4433 5490 84
22072 4434 2188 23
22073 4434 7459 73
22074 4434 6836 98
22075 4434 9398 15
22076 4434 3072 29
22077 4435 7240 59
22078 4435 5198 17
22079 4435 8747 19
22080 4435 6205 52
22081 4436 3020 2
22082 4436 7617 32
22083 4436 3246 64
22084 4436 7735 99
22085 4436 6226 17
22086 4436 4657 30
22087 4437 8219 90
22088 4437 6706 10
22089 4437 2491 52
22090 4437 9987 99
22091 4438 6042 100
22092 4438 8564 80
22093 4439 704 79
22094 4439 3402 38
22095 4439 8068 13
22096 4439 5902 44
22097 4439 1763 56
22098 4440 9012 49
22099 4440 2490 13
22100 4440 818 74
22101 4440 1251 71
22102 4440 7303 41
22103 4441 9893 54
22104 4441 9475 22
22105 4441 8695 56
22106 4441 6076 84
22107 4441 9625 91
22108 4441 6046 90
22109 4442 2657 33
22110 4442 5228 58
22111 4443 4013 61
22112 4443 2078 45
22113 4443 1095 76
22114 4443 6807 33
22115 4443 7819 23
22116 4443 828 6
22117 4444 2684 32
22118 4444 9634 92
22119 4444 9882 48
22120 4444 6323 3
22121 4444 2249 61
22122 4445 5067 29
22123 4445 1009 10
22124 4445 3830 23
22125 4445 4298 4
22126 4445 9527 5
22127 4445 3165 60
22128 4446 7722 25
22129 4446 3111 51
22130 4446 8108 94
22131 4446 6742 86
22132 4446 8343 45
22133 4446 400 39
22134 4447 8654 42
22135 4447 9388 2
22136 4447 9400 51
22137 4447 6992 70
22138 4447 5574 44
22139 4448 343 53
22140 4448 3997 25
22141 4449 6212 93
22142 4449 6952 14
22143 4449 1056 8
22144 4449 1079 23
22145 4449 5635 91
22146 4449 6312 72
22147 4449 7628 32
22148 4449 9187 53
22149 4450 9311 69
22150 4450 2650 31
22151 4450 2287 13
22152 4450 8574 57
22153 4450 4744 97
22154 4450 9701 68
22155 4450 4965 11
22156 4451 6918 58
22157 4451 188 64
22158 4451 8037 99
22159 4453 6540 13
22160 4453 6074 81
22161 4453 6980 46
22162 4453 2653 25
22163 4453 3162 70
22164 4454 9250 87
22165 4454 2541 25
22166 4454 7043 22
22167 4454 4114 56
22168 4454 9247 5
22169 4455 4821 96
22170 4455 5842 40
22171 4455 6325 61
22172 4455 9485 54
22173 4455 3402 29
22174 4456 311 42
22175 4456 9237 70
22176 4456 219 8
22177 4456 3008 92
22178 4456 7893 75
22179 4456 4042 85
22180 4456 6766 5
22181 4457 5825 35
22182 4457 9095 38
22183 4457 999 77
22184 4458 8589 55
22185 4458 4314 22
22186 4458 3190 21
22187 4458 2744 9
22188 4459 8652 19
22189 4459 634 8
22190 4459 9968 91
22191 4459 9549 96
22192 4459 3302 29
22193 4460 3608 22
22194 4460 8821 75
22195 4460 7822 81
22196 4460 8676 40
22197 4460 7844 48
22198 4460 108 16
22199 4460 896 66
22200 4460 9206 51
22201 4461 271 61
22202 4461 4010 83
22203 4461 3967 30
22204 4461 4465 53
22205 4461 7947 95
22206 4461 5067 82
22207 4462 9952 69
22208 4462 6079 27
22209 4462 9378 77
22210 4462 1619 93
22211 4462 9551 30
22212 4462 9539 16
22213 4463 8623 88
22214 4463 2808 32
22215 4463 4184 30
22216 4463 7568 90
22217 4463 1181 47
22218 4463 73 86
22219 4463 8398 61
22220 4463 3206 62
22221 4463 1273 38
22222 4464 9801 55
22223 4464 3881 64
22224 4464 5580 98
22225 4464 297 23
22226 4464 4853 34
22227 4465 5672 5
22228 4465 3960 54
22229 4465 7371 2
22230 4465 5965 96
22231 4466 7574 70
22232 4466 8945 80
22233 4466 2745 17
22234 4466 9681 97
22235 4466 6700 93
22236 4467 8510 56
22237 4467 8807 49
22238 4467 9253 26
22239 4467 2934 94
22240 4467 2939 13
22241 4467 1461 70
22242 4468 9942 34
22243 4468 7290 6
22244 4468 3344 90
22245 4468 2835 23
22246 4468 3365 79
22247 4468 2208 11
22248 4468 4555 84
22249 4468 1071 54
22250 4468 2258 92
22251 4468 5671 2
22252 4469 5742 95
22253 4469 8555 27
22254 4470 8178 82
22255 4470 7275 40
22256 4470 1569 97
22257 4470 8295 83
22258 4471 6596 2
22259 4471 7627 28
22260 4471 5463 38
22261 4471 7595 50
22262 4471 570 23
22263 4471 4311 62
22264 4471 8513 51
22265 4472 2525 56
22266 4472 9458 35
22267 4472 2589 78
22268 4473 9431 64
22269 4473 8378 59
22270 4474 3083 85
22271 4474 6344 78
22272 4474 6087 84
22273 4474 6578 75
22274 4475 3254 97
22275 4475 3974 77
22276 4475 2004 79
22277 4475 6922 79
22278 4476 7623 4
22279 4476 412 96
22280 4476 9035 15
22281 4476 2490 67
22282 4476 4308 92
22283 4476 1530 31
22284 4477 4439 53
22285 4477 7476 49
22286 4477 30 21
22287 4477 7798 95
22288 4477 3669 39
22289 4478 7864 19
22290 4478 3844 62
22291 4478 501 30
22292 4478 420 93
22293 4478 8896 65
22294 4478 268 31
22295 4478 9848 92
22296 4479 1657 81
22297 4480 6563 51
22298 4480 5658 24
22299 4480 6440 84
22300 4480 7842 33
22301 4480 5425 2
22302 4480 183 83
22303 4481 8112 24
22304 4481 8387 13
22305 4481 9844 55
22306 4482 9163 83
22307 4482 7102 46
22308 4482 226 59
22309 4482 4269 63
22310 4483 1407 67
22311 4483 9557 59
22312 4483 591 73
22313 4483 5047 40
22314 4483 5777 32
22315 4483 8739 42
22316 4483 2730 38
22317 4484 6681 54
22318 4484 1098 77
22319 4484 7791 82
22320 4485 2068 89
22321 4485 7168 50
22322 4485 9378 66
22323 4486 5983 70
22324 4486 5387 46
22325 4486 9423 93
22326 4487 3774 1
22327 4487 9132 66
22328 4487 2375 94
22329 4487 825 51
22330 4487 9000 95
22331 4488 1629 3
22332 4488 2947 86
22333 4488 2320 74
22334 4488 5894 33
22335 4488 8944 40
22336 4489 8635 29
22337 4489 7694 35
22338 4489 4295 32
22339 4490 635 29
22340 4490 5057 37
22341 4490 4597 25
22342 4491 5523 13
22343 4491 5970 2
22344 4491 1224 76
22345 4491 3278 80
22346 4492 6025 75
22347 4493 537 37
22348 4493 3437 86
22349 4493 1135 48
22350 4493 2659 91
22351 4493 5122 5
22352 4494 7150 10
22353 4494 7949 23
22354 4494 9131 60
22355 4494 8132 96
22356 4495 3197 49
22357 4495 2647 13
22358 4495 235 71
22359 4495 4450 3
22360 4495 3780 37
22361 4496 6772 20
22362 4496 2586 55
22363 4496 3276 15
22364 4497 7858 31
22365 4497 3401 100
22366 4497 3549 53
22367 4497 1542 26
22368 4497 4088 38
22369 4497 6191 94
22370 4498 8255 71
22371 4498 4395 89
22372 4498 120 72
22373 4499 3929 17
22374 4499 8295 41
22375 4499 7884 37
22376 4499 341 57
22377 4499 7883 86
22378 4499 1313 71
22379 4500 6811 52
22380 4500 6727 100
22381 4500 5400 60
22382 4501 8297 9
22383 4501 1930 47
22384 4501 710 50
22385 4502 2725 1
22386 4502 4510 24
22387 4502 2837 36
22388 4503 468 91
22389 4503 9420 85
22390 4503 446 98
22391 4504 4487 93
22392 4504 2149 40
22393 4504 2327 25
22394 4504 5331 50
22395 4504 6388 6
22396 4504 8216 54
22397 4504 264 9
22398 4505 5034 1
22399 4505 4280 15
22400 4505 5044 30
22401 4505 1134 71
22402 4505 309 50
22403 4505 1114 67
22404 4505 604 3
22405 4505 168 65
22406 4506 329 6
22407 4506 6865 99
22408 4506 4911 32
22409 4506 5768 38
22410 4506 2280 79
22411 4506 7931 85
22412 4506 7767 91
22413 4506 1848 13
22414 4506 1587 73
22415 4507 9564 5
22416 4507 5623 69
22417 4507 3171 45
22418 4507 8589 25
22419 4507 4459 54
22420 4508 2641 65
22421 4508 2217 98
22422 4508 3390 39
22423 4508 8417 33
22424 4508 2218 83
22425 4509 2395 68
22426 4509 6125 25
22427 4509 4644 74
22428 4509 5362 100
22429 4509 7620 3
22430 4509 5631 70
22431 4509 7325 69
22432 4510 6044 29
22433 4510 2096 3
22434 4511 6539 17
22435 4511 4748 66
22436 4512 7894 60
22437 4512 5081 13
22438 4512 4215 73
22439 4513 2671 15
22440 4513 3046 68
22441 4513 9684 92
22442 4514 2633 1
22443 4514 3545 80
22444 4514 3055 29
22445 4515 9755 97
22446 4515 3259 56
22447 4516 144 38
22448 4516 9746 88
22449 4516 8281 7
22450 4516 9433 45
22451 4516 6452 65
22452 4516 7674 32
22453 4517 6816 47
22454 4517 9204 42
22455 4517 3669 24
22456 4517 8137 80
22457 4517 2425 36
22458 4517 9057 88
22459 4517 9283 90
22460 4517 1067 41
22461 4517 5118 12
22462 4517 7367 28
22463 4517 362 73
22464 4517 2896 46
22465 4518 1660 26
22466 4518 509 20
22467 4518 6188 95
22468 4518 5331 94
22469 4518 3225 33
22470 4519 4766 19
22471 4519 6608 89
22472 4520 6500 26
22473 4520 5098 2
22474 4520 3170 8
22475 4520 7550 1
22476 4521 4683 21
22477 4521 1234 58
22478 4521 5580 99
22479 4521 6094 3
22480 4521 5218 51
22481 4521 5754 7
22482 4522 2764 38
22483 4522 5827 14
22484 4523 3252 48
22485 4523 9873 6
22486 4523 9507 59
22487 4523 5072 2
22488 4523 1430 89
22489 4524 3388 5
22490 4524 9338 37
22491 4524 6507 91
22492 4524 9958 91
22493 4524 6977 1
22494 4524 7133 67
22495 4525 5175 33
22496 4525 7682 96
22497 4525 6277 68
22498 4525 3014 27
22499 4525 9569 56
22500 4526 6280 70
22501 4526 8753 29
22502 4526 4879 14
22503 4526 1476 95
22504 4526 8903 99
22505 4527 6158 48
22506 4527 5277 70
22507 4527 3950 99
22508 4528 3148 33
22509 4528 6868 98
22510 4528 1392 37
22511 4528 6528 33
22512 4529 8196 100
22513 4529 7739 4
22514 4529 9103 79
22515 4529 8937 62
22516 4529 4894 23
22517 4529 1221 30
22518 4529 4269 47
22519 4530 137 11
22520 4530 954 30
22521 4530 3148 17
22522 4530 8379 43
22523 4530 3810 52
22524 4531 7147 91
22525 4531 5885 99
22526 4531 8830 86
22527 4532 1955 80
22528 4532 981 21
22529 4533 9897 4
22530 4533 9941 61
22531 4533 3772 55
22532 4534 5606 3
22533 4534 6146 97
22534 4534 678 63
22535 4534 7087 40
22536 4534 4815 12
22537 4535 9901 94
22538 4535 5906 78
22539 4535 6068 71
22540 4535 2473 17
22541 4535 4007 74
22542 4535 2151 83
22543 4535 64 16
22544 4536 3565 17
22545 4536 8230 67
22546 4536 6087 75
22547 4536 2578 30
22548 4536 6291 94
22549 4536 807 33
22550 4537 6050 82
22551 4537 862 11
22552 4537 7709 27
22553 4537 7764 65
22554 4537 7092 29
22555 4538 2573 24
22556 4538 644 30
22557 4538 7160 22
22558 4538 7341 38
22559 4538 8184 80
22560 4538 6037 68
22561 4539 4199 98
22562 4539 6275 70
22563 4539 8642 61
22564 4539 2610 48
22565 4539 2403 20
22566 4539 4290 61
22567 4540 5859 93
22568 4540 3625 46
22569 4540 2002 30
22570 4540 6112 13
22571 4540 1330 83
22572 4540 4233 87
22573 4540 433 32
22574 4541 4381 36
22575 4541 4616 73
22576 4541 7907 74
22577 4541 24 56
22578 4541 9189 96
22579 4541 7906 49
22580 4542 7357 59
22581 4542 1933 98
22582 4542 5448 34
22583 4544 2666 27
22584 4544 9176 92
22585 4544 3664 52
22586 4544 7998 93
22587 4544 3555 60
22588 4545 8673 3
22589 4545 9108 97
22590 4545 2363 58
22591 4545 2403 31
22592 4545 4038 35
22593 4545 6109 81
22594 4546 3687 97
22595 4546 1266 63
22596 4546 534 62
22597 4546 3402 64
22598 4546 7379 71
22599 4547 4133 23
22600 4547 2710 51
22601 4547 2315 91
22602 4548 5607 56
22603 4548 2455 3
22604 4548 7093 66
22605 4548 2300 43
22606 4548 8282 98
22607 4548 9401 45
22608 4549 2169 51
22609 4549 4943 28
22610 4549 5537 31
22611 4549 7983 83
22612 4549 1388 74
22613 4549 7248 21
22614 4550 9342 30
22615 4550 2227 51
22616 4550 9370 90
22617 4550 5130 81
22618 4550 2944 99
22619 4551 9792 35
22620 4551 9451 88
22621 4551 1291 78
22622 4551 799 85
22623 4551 2929 6
22624 4551 8934 33
22625 4551 746 12
22626 4552 2328 97
22627 4552 2645 81
22628 4552 4943 88
22629 4553 1786 36
22630 4553 2200 79
22631 4553 8308 90
22632 4553 1272 76
22633 4553 9079 36
22634 4553 580 94
22635 4554 2797 2
22636 4554 4447 69
22637 4554 7350 38
22638 4554 905 34
22639 4554 5608 72
22640 4554 7822 56
22641 4554 1674 92
22642 4554 1424 34
22643 4554 6408 35
22644 4555 7934 38
22645 4555 506 82
22646 4556 8304 83
22647 4556 5924 19
22648 4556 3732 97
22649 4556 678 99
22650 4557 3978 29
22651 4557 8246 32
22652 4557 551 96
22653 4558 3715 54
22654 4558 682 29
22655 4558 8004 24
22656 4558 2516 34
22657 4558 222 34
22658 4558 6706 13
22659 4558 1802 2
22660 4558 8414 86
22661 4558 5697 8
22662 4559 8887 36
22663 4559 1344 97
22664 4559 4803 20
22665 4560 6155 40
22666 4561 5636 27
22667 4561 304 38
22668 4561 2815 89
22669 4561 9969 6
22670 4561 56 91
22671 4562 3081 97
22672 4562 4003 28
22673 4562 6415 21
22674 4562 1250 86
22675 4563 6227 28
22676 4563 9383 85
22677 4563 6854 86
22678 4563 5718 14
22679 4564 1232 55
22680 4564 759 65
22681 4564 4969 67
22682 4564 6173 44
22683 4564 7473 7
22684 4564 8199 90
22685 4565 1778 48
22686 4565 6783 51
22687 4565 1651 28
22688 4565 3340 54
22689 4566 6713 66
22690 4566 6135 3
22691 4566 424 2
22692 4566 7662 23
22693 4566 6891 3
22694 4567 1982 21
22695 4567 3737 60
22696 4567 5535 70
22697 4567 13 62
22698 4567 311 78
22699 4567 7685 15
22700 4567 8117 64
22701 4567 5152 33
22702 4568 5417 99
22703 4568 3303 3
22704 4568 8438 83
22705 4568 8287 72
22706 4568 9115 12
22707 4568 8252 87
22708 4568 8501 33
22709 4569 6040 82
22710 4569 8999 54
22711 4569 7223 48
22712 4569 9040 90
22713 4569 6122 16
22714 4569 3271 94
22715 4570 4967 63
22716 4571 1712 17
22717 4571 9854 81
22718 4571 6603 48
22719 4571 9439 52
22720 4571 4550 78
22721 4571 6403 87
22722 4571 6316 99
22723 4571 6871 62
22724 4571 9655 68
22725 4572 8790 80
22726 4572 8021 2
22727 4572 3109 30
22728 4572 6550 69
22729 4572 9885 1
22730 4572 9556 53
22731 4572 9974 93
22732 4572 5473 55
22733 4572 6006 35
22734 4573 5595 94
22735 4573 6034 61
22736 4573 9114 84
22737 4573 7123 67
22738 4573 1353 59
22739 4573 8634 64
22740 4574 4828 64
22741 4574 1553 36
22742 4574 8007 22
22743 4575 1451 76
22744 4575 8605 75
22745 4575 7600 100
22746 4575 5666 78
22747 4576 4632 47
22748 4576 1221 42
22749 4576 7539 11
22750 4576 9326 54
22751 4576 1680 4
22752 4577 4497 4
22753 4577 6512 73
22754 4577 9622 2
22755 4577 9813 50
22756 4577 3453 32
22757 4577 2628 99
22758 4577 3328 57
22759 4578 5019 96
22760 4578 2656 86
22761 4578 1598 46
22762 4578 5603 95
22763 4578 4299 87
22764 4578 2009 87
22765 4578 5153 3
22766 4578 5027 11
22767 4579 2231 58
22768 4579 878 31
22769 4579 3359 47
22770 4580 6001 93
22771 4580 1310 3
22772 4580 4136 83
22773 4580 7361 18
22774 4580 4107 19
22775 4580 4474 52
22776 4581 1314 57
22777 4581 5098 74
22778 4581 8077 49
22779 4581 1103 90
22780 4581 3338 13
22781 4581 3389 55
22782 4581 3758 2
22783 4582 1800 16
22784 4582 2108 55
22785 4582 144 36
22786 4583 4882 42
22787 4583 7695 32
22788 4583 3809 36
22789 4583 3978 99
22790 4583 5588 89
22791 4583 4798 29
22792 4583 2145 38
22793 4584 6949 7
22794 4584 2455 28
22795 4585 4032 95
22796 4585 3534 29
22797 4585 4575 95
22798 4585 7125 49
22799 4586 6781 37
22800 4586 2982 58
22801 4586 8660 35
22802 4586 153 84
22803 4586 8643 64
22804 4586 3678 47
22805 4586 2939 42
22806 4587 2517 23
22807 4587 1270 7
22808 4587 1457 49
22809 4587 9157 23
22810 4587 7063 10
22811 4587 6402 51
22812 4588 4926 90
22813 4588 2944 28
22814 4588 4891 64
22815 4588 2177 93
22816 4588 6819 63
22817 4588 9137 68
22818 4588 964 37
22819 4589 2695 25
22820 4589 7676 41
22821 4590 2532 11
22822 4590 4395 11
22823 4590 7628 87
22824 4591 7062 46
22825 4591 6031 77
22826 4592 7487 65
22827 4592 2426 94
22828 4592 6799 48
22829 4592 9260 46
22830 4592 9818 75
22831 4592 8242 17
22832 4592 8466 32
22833 4592 8966 81
22834 4593 9223 40
22835 4593 9357 79
22836 4593 582 53
22837 4593 6046 83
22838 4594 4225 66
22839 4594 852 97
22840 4594 9160 14
22841 4594 5020 66
22842 4594 6205 61
22843 4594 3800 49
22844 4595 1063 76
22845 4595 8880 36
22846 4595 2009 21
22847 4595 9168 31
22848 4595 6707 31
22849 4595 3976 21
22850 4595 2562 28
22851 4595 80 2
22852 4595 4496 75
22853 4595 346 31
22854 4596 1978 85
22855 4596 9892 87
22856 4596 2956 76
22857 4596 7361 90
22858 4596 6505 30
22859 4597 1322 65
22860 4597 5334 79
22861 4597 9633 93
22862 4597 4221 94
22863 4597 2036 75
22864 4597 8632 56
22865 4597 9517 70
22866 4597 9031 44
22867 4598 1579 62
22868 4598 549 77
22869 4598 5764 67
22870 4598 5969 49
22871 4598 2716 40
22872 4598 3524 98
22873 4599 3721 86
22874 4599 3840 70
22875 4599 9630 46
22876 4599 2726 46
22877 4599 113 14
22878 4599 734 91
22879 4599 730 98
22880 4599 6102 41
22881 4600 7765 45
22882 4600 9753 35
22883 4600 2230 79
22884 4600 3918 60
22885 4600 7462 73
22886 4601 2288 1
22887 4601 4992 29
22888 4601 8045 51
22889 4601 9809 21
22890 4601 2621 34
22891 4601 5734 62
22892 4601 8681 24
22893 4602 9824 28
22894 4602 375 87
22895 4602 8962 85
22896 4602 8830 51
22897 4602 9019 16
22898 4602 2117 20
22899 4602 9630 58
22900 4603 5690 74
22901 4603 1596 29
22902 4603 951 59
22903 4603 6109 11
22904 4603 1112 89
22905 4603 2830 28
22906 4603 5281 53
22907 4603 2265 34
22908 4603 3624 58
22909 4603 803 44
22910 4603 7687 91
22911 4603 4231 86
22912 4604 7029 96
22913 4604 1741 71
22914 4604 1496 35
22915 4604 2385 18
22916 4604 136 38
22917 4605 1062 87
22918 4605 8122 92
22919 4605 4277 38
22920 4605 2655 33
22921 4605 8909 31
22922 4605 2415 77
22923 4605 4326 10
22924 4605 8552 50
22925 4606 4879 92
22926 4606 2928 41
22927 4606 1817 7
22928 4606 5343 45
22929 4606 189 91
22930 4607 5873 10
22931 4607 6179 61
22932 4607 4681 73
22933 4607 8932 87
22934 4607 9373 72
22935 4608 8801 65
22936 4608 2908 98
22937 4608 9893 75
22938 4608 4197 76
22939 4609 175 30
22940 4609 4243 73
22941 4609 9802 83
22942 4609 3162 72
22943 4609 3043 53
22944 4609 1932 31
22945 4609 7071 23
22946 4609 6377 25
22947 4609 73 50
22948 4610 8557 75
22949 4610 5875 23
22950 4610 1934 86
22951 4610 992 46
22952 4610 2483 57
22953 4611 2931 3
22954 4611 6624 59
22955 4611 1814 99
22956 4611 5088 42
22957 4611 1178 67
22958 4611 3219 98
22959 4611 5338 88
22960 4612 4572 80
22961 4612 8018 1
22962 4613 5057 64
22963 4613 9293 28
22964 4613 587 2
22965 4613 9960 58
22966 4613 4569 4
22967 4613 3515 88
22968 4614 6617 15
22969 4614 671 91
22970 4614 4356 92
22971 4614 9965 95
22972 4614 2130 25
22973 4614 7449 7
22974 4615 5276 61
22975 4615 6720 68
22976 4615 977 51
22977 4615 2953 34
22978 4616 3113 46
22979 4616 1466 68
22980 4616 7751 100
22981 4617 6090 70
22982 4617 4275 9
22983 4618 569 41
22984 4618 9488 10
22985 4618 9820 62
22986 4618 2812 37
22987 4618 2204 55
22988 4618 7012 43
22989 4618 3552 46
22990 4618 9690 15
22991 4618 807 29
22992 4619 1961 42
22993 4619 4902 73
22994 4619 1593 17
22995 4619 1143 71
22996 4619 4946 55
22997 4619 8885 78
22998 4619 9760 48
22999 4620 1331 22
23000 4620 2098 94
23001 4620 542 35
23002 4620 4536 62
23003 4621 7057 36
23004 4621 7500 44
23005 4621 242 1
23006 4621 4530 34
23007 4621 2748 68
23008 4622 1406 54
23009 4622 9357 9
23010 4622 6398 56
23011 4622 3467 94
23012 4622 8813 38
23013 4622 5175 41
23014 4622 9018 39
23015 4623 9302 95
23016 4623 3360 55
23017 4623 1088 17
23018 4623 7285 69
23019 4623 3642 60
23020 4623 9429 39
23021 4623 9470 8
23022 4623 5105 14
23023 4624 5718 97
23024 4624 2852 64
23025 4624 7328 60
23026 4624 1880 20
23027 4624 9574 8
23028 4624 2522 12
23029 4624 6470 39
23030 4624 1145 44
23031 4624 236 56
23032 4624 6111 66
23033 4624 6836 10
23034 4624 1783 34
23035 4624 8970 3
23036 4624 8842 50
23037 4625 4087 65
23038 4626 9114 57
23039 4626 5586 28
23040 4626 5022 17
23041 4626 1926 69
23042 4626 3787 44
23043 4626 1298 77
23044 4626 1561 83
23045 4626 5104 67
23046 4626 3078 86
23047 4626 2712 63
23048 4627 2211 99
23049 4627 7342 36
23050 4627 5124 55
23051 4627 4873 70
23052 4627 8105 46
23053 4627 7917 11
23054 4627 526 89
23055 4627 7928 50
23056 4627 3880 45
23057 4627 6568 45
23058 4628 8638 23
23059 4628 146 37
23060 4628 2314 69
23061 4628 8410 20
23062 4628 2586 20
23063 4629 1174 77
23064 4629 568 42
23065 4629 1071 69
23066 4629 6739 3
23067 4629 4054 78
23068 4630 5314 21
23069 4630 341 98
23070 4630 3698 89
23071 4631 1700 90
23072 4631 3334 74
23073 4631 8381 41
23074 4631 1836 99
23075 4631 7029 24
23076 4631 5181 13
23077 4632 7100 24
23078 4632 3633 2
23079 4632 5362 99
23080 4632 8050 64
23081 4632 8195 7
23082 4633 9048 23
23083 4633 358 42
23084 4633 2326 1
23085 4633 4889 65
23086 4633 7293 77
23087 4633 6493 91
23088 4634 584 81
23089 4634 5789 35
23090 4634 2996 6
23091 4634 5211 87
23092 4634 145 29
23093 4634 855 20
23094 4634 7926 35
23095 4635 3988 24
23096 4635 4541 18
23097 4635 4707 22
23098 4635 9898 88
23099 4635 3189 76
23100 4635 3781 87
23101 4635 3953 83
23102 4636 4194 92
23103 4636 7189 48
23104 4636 2313 80
23105 4636 2850 50
23106 4637 5138 64
23107 4637 76 64
23108 4637 9435 19
23109 4637 218 5
23110 4637 627 15
23111 4637 9403 22
23112 4638 5538 8
23113 4638 497 42
23114 4638 995 62
23115 4638 5821 98
23116 4639 7776 72
23117 4639 1888 43
23118 4639 6507 35
23119 4640 1134 55
23120 4640 7851 27
23121 4640 216 2
23122 4641 5563 87
23123 4641 6725 55
23124 4641 1010 100
23125 4641 9369 18
23126 4642 5516 71
23127 4643 7784 37
23128 4643 7262 70
23129 4643 7438 54
23130 4643 8567 32
23131 4643 1268 73
23132 4644 8569 44
23133 4644 1448 3
23134 4644 6946 55
23135 4644 5210 20
23136 4644 3987 78
23137 4645 496 61
23138 4645 430 27
23139 4645 1432 23
23140 4645 5520 28
23141 4645 3074 8
23142 4646 8188 50
23143 4646 7068 10
23144 4646 1457 6
23145 4646 709 100
23146 4646 9287 35
23147 4646 1816 61
23148 4646 2355 34
23149 4646 3502 32
23150 4647 1062 71
23151 4647 2368 46
23152 4647 4403 32
23153 4647 2088 27
23154 4647 2693 89
23155 4648 1292 40
23156 4648 4206 5
23157 4648 5608 44
23158 4648 7298 32
23159 4648 3078 56
23160 4648 5036 8
23161 4648 5039 28
23162 4649 9356 9
23163 4649 1492 87
23164 4649 2458 48
23165 4649 3794 77
23166 4649 5154 67
23167 4649 4918 77
23168 4649 2805 63
23169 4649 5541 76
23170 4650 3230 69
23171 4650 3739 77
23172 4650 9499 57
23173 4650 6075 47
23174 4650 3385 11
23175 4651 1655 85
23176 4651 7950 84
23177 4652 2832 14
23178 4652 9381 83
23179 4652 4155 64
23180 4652 944 5
23181 4653 9737 38
23182 4653 8061 13
23183 4653 9671 70
23184 4653 7479 12
23185 4653 8416 5
23186 4654 567 44
23187 4654 8325 89
23188 4654 3039 8
23189 4654 6968 6
23190 4654 4397 88
23191 4654 8969 16
23192 4654 550 62
23193 4654 4336 99
23194 4654 88 77
23195 4655 2539 89
23196 4655 993 81
23197 4655 591 88
23198 4655 4361 87
23199 4656 7183 86
23200 4656 4257 46
23201 4656 1848 35
23202 4656 7585 52
23203 4656 9018 73
23204 4657 2305 47
23205 4657 7178 51
23206 4657 858 89
23207 4657 6525 17
23208 4657 7246 22
23209 4657 25 30
23210 4657 4311 35
23211 4657 6609 70
23212 4658 3912 7
23213 4658 6432 27
23214 4658 5839 63
23215 4659 9112 76
23216 4659 2739 70
23217 4659 2997 16
23218 4659 8111 66
23219 4659 5911 86
23220 4659 1878 55
23221 4660 8099 23
23222 4660 8982 70
23223 4660 2677 76
23224 4660 59 38
23225 4660 1863 9
23226 4660 3479 12
23227 4661 5088 56
23228 4661 5552 52
23229 4661 2754 56
23230 4662 9768 97
23231 4662 3555 21
23232 4662 1679 32
23233 4662 3715 58
23234 4663 386 40
23235 4663 4435 53
23236 4663 1879 60
23237 4663 5026 82
23238 4664 4657 9
23239 4664 6124 51
23240 4664 7856 99
23241 4664 7841 29
23242 4665 517 13
23243 4665 2981 14
23244 4665 3730 86
23245 4665 9137 30
23246 4666 3051 3
23247 4666 430 31
23248 4666 861 93
23249 4666 1129 8
23250 4666 8127 32
23251 4666 5208 23
23252 4667 2131 83
23253 4667 3833 57
23254 4667 7251 14
23255 4667 3174 81
23256 4667 2247 79
23257 4667 44 44
23258 4667 9334 78
23259 4667 7728 10
23260 4667 1197 59
23261 4667 2340 94
23262 4668 3302 68
23263 4668 1369 55
23264 4669 1498 34
23265 4669 3370 96
23266 4669 8102 29
23267 4669 3910 14
23268 4670 1443 26
23269 4670 2689 43
23270 4670 7205 66
23271 4671 7024 35
23272 4671 7288 10
23273 4671 8882 77
23274 4671 1718 7
23275 4671 7563 7
23276 4671 5620 86
23277 4671 6978 67
23278 4672 2763 61
23279 4672 5678 93
23280 4672 7771 76
23281 4672 3399 64
23282 4673 9965 71
23283 4673 35 83
23284 4673 3395 72
23285 4673 3958 96
23286 4673 5683 91
23287 4674 73 23
23288 4674 9661 29
23289 4674 883 92
23290 4674 755 17
23291 4675 8646 49
23292 4675 3814 13
23293 4675 9820 96
23294 4675 7478 61
23295 4675 510 1
23296 4675 9889 56
23297 4675 1130 61
23298 4676 8950 42
23299 4676 6967 56
23300 4676 3293 47
23301 4676 3003 37
23302 4676 593 12
23303 4676 2494 28
23304 4677 3521 35
23305 4677 5740 70
23306 4677 1452 17
23307 4677 9302 96
23308 4677 4916 87
23309 4677 6258 24
23310 4677 1209 88
23311 4677 1076 66
23312 4677 2022 31
23313 4678 4286 85
23314 4678 3448 64
23315 4678 3464 24
23316 4678 6631 12
23317 4678 8769 14
23318 4679 8957 62
23319 4679 7000 49
23320 4680 5247 69
23321 4680 7528 2
23322 4680 7712 75
23323 4680 2393 24
23324 4680 2529 22
23325 4680 9571 65
23326 4680 6198 50
23327 4680 6175 92
23328 4680 2746 23
23329 4680 5455 18
23330 4681 2526 16
23331 4681 2742 72
23332 4681 4265 64
23333 4681 8329 65
23334 4681 8858 36
23335 4681 2041 20
23336 4681 7910 90
23337 4681 3429 94
23338 4682 5496 11
23339 4682 2904 21
23340 4682 1926 66
23341 4683 6251 70
23342 4683 1224 78
23343 4683 8004 30
23344 4683 5111 25
23345 4684 6842 96
23346 4684 4484 4
23347 4684 1314 86
23348 4685 5659 16
23349 4685 4920 64
23350 4685 1918 59
23351 4685 517 46
23352 4685 4083 2
23353 4685 998 11
23354 4686 3201 75
23355 4686 8970 52
23356 4686 5268 20
23357 4687 5710 59
23358 4687 3937 35
23359 4687 4138 4
23360 4687 5316 51
23361 4687 9167 47
23362 4688 8548 8
23363 4688 4772 11
23364 4688 805 48
23365 4689 628 72
23366 4689 1815 11
23367 4689 1884 88
23368 4689 9853 47
23369 4689 2368 58
23370 4689 3488 55
23371 4689 2496 9
23372 4689 595 22
23373 4689 8750 66
23374 4689 8544 20
23375 4689 7504 96
23376 4689 5452 1
23377 4689 3302 15
23378 4689 3127 77
23379 4690 7367 79
23380 4690 1275 46
23381 4690 7511 1
23382 4690 9929 73
23383 4690 1474 86
23384 4691 7212 25
23385 4691 2940 81
23386 4691 3064 87
23387 4691 1978 40
23388 4691 9402 50
23389 4691 678 80
23390 4691 9480 36
23391 4691 7742 63
23392 4692 4806 72
23393 4692 9946 15
23394 4692 6545 87
23395 4692 1586 55
23396 4693 8626 37
23397 4693 6929 97
23398 4693 8469 70
23399 4693 8435 21
23400 4693 6907 15
23401 4693 3134 22
23402 4694 4200 53
23403 4694 5839 90
23404 4694 6321 48
23405 4694 6970 33
23406 4694 8761 25
23407 4694 3871 34
23408 4695 2432 1
23409 4695 9669 88
23410 4695 5196 23
23411 4696 6051 45
23412 4696 1008 62
23413 4696 3382 58
23414 4696 7895 31
23415 4696 2387 47
23416 4697 5024 15
23417 4697 6774 84
23418 4697 32 55
23419 4698 8262 41
23420 4698 2 100
23421 4698 5281 83
23422 4698 195 49
23423 4698 2468 98
23424 4698 3434 49
23425 4698 4034 51
23426 4698 4918 86
23427 4699 2901 50
23428 4700 6830 63
23429 4700 4728 85
23430 4700 699 68
23431 4700 7599 39
23432 4700 5480 45
23433 4701 5265 21
23434 4701 3049 32
23435 4702 8975 97
23436 4702 553 18
23437 4702 4455 29
23438 4702 8854 56
23439 4702 2342 71
23440 4703 1528 13
23441 4703 3537 28
23442 4703 653 80
23443 4703 6430 19
23444 4704 7019 68
23445 4704 9301 84
23446 4704 9153 35
23447 4704 8747 8
23448 4704 3967 42
23449 4704 300 84
23450 4704 9369 86
23451 4705 4272 82
23452 4706 3362 61
23453 4706 7167 11
23454 4706 2838 58
23455 4706 9801 8
23456 4707 7212 14
23457 4707 41 42
23458 4707 4754 3
23459 4707 4326 52
23460 4708 4105 56
23461 4708 8657 71
23462 4708 3917 83
23463 4708 3364 92
23464 4708 3304 24
23465 4708 9913 35
23466 4708 3679 68
23467 4708 6733 8
23468 4708 6258 5
23469 4709 657 69
23470 4709 1732 94
23471 4709 1080 80
23472 4709 2542 84
23473 4709 9689 41
23474 4709 4131 2
23475 4710 1884 83
23476 4710 3347 51
23477 4710 1624 37
23478 4710 630 90
23479 4711 2037 36
23480 4711 7380 6
23481 4711 5764 14
23482 4711 1536 79
23483 4711 7079 95
23484 4711 5356 77
23485 4711 293 98
23486 4711 1822 26
23487 4712 2973 60
23488 4712 9259 83
23489 4712 7020 9
23490 4713 5848 77
23491 4713 8473 21
23492 4713 1025 24
23493 4713 7082 2
23494 4713 7309 13
23495 4713 378 88
23496 4713 5928 6
23497 4713 6395 74
23498 4713 9081 8
23499 4713 3400 52
23500 4714 4920 89
23501 4714 7243 99
23502 4715 7255 19
23503 4715 9885 100
23504 4715 6117 8
23505 4715 2837 11
23506 4715 7651 90
23507 4715 598 23
23508 4716 293 41
23509 4716 661 85
23510 4716 5414 24
23511 4716 1758 54
23512 4716 4972 87
23513 4717 484 65
23514 4717 2460 31
23515 4717 6398 14
23516 4717 638 43
23517 4717 5102 35
23518 4717 5700 7
23519 4717 2295 47
23520 4717 4323 33
23521 4718 9308 67
23522 4718 68 66
23523 4718 4589 100
23524 4718 2583 66
23525 4718 3627 20
23526 4718 436 12
23527 4718 6701 27
23528 4719 9118 85
23529 4719 8846 93
23530 4719 6938 48
23531 4719 5336 75
23532 4719 6695 42
23533 4719 8363 99
23534 4720 8073 92
23535 4720 3619 33
23536 4721 3512 56
23537 4721 8881 59
23538 4721 3312 17
23539 4721 4346 25
23540 4721 4901 13
23541 4721 6522 11
23542 4721 3733 8
23543 4721 772 32
23544 4722 440 68
23545 4722 8333 24
23546 4722 8270 19
23547 4722 9617 99
23548 4722 7338 27
23549 4722 1572 65
23550 4722 6770 57
23551 4722 5172 60
23552 4722 1763 86
23553 4723 3579 62
23554 4723 7807 28
23555 4723 9715 11
23556 4723 6432 46
23557 4723 8601 49
23558 4723 4436 59
23559 4724 9431 22
23560 4724 6386 8
23561 4724 9071 84
23562 4724 158 80
23563 4724 5387 80
23564 4724 5011 93
23565 4724 8673 82
23566 4725 9801 82
23567 4725 5968 89
23568 4725 3505 56
23569 4726 738 67
23570 4726 7965 21
23571 4726 937 66
23572 4726 3730 57
23573 4726 7818 5
23574 4727 4379 3
23575 4727 4621 34
23576 4727 4601 52
23577 4727 7713 86
23578 4727 2351 8
23579 4728 3839 32
23580 4728 7157 47
23581 4728 7224 15
23582 4728 5131 82
23583 4728 8633 32
23584 4728 5690 23
23585 4729 9990 26
23586 4729 5536 21
23587 4730 627 100
23588 4730 8144 67
23589 4730 623 30
23590 4731 3090 29
23591 4731 4114 43
23592 4732 4560 99
23593 4732 9466 49
23594 4732 9771 73
23595 4732 7744 43
23596 4732 4577 47
23597 4733 4022 78
23598 4733 1437 42
23599 4733 452 83
23600 4733 5279 96
23601 4733 7455 42
23602 4733 535 71
23603 4733 4244 22
23604 4734 4141 90
23605 4734 6372 9
23606 4734 5080 94
23607 4734 1920 51
23608 4735 2666 61
23609 4735 8126 40
23610 4735 7661 46
23611 4736 5997 31
23612 4736 6153 27
23613 4736 8603 14
23614 4737 6907 96
23615 4737 1846 2
23616 4737 3622 28
23617 4737 3974 74
23618 4737 5535 7
23619 4737 4346 58
23620 4738 6834 78
23621 4738 9342 50
23622 4738 2126 43
23623 4738 9321 34
23624 4738 6321 72
23625 4738 8889 93
23626 4738 7770 70
23627 4738 8693 2
23628 4738 1388 54
23629 4738 685 73
23630 4739 5952 8
23631 4739 7084 67
23632 4739 7873 63
23633 4739 9386 89
23634 4740 3711 81
23635 4740 800 99
23636 4740 7697 82
23637 4740 6889 82
23638 4740 8091 82
23639 4740 1254 70
23640 4741 6010 90
23641 4741 4196 34
23642 4741 4780 92
23643 4741 9579 78
23644 4741 7283 72
23645 4741 5558 53
23646 4741 8409 19
23647 4741 6760 90
23648 4742 5723 72
23649 4742 8171 3
23650 4742 3134 19
23651 4742 3811 38
23652 4742 6898 5
23653 4742 8376 53
23654 4742 5536 9
23655 4742 8396 67
23656 4742 456 99
23657 4742 1744 67
23658 4743 1025 6
23659 4743 5172 84
23660 4743 1823 19
23661 4743 122 58
23662 4744 896 9
23663 4744 9615 72
23664 4744 6121 34
23665 4744 2699 70
23666 4744 6288 96
23667 4744 2848 59
23668 4745 8075 83
23669 4745 1533 38
23670 4745 4398 70
23671 4745 3676 69
23672 4746 9630 63
23673 4746 5606 98
23674 4747 7057 40
23675 4747 7743 17
23676 4747 799 95
23677 4748 3162 66
23678 4748 1981 10
23679 4748 184 48
23680 4748 7495 3
23681 4748 71 31
23682 4748 7157 87
23683 4748 672 18
23684 4748 3786 5
23685 4749 2345 40
23686 4749 9960 82
23687 4749 2967 37
23688 4749 6026 21
23689 4749 744 14
23690 4749 2148 74
23691 4749 532 56
23692 4750 959 35
23693 4750 363 64
23694 4750 6496 80
23695 4750 3247 31
23696 4750 7639 18
23697 4750 8132 17
23698 4751 3613 38
23699 4751 6657 80
23700 4751 930 34
23701 4751 4005 30
23702 4752 4134 56
23703 4752 9081 50
23704 4752 6842 43
23705 4752 8763 97
23706 4753 6424 29
23707 4753 1636 98
23708 4753 2186 75
23709 4753 3711 29
23710 4754 2733 53
23711 4754 8141 85
23712 4754 7063 50
23713 4754 688 65
23714 4754 4600 62
23715 4754 1790 41
23716 4754 3282 4
23717 4754 6420 34
23718 4755 971 92
23719 4755 5308 13
23720 4755 3342 96
23721 4755 8466 65
23722 4755 2415 85
23723 4755 5726 6
23724 4755 5243 69
23725 4756 6473 38
23726 4756 2500 31
23727 4756 1994 36
23728 4756 5359 10
23729 4756 9592 95
23730 4756 4502 12
23731 4756 2478 82
23732 4757 4962 14
23733 4757 3187 44
23734 4758 6595 74
23735 4758 2303 28
23736 4758 8219 17
23737 4758 3458 69
23738 4758 89 88
23739 4758 7132 30
23740 4759 8453 83
23741 4759 6731 47
23742 4759 6105 42
23743 4760 9926 58
23744 4760 2475 58
23745 4760 4211 76
23746 4760 4333 32
23747 4760 6337 61
23748 4760 4993 96
23749 4761 3329 69
23750 4761 5336 63
23751 4761 7477 20
23752 4761 7416 16
23753 4761 6513 39
23754 4761 793 86
23755 4761 6821 45
23756 4762 5932 42
23757 4763 5272 19
23758 4763 128 60
23759 4763 9788 16
23760 4763 4290 11
23761 4763 3748 65
23762 4763 7569 11
23763 4764 7182 31
23764 4764 7987 9
23765 4764 2433 96
23766 4764 3295 19
23767 4765 5689 50
23768 4765 4690 18
23769 4765 4112 15
23770 4765 7385 96
23771 4765 1806 25
23772 4766 5487 48
23773 4766 9429 72
23774 4766 2282 21
23775 4766 7174 49
23776 4766 2347 39
23777 4767 9086 23
23778 4767 1332 36
23779 4767 1209 1
23780 4767 4026 6
23781 4768 3951 8
23782 4768 8570 20
23783 4768 1898 22
23784 4768 8587 25
23785 4769 9096 74
23786 4769 21 97
23787 4769 7290 96
23788 4769 1951 14
23789 4769 8887 75
23790 4770 7444 64
23791 4770 6336 36
23792 4770 6482 1
23793 4770 392 68
23794 4770 6359 57
23795 4770 5500 71
23796 4770 4681 83
23797 4770 1471 72
23798 4771 2518 21
23799 4771 6868 51
23800 4771 4180 61
23801 4771 3893 57
23802 4772 1106 48
23803 4772 8092 38
23804 4772 6666 15
23805 4772 1236 3
23806 4773 380 33
23807 4773 3694 85
23808 4773 2297 64
23809 4773 8378 63
23810 4773 3128 29
23811 4774 7031 79
23812 4774 2777 54
23813 4774 4396 36
23814 4774 3588 85
23815 4774 2060 32
23816 4774 2408 8
23817 4774 2441 93
23818 4774 7149 38
23819 4774 7563 70
23820 4775 827 18
23821 4775 6365 88
23822 4776 8149 63
23823 4776 404 30
23824 4777 4964 7
23825 4777 5788 76
23826 4777 2555 100
23827 4778 3901 40
23828 4778 5591 100
23829 4778 7768 37
23830 4778 9282 76
23831 4778 1405 11
23832 4778 3652 71
23833 4778 896 97
23834 4779 9681 88
23835 4779 9577 2
23836 4779 1311 6
23837 4779 5091 43
23838 4779 4001 26
23839 4780 5995 59
23840 4780 373 46
23841 4780 9167 28
23842 4781 2765 40
23843 4781 4620 19
23844 4781 9416 70
23845 4781 9041 33
23846 4782 7372 8
23847 4782 9429 6
23848 4782 9154 26
23849 4782 6422 60
23850 4782 702 78
23851 4783 4479 70
23852 4783 2805 5
23853 4784 5597 46
23854 4784 2051 59
23855 4784 5273 61
23856 4784 17 83
23857 4785 8102 12
23858 4785 9764 41
23859 4785 5620 25
23860 4785 6152 85
23861 4785 4933 72
23862 4785 5945 31
23863 4785 4737 5
23864 4785 4702 43
23865 4786 3047 86
23866 4786 4820 48
23867 4786 5218 12
23868 4786 1669 37
23869 4786 6946 41
23870 4787 4736 3
23871 4787 5601 47
23872 4787 1932 67
23873 4787 2959 70
23874 4787 6259 100
23875 4787 8936 44
23876 4787 8740 37
23877 4788 532 11
23878 4788 633 85
23879 4788 296 68
23880 4788 8395 69
23881 4788 8873 6
23882 4788 3378 32
23883 4788 6104 14
23884 4789 610 22
23885 4789 1854 89
23886 4789 4447 11
23887 4789 9111 62
23888 4789 482 14
23889 4789 146 48
23890 4789 3237 81
23891 4789 2992 100
23892 4790 5352 26
23893 4790 9123 40
23894 4790 3864 67
23895 4790 9676 31
23896 4791 596 89
23897 4791 7910 11
23898 4792 5237 82
23899 4792 3050 92
23900 4793 2915 30
23901 4793 4174 95
23902 4793 8753 25
23903 4793 3854 51
23904 4793 4592 50
23905 4793 4479 87
23906 4793 4665 3
23907 4793 1336 55
23908 4794 9998 63
23909 4794 5272 64
23910 4795 7877 33
23911 4795 9600 99
23912 4795 3064 83
23913 4795 1842 38
23914 4795 7522 38
23915 4795 7729 84
23916 4796 1760 21
23917 4796 3671 97
23918 4796 8792 42
23919 4796 8716 35
23920 4796 8487 80
23921 4796 6861 98
23922 4797 6794 52
23923 4797 7829 90
23924 4797 6083 60
23925 4797 4752 5
23926 4797 9097 36
23927 4798 4298 78
23928 4798 5611 55
23929 4798 1824 46
23930 4798 5051 19
23931 4798 340 16
23932 4798 6715 40
23933 4798 7932 53
23934 4798 1695 90
23935 4799 1937 32
23936 4799 1638 78
23937 4799 3844 10
23938 4800 6064 4
23939 4800 4736 18
23940 4800 8684 86
23941 4800 7658 80
23942 4800 668 77
23943 4800 6211 70
23944 4801 2548 30
23945 4801 2892 34
23946 4801 7200 5
23947 4801 2240 39
23948 4801 291 52
23949 4801 3941 5
23950 4801 7218 67
23951 4801 1071 75
23952 4801 504 34
23953 4801 2811 5
23954 4801 2579 74
23955 4802 9332 68
23956 4802 749 10
23957 4802 5294 98
23958 4802 9434 66
23959 4802 1084 82
23960 4803 6103 22
23961 4803 6505 55
23962 4803 5502 11
23963 4803 8251 31
23964 4804 9530 22
23965 4804 6249 95
23966 4804 2377 95
23967 4804 2636 92
23968 4804 411 71
23969 4805 3334 41
23970 4805 5962 99
23971 4805 1023 77
23972 4806 1369 9
23973 4806 1075 64
23974 4806 5218 9
23975 4806 4860 80
23976 4806 4109 21
23977 4806 6682 29
23978 4807 4744 71
23979 4807 2524 52
23980 4807 1734 26
23981 4807 8539 1
23982 4808 3400 37
23983 4808 7483 54
23984 4808 8846 31
23985 4809 5292 63
23986 4809 8151 67
23987 4809 2284 88
23988 4809 995 54
23989 4809 6298 14
23990 4810 3063 35
23991 4810 8920 28
23992 4810 8093 52
23993 4810 3112 40
23994 4810 8718 28
23995 4810 3281 18
23996 4810 9683 89
23997 4811 3453 76
23998 4811 2421 1
23999 4811 5772 40
24000 4812 4188 42
24001 4813 5794 53
24002 4813 3070 16
24003 4813 8959 2
24004 4813 7198 18
24005 4813 5590 72
24006 4813 3783 9
24007 4814 1846 79
24008 4814 542 13
24009 4814 7331 42
24010 4814 5917 10
24011 4814 6084 56
24012 4814 3446 80
24013 4815 7722 37
24014 4816 4803 88
24015 4816 217 58
24016 4816 6572 85
24017 4816 8694 56
24018 4817 5531 3
24019 4817 8327 18
24020 4817 6495 43
24021 4818 5520 42
24022 4818 4266 29
24023 4818 4911 27
24024 4818 7498 91
24025 4818 3594 81
24026 4818 7441 7
24027 4819 7555 94
24028 4819 591 18
24029 4819 1541 48
24030 4820 243 57
24031 4820 7151 30
24032 4820 6506 44
24033 4821 1869 27
24034 4821 6916 69
24035 4821 7510 48
24036 4822 691 24
24037 4822 1658 92
24038 4822 8644 12
24039 4822 3436 38
24040 4822 3134 65
24041 4823 4948 96
24042 4823 3704 65
24043 4823 1418 1
24044 4823 5322 42
24045 4823 2471 66
24046 4823 4525 23
24047 4823 5180 24
24048 4824 8625 88
24049 4824 5298 19
24050 4824 9252 49
24051 4824 5096 28
24052 4824 7980 2
24053 4824 8078 13
24054 4824 4721 48
24055 4824 9491 99
24056 4824 5597 95
24057 4825 1607 27
24058 4825 9027 100
24059 4825 6961 64
24060 4825 9193 39
24061 4825 252 57
24062 4826 8651 42
24063 4826 3911 13
24064 4826 1549 80
24065 4826 2022 6
24066 4826 2332 34
24067 4826 8544 42
24068 4826 3791 4
24069 4826 6946 29
24070 4826 1250 23
24071 4826 8562 40
24072 4826 4148 14
24073 4827 5729 27
24074 4827 9604 74
24075 4827 2090 31
24076 4827 5556 86
24077 4828 6625 95
24078 4828 8437 30
24079 4828 8757 87
24080 4828 6800 89
24081 4828 4681 9
24082 4829 3161 38
24083 4829 9543 96
24084 4829 5558 3
24085 4830 8716 85
24086 4830 6820 42
24087 4830 81 8
24088 4830 6533 27
24089 4831 7909 55
24090 4831 2448 57
24091 4831 201 46
24092 4831 241 18
24093 4831 509 51
24094 4831 9115 95
24095 4831 2659 46
24096 4832 498 17
24097 4832 4629 21
24098 4833 1673 19
24099 4833 3395 95
24100 4833 2145 13
24101 4833 2031 68
24102 4833 3349 58
24103 4833 1143 98
24104 4833 9050 97
24105 4833 5865 31
24106 4833 5907 50
24107 4833 7615 27
24108 4834 3919 62
24109 4834 1139 97
24110 4834 9283 8
24111 4834 8261 27
24112 4834 6541 36
24113 4834 7176 21
24114 4835 9385 44
24115 4835 5393 19
24116 4835 7747 32
24117 4835 5839 100
24118 4835 1741 65
24119 4835 4056 79
24120 4836 2597 75
24121 4836 9791 64
24122 4836 7650 58
24123 4836 6835 1
24124 4836 6745 12
24125 4836 3505 26
24126 4837 8750 77
24127 4837 357 25
24128 4837 5366 52
24129 4837 5253 52
24130 4837 5191 58
24131 4838 2826 63
24132 4838 33 58
24133 4839 4830 99
24134 4839 3982 28
24135 4840 6139 80
24136 4841 5111 96
24137 4841 5991 42
24138 4841 8751 34
24139 4841 6127 41
24140 4841 3882 19
24141 4842 8057 72
24142 4842 6361 5
24143 4842 3702 43
24144 4842 4479 80
24145 4843 7337 17
24146 4843 403 94
24147 4843 1956 33
24148 4843 9861 29
24149 4843 1651 6
24150 4843 9083 51
24151 4843 3686 76
24152 4843 552 58
24153 4843 2045 28
24154 4843 5050 15
24155 4843 106 30
24156 4844 3298 77
24157 4844 2239 54
24158 4844 7308 15
24159 4844 8127 51
24160 4844 5487 79
24161 4845 6752 75
24162 4845 9000 69
24163 4845 7055 75
24164 4846 1612 48
24165 4846 6288 30
24166 4846 463 14
24167 4846 1533 61
24168 4846 6869 39
24169 4847 3508 55
24170 4847 6778 32
24171 4847 1285 28
24172 4847 7004 29
24173 4848 1869 54
24174 4848 9754 2
24175 4848 5992 62
24176 4848 9814 83
24177 4848 6064 9
24178 4849 7121 78
24179 4849 5114 77
24180 4849 3200 29
24181 4849 9583 70
24182 4850 2345 33
24183 4850 8374 58
24184 4850 2117 33
24185 4850 8248 65
24186 4851 8484 89
24187 4851 8830 6
24188 4851 1841 57
24189 4852 7479 75
24190 4852 7963 45
24191 4852 9071 87
24192 4852 41 65
24193 4853 8436 58
24194 4853 3230 48
24195 4853 6062 52
24196 4853 5704 69
24197 4853 2683 74
24198 4853 2723 18
24199 4853 5846 60
24200 4853 7826 6
24201 4854 3962 56
24202 4854 804 85
24203 4854 166 82
24204 4854 6244 57
24205 4855 3392 70
24206 4855 4720 47
24207 4855 9255 93
24208 4855 5840 84
24209 4856 431 16
24210 4856 5009 67
24211 4856 1623 49
24212 4856 2293 2
24213 4856 289 93
24214 4856 1483 98
24215 4857 4829 46
24216 4857 9296 52
24217 4857 5491 72
24218 4857 554 21
24219 4857 4885 100
24220 4857 2770 68
24221 4858 6615 24
24222 4858 397 23
24223 4858 8276 14
24224 4858 6800 64
24225 4858 6628 30
24226 4859 4214 88
24227 4859 2478 30
24228 4859 5535 96
24229 4859 5304 56
24230 4859 9268 50
24231 4860 6289 17
24232 4860 216 10
24233 4860 3933 33
24234 4860 2861 4
24235 4860 4997 47
24236 4860 3311 3
24237 4861 3876 95
24238 4861 7141 91
24239 4861 3583 81
24240 4861 7022 30
24241 4861 9527 47
24242 4862 2281 40
24243 4862 7459 19
24244 4863 8249 100
24245 4864 5139 16
24246 4864 5363 57
24247 4864 2491 57
24248 4864 3538 91
24249 4865 4207 9
24250 4865 8336 79
24251 4865 1627 36
24252 4865 4228 14
24253 4865 1632 66
24254 4865 988 25
24255 4865 9196 84
24256 4865 9416 48
24257 4866 3764 15
24258 4866 2141 54
24259 4866 4160 95
24260 4866 6536 38
24261 4866 7730 56
24262 4866 9061 25
24263 4867 4199 21
24264 4867 5226 82
24265 4867 74 2
24266 4867 6301 12
24267 4868 28 33
24268 4868 5136 78
24269 4868 9161 73
24270 4868 3576 83
24271 4868 3623 88
24272 4868 3253 32
24273 4869 555 84
24274 4869 8584 7
24275 4869 2018 44
24276 4869 8839 99
24277 4869 8614 36
24278 4869 2631 25
24279 4870 2305 40
24280 4870 760 31
24281 4870 1080 61
24282 4871 2823 46
24283 4871 6173 23
24284 4871 1236 39
24285 4871 1858 62
24286 4872 7718 49
24287 4872 5351 58
24288 4872 851 64
24289 4872 4477 3
24290 4872 5579 82
24291 4872 7183 41
24292 4872 2775 6
24293 4872 6551 24
24294 4872 9333 57
24295 4872 8916 68
24296 4873 1249 99
24297 4873 220 45
24298 4874 8654 59
24299 4874 601 81
24300 4875 8191 18
24301 4875 9991 49
24302 4875 9115 96
24303 4875 5743 71
24304 4875 7902 52
24305 4875 2654 32
24306 4875 7976 22
24307 4875 6256 6
24308 4875 3060 95
24309 4876 3768 61
24310 4876 8527 1
24311 4876 827 65
24312 4877 836 72
24313 4877 7378 68
24314 4877 1991 92
24315 4877 1100 1
24316 4877 517 76
24317 4878 4516 100
24318 4878 1748 97
24319 4878 8122 35
24320 4878 1811 39
24321 4878 4762 5
24322 4878 8049 84
24323 4879 761 65
24324 4879 6553 94
24325 4880 943 75
24326 4880 1209 87
24327 4880 4437 92
24328 4880 6995 74
24329 4880 8587 40
24330 4881 5330 62
24331 4881 7588 92
24332 4881 2807 98
24333 4881 4404 88
24334 4881 7463 53
24335 4881 2195 100
24336 4881 2571 11
24337 4881 3736 31
24338 4881 4862 65
24339 4881 1206 73
24340 4881 9783 66
24341 4882 2566 4
24342 4882 2657 4
24343 4882 2134 20
24344 4882 6137 87
24345 4882 8618 92
24346 4883 5768 20
24347 4883 5634 68
24348 4883 8695 50
24349 4883 6603 9
24350 4884 3015 90
24351 4884 4342 46
24352 4884 1627 18
24353 4884 2378 45
24354 4885 5575 36
24355 4885 2973 34
24356 4885 8053 34
24357 4886 5805 28
24358 4886 9496 85
24359 4887 3882 87
24360 4887 4708 27
24361 4887 2330 90
24362 4888 5958 49
24363 4888 6919 68
24364 4888 8232 49
24365 4888 5496 12
24366 4888 2533 42
24367 4888 4942 15
24368 4888 3232 66
24369 4888 2496 54
24370 4888 7782 41
24371 4888 7803 35
24372 4889 4341 63
24373 4889 5752 97
24374 4889 4916 43
24375 4889 9085 49
24376 4889 5742 4
24377 4889 2995 25
24378 4890 7163 18
24379 4890 9709 26
24380 4890 2356 59
24381 4890 2212 89
24382 4890 5844 100
24383 4890 9999 33
24384 4890 2225 23
24385 4890 9946 97
24386 4890 7020 1
24387 4890 5156 75
24388 4890 4110 67
24389 4890 4128 88
24390 4891 3061 4
24391 4891 291 33
24392 4891 52 33
24393 4892 4671 45
24394 4892 3076 7
24395 4892 316 32
24396 4893 585 33
24397 4893 9067 100
24398 4893 1878 39
24399 4893 4436 86
24400 4893 1283 35
24401 4893 8401 3
24402 4893 7354 49
24403 4894 4544 66
24404 4894 8784 100
24405 4894 96 49
24406 4894 6828 21
24407 4894 9449 33
24408 4894 2389 48
24409 4894 9240 64
24410 4894 9203 32
24411 4894 5614 39
24412 4895 5150 99
24413 4895 5929 17
24414 4895 5243 62
24415 4895 7226 18
24416 4895 2694 22
24417 4895 7645 16
24418 4896 5302 89
24419 4896 7858 3
24420 4896 8587 51
24421 4897 8440 90
24422 4897 147 80
24423 4897 4647 64
24424 4897 359 31
24425 4898 5981 10
24426 4898 6381 10
24427 4899 6204 16
24428 4900 9078 68
24429 4900 320 9
24430 4900 5266 79
24431 4901 9501 88
24432 4901 4816 17
24433 4901 1609 29
24434 4902 9582 92
24435 4902 4852 48
24436 4902 3887 83
24437 4903 5408 17
24438 4903 9978 56
24439 4903 5796 47
24440 4903 8377 93
24441 4903 1983 62
24442 4904 2978 18
24443 4904 7681 86
24444 4904 4556 47
24445 4905 4776 33
24446 4905 7725 92
24447 4905 2735 38
24448 4905 9212 73
24449 4905 2327 80
24450 4906 792 5
24451 4906 4723 88
24452 4906 3651 42
24453 4906 5304 22
24454 4907 151 16
24455 4907 7466 75
24456 4907 7483 41
24457 4908 6256 2
24458 4908 9281 26
24459 4908 5718 95
24460 4908 8558 15
24461 4908 7327 49
24462 4908 7379 79
24463 4909 5859 40
24464 4909 4635 18
24465 4909 1505 88
24466 4909 6162 15
24467 4909 961 36
24468 4909 3202 76
24469 4909 7556 84
24470 4909 6566 55
24471 4910 3766 37
24472 4910 6652 18
24473 4910 7251 6
24474 4910 82 65
24475 4910 183 5
24476 4910 243 7
24477 4910 6763 48
24478 4911 4215 15
24479 4911 9748 25
24480 4911 9219 30
24481 4911 3001 3
24482 4911 3032 33
24483 4912 1550 86
24484 4912 9077 41
24485 4912 7377 15
24486 4912 812 56
24487 4912 5006 55
24488 4912 2550 29
24489 4912 3227 96
24490 4912 6822 12
24491 4912 5646 12
24492 4913 7736 78
24493 4913 6111 59
24494 4913 1290 52
24495 4913 9639 40
24496 4913 1146 56
24497 4913 480 9
24498 4914 4472 27
24499 4914 1479 93
24500 4914 3164 25
24501 4915 3081 86
24502 4915 7258 86
24503 4915 9480 6
24504 4915 8683 83
24505 4916 2964 29
24506 4916 6063 30
24507 4916 6347 76
24508 4916 6995 76
24509 4916 4724 65
24510 4916 5917 50
24511 4916 9416 56
24512 4916 3502 75
24513 4916 953 86
24514 4916 5675 83
24515 4916 5169 29
24516 4916 9900 43
24517 4917 8401 59
24518 4917 7028 27
24519 4917 7412 44
24520 4918 213 74
24521 4918 4334 1
24522 4918 4019 36
24523 4918 6651 63
24524 4919 8969 11
24525 4919 9581 89
24526 4919 7222 88
24527 4920 183 59
24528 4920 4905 24
24529 4920 1640 33
24530 4920 9494 48
24531 4920 6212 15
24532 4920 7159 17
24533 4920 6691 5
24534 4920 9814 37
24535 4920 9568 59
24536 4920 6502 14
24537 4921 3202 18
24538 4921 2954 99
24539 4922 4550 38
24540 4923 504 19
24541 4923 9914 25
24542 4924 1239 58
24543 4924 2050 68
24544 4924 4232 36
24545 4925 8587 46
24546 4925 8350 19
24547 4925 2808 87
24548 4925 1749 27
24549 4925 8745 25
24550 4925 8914 52
24551 4926 276 8
24552 4926 7720 61
24553 4926 58 30
24554 4926 165 33
24555 4926 3469 47
24556 4926 4276 33
24557 4926 4607 39
24558 4926 4071 64
24559 4926 8802 27
24560 4926 7941 20
24561 4926 4678 15
24562 4927 6594 33
24563 4927 7660 51
24564 4927 8907 10
24565 4927 6446 68
24566 4927 117 77
24567 4927 4426 85
24568 4927 7879 6
24569 4928 9512 30
24570 4928 1417 1
24571 4928 1721 82
24572 4928 6743 34
24573 4928 4308 48
24574 4929 6985 6
24575 4929 7408 20
24576 4929 5151 97
24577 4929 9761 87
24578 4929 3569 65
24579 4930 7849 2
24580 4930 6434 39
24581 4930 9375 26
24582 4930 5733 24
24583 4930 4670 68
24584 4931 7787 70
24585 4931 1345 18
24586 4931 7825 77
24587 4932 5871 64
24588 4932 5559 35
24589 4932 3920 44
24590 4932 4613 57
24591 4932 689 92
24592 4933 1276 95
24593 4933 5008 88
24594 4933 1136 92
24595 4934 3704 95
24596 4934 7403 45
24597 4934 9664 85
24598 4934 6011 24
24599 4935 9839 68
24600 4935 8877 42
24601 4935 4258 61
24602 4935 238 3
24603 4935 3009 38
24604 4935 3348 41
24605 4936 4970 10
24606 4936 1545 48
24607 4936 4473 88
24608 4937 9280 30
24609 4937 2893 77
24610 4937 1055 61
24611 4937 6691 11
24612 4938 1279 29
24613 4938 2092 65
24614 4938 9578 17
24615 4938 6429 69
24616 4938 4352 1
24617 4938 5492 15
24618 4939 5520 9
24619 4939 2486 26
24620 4940 7593 90
24621 4940 8603 72
24622 4940 6925 13
24623 4940 1078 61
24624 4940 7130 60
24625 4940 5985 26
24626 4941 6355 81
24627 4941 3731 82
24628 4941 2620 11
24629 4941 7931 47
24630 4941 6685 46
24631 4941 8367 15
24632 4941 4345 5
24633 4941 4006 96
24634 4942 9577 92
24635 4942 4081 8
24636 4942 5960 3
24637 4942 4767 89
24638 4943 15 14
24639 4943 3138 68
24640 4943 5288 53
24641 4943 9159 47
24642 4944 8888 49
24643 4944 3062 47
24644 4944 3491 52
24645 4944 7519 51
24646 4945 7754 34
24647 4945 7023 20
24648 4945 4116 68
24649 4945 4275 49
24650 4945 2062 8
24651 4945 8178 80
24652 4946 8764 34
24653 4946 8758 55
24654 4946 5983 35
24655 4946 6117 5
24656 4946 3658 4
24657 4946 7428 67
24658 4946 2266 90
24659 4946 2012 16
24660 4947 3786 57
24661 4947 5937 54
24662 4947 6008 14
24663 4947 3656 17
24664 4947 4115 14
24665 4947 8489 38
24666 4947 5746 80
24667 4947 9038 5
24668 4947 3138 18
24669 4948 2171 40
24670 4948 3711 59
24671 4948 1198 12
24672 4948 9900 33
24673 4948 2574 61
24674 4949 7710 25
24675 4949 819 38
24676 4949 8222 36
24677 4949 76 42
24678 4949 5685 4
24679 4950 7069 77
24680 4950 4052 100
24681 4950 339 92
24682 4950 7510 26
24683 4950 1990 55
24684 4951 4678 77
24685 4951 5941 33
24686 4951 822 61
24687 4951 4992 65
24688 4952 2827 79
24689 4952 1311 55
24690 4952 9934 50
24691 4952 8750 16
24692 4952 895 8
24693 4952 7477 33
24694 4952 157 13
24695 4953 3810 34
24696 4953 6479 9
24697 4953 5477 4
24698 4953 9998 35
24699 4953 4421 32
24700 4953 7003 86
24701 4954 4623 39
24702 4954 8257 52
24703 4954 653 26
24704 4954 8998 84
24705 4954 7376 22
24706 4954 2569 72
24707 4955 9935 16
24708 4955 2168 42
24709 4955 3431 77
24710 4955 2867 56
24711 4955 33 94
24712 4955 2484 16
24713 4955 315 35
24714 4956 3357 21
24715 4956 3082 73
24716 4956 2099 20
24717 4957 9855 23
24718 4957 5651 6
24719 4957 4679 60
24720 4957 3481 67
24721 4957 7894 88
24722 4957 2909 54
24723 4957 151 38
24724 4958 237 20
24725 4958 9015 24
24726 4958 6398 5
24727 4958 3757 21
24728 4958 4982 69
24729 4958 2825 15
24730 4958 9053 29
24731 4959 9452 6
24732 4959 5610 54
24733 4959 2937 93
24734 4959 5036 17
24735 4959 1496 78
24736 4959 7110 96
24737 4960 813 38
24738 4960 7316 56
24739 4960 9892 48
24740 4960 505 84
24741 4960 3812 77
24742 4961 9202 5
24743 4961 4177 77
24744 4961 2544 24
24745 4961 1484 59
24746 4962 5512 54
24747 4962 2965 20
24748 4962 4974 35
24749 4962 9340 86
24750 4962 2103 91
24751 4962 9648 67
24752 4962 6306 51
24753 4962 4009 77
24754 4963 5742 10
24755 4963 8200 23
24756 4963 8904 53
24757 4963 2982 11
24758 4963 5394 36
24759 4963 4609 89
24760 4963 1921 62
24761 4963 2330 63
24762 4964 664 89
24763 4964 1442 9
24764 4964 5745 90
24765 4964 2582 21
24766 4964 2857 10
24767 4964 3232 11
24768 4965 3751 97
24769 4965 6628 39
24770 4965 2456 44
24771 4965 9490 47
24772 4966 1596 84
24773 4966 1791 67
24774 4967 6281 22
24775 4967 2446 19
24776 4967 2934 72
24777 4967 9688 23
24778 4967 4252 86
24779 4968 7237 44
24780 4968 98 8
24781 4968 8541 16
24782 4968 7078 56
24783 4968 560 32
24784 4968 5228 80
24785 4969 1029 100
24786 4969 3262 63
24787 4969 2255 57
24788 4969 5646 30
24789 4969 6436 84
24790 4969 3978 71
24791 4969 5379 29
24792 4969 5817 33
24793 4969 5316 77
24794 4970 8328 67
24795 4970 4995 95
24796 4970 7388 56
24797 4970 8380 69
24798 4971 236 24
24799 4971 2081 22
24800 4971 9075 47
24801 4971 1401 32
24802 4972 2617 82
24803 4972 3960 7
24804 4972 9679 52
24805 4973 218 13
24806 4973 3701 33
24807 4973 4405 52
24808 4973 6285 6
24809 4973 3211 9
24810 4974 5768 58
24811 4974 2177 19
24812 4974 6481 20
24813 4974 322 75
24814 4975 239 57
24815 4975 528 89
24816 4975 4619 49
24817 4975 9295 55
24818 4975 2699 49
24819 4976 2359 40
24820 4976 8366 8
24821 4976 2536 84
24822 4976 3193 85
24823 4976 9080 77
24824 4976 1749 12
24825 4977 950 50
24826 4977 3856 75
24827 4977 5726 31
24828 4978 1558 76
24829 4978 7953 59
24830 4978 3073 8
24831 4978 3893 7
24832 4979 1574 31
24833 4979 1767 30
24834 4979 881 57
24835 4979 4108 16
24836 4979 7206 66
24837 4979 6197 31
24838 4979 1673 98
24839 4979 5549 67
24840 4979 1139 26
24841 4979 970 68
24842 4980 592 51
24843 4980 1480 24
24844 4981 6375 57
24845 4981 5967 6
24846 4982 8621 49
24847 4982 1833 45
24848 4982 6770 74
24849 4982 4134 19
24850 4982 9452 71
24851 4982 254 41
24852 4982 3682 14
24853 4982 4966 36
24854 4982 5122 43
24855 4982 1951 80
24856 4983 2774 39
24857 4983 6150 88
24858 4983 6651 71
24859 4984 9669 10
24860 4984 889 31
24861 4984 6221 77
24862 4984 9337 33
24863 4984 4225 90
24864 4984 8422 6
24865 4984 6704 87
24866 4985 3876 2
24867 4985 7993 4
24868 4985 9101 60
24869 4985 2019 100
24870 4985 1060 96
24871 4985 7458 48
24872 4985 7711 53
24873 4985 3902 37
24874 4986 6005 97
24875 4986 2635 92
24876 4986 7892 72
24877 4986 9890 38
24878 4986 9419 78
24879 4986 8631 37
24880 4986 4303 41
24881 4987 2020 88
24882 4987 4445 37
24883 4987 3715 10
24884 4987 6127 26
24885 4987 6658 84
24886 4987 5857 65
24887 4988 2191 53
24888 4988 270 53
24889 4988 9155 37
24890 4988 4943 16
24891 4989 9627 5
24892 4989 3429 20
24893 4989 8864 87
24894 4989 3301 39
24895 4989 3553 38
24896 4989 8493 95
24897 4989 4527 93
24898 4989 2525 79
24899 4991 4022 25
24900 4991 7819 8
24901 4991 6278 9
24902 4991 540 21
24903 4991 1934 47
24904 4992 8270 2
24905 4992 4672 73
24906 4992 1410 15
24907 4992 7947 47
24908 4992 676 81
24909 4992 7691 21
24910 4992 6253 80
24911 4993 3216 8
24912 4993 9885 60
24913 4993 6254 56
24914 4993 7187 52
24915 4993 288 18
24916 4993 7258 73
24917 4994 3170 19
24918 4994 9306 80
24919 4994 5148 65
24920 4995 1955 41
24921 4995 6944 9
24922 4995 4094 46
24923 4995 5648 39
24924 4996 40 43
24925 4997 8220 8
24926 4997 8036 93
24927 4997 9230 78
24928 4997 2033 62
24929 4997 493 4
24930 4998 3820 86
24931 4998 6476 79
24932 4998 8868 16
24933 4999 4744 89
24934 4999 2457 90
24935 4999 7055 39
24936 4999 5512 14
24937 4999 6998 37
24938 5000 305 18
24939 5001 800 8
24940 5001 8484 48
24941 5001 6395 13
24942 5001 3792 1
24943 5001 8125 10
24944 5001 1285 55
24945 5001 1149 93
24946 5001 4563 77
24947 5001 2521 67
24948 5002 9605 4
24949 5002 8539 11
24950 5002 7182 22
24951 5002 1926 24
24952 5002 2518 59
24953 5003 9954 4
24954 5003 3412 19
24955 5003 8109 55
24956 5004 9121 76
24957 5004 4593 51
24958 5004 6089 77
24959 5004 4271 62
24960 5004 3067 50
24961 5005 5410 84
24962 5005 7015 93
24963 5006 8376 28
24964 5006 1869 12
24965 5006 1040 89
24966 5006 2709 36
24967 5006 9124 95
24968 5006 2082 35
24969 5006 8556 5
24970 5007 2804 69
24971 5007 5940 40
24972 5007 6355 75
24973 5007 3165 77
24974 5008 2567 55
24975 5008 3375 27
24976 5008 1973 39
24977 5009 1 69
24978 5009 7714 95
24979 5009 5257 65
24980 5009 1756 36
24981 5009 8044 78
24982 5010 3492 95
24983 5010 9159 9
24984 5010 3725 5
24985 5010 3354 31
24986 5010 2940 2
24987 5010 6948 27
24988 5010 9090 99
24989 5010 7416 51
24990 5010 4029 15
24991 5011 4890 95
24992 5011 4724 49
24993 5011 9471 35
24994 5011 2493 81
24995 5011 2228 90
24996 5012 7579 4
24997 5012 9583 23
24998 5012 9704 5
24999 5012 3440 52
25000 5013 9777 13
25001 5013 4234 35
25002 5013 9 82
25003 5013 9623 13
25004 5013 5030 40
25005 5013 8982 56
25006 5013 1205 64
25007 5014 1101 63
25008 5014 5631 12
25009 5014 6431 25
25010 5015 305 40
25011 5015 838 3
25012 5015 1263 76
25013 5016 7206 46
25014 5016 6189 12
25015 5017 3699 8
25016 5017 8533 38
25017 5017 4855 23
25018 5017 8579 81
25019 5017 4949 15
25020 5017 1639 47
25021 5017 8675 44
25022 5017 954 23
25023 5017 8680 52
25024 5017 7187 74
25025 5018 5285 94
25026 5018 1772 64
25027 5018 8223 27
25028 5018 1532 30
25029 5018 4251 10
25030 5018 748 58
25031 5018 2463 87
25032 5018 5502 91
25033 5019 9637 81
25034 5019 7637 94
25035 5020 7046 51
25036 5020 7145 30
25037 5020 2745 31
25038 5020 4686 42
25039 5020 6137 2
25040 5020 592 26
25041 5021 8159 1
25042 5021 5241 89
25043 5021 5859 52
25044 5021 4217 83
25045 5021 1580 88
25046 5021 3080 81
25047 5022 5778 12
25048 5022 9706 28
25049 5022 5001 67
25050 5022 4465 67
25051 5022 8915 12
25052 5022 424 53
25053 5022 6366 27
25054 5022 8972 50
25055 5023 2650 42
25056 5023 5941 3
25057 5023 4252 31
25058 5023 4685 80
25059 5023 9636 75
25060 5024 9365 62
25061 5024 7329 1
25062 5024 9718 96
25063 5024 6620 18
25064 5024 6632 52
25065 5024 4382 62
25066 5024 7109 48
25067 5024 7306 52
25068 5025 795 99
25069 5025 8263 79
25070 5025 8370 87
25071 5026 5639 13
25072 5026 768 23
25073 5026 8192 76
25074 5026 7703 20
25075 5026 5116 100
25076 5026 6859 88
25077 5026 7146 30
25078 5027 2388 91
25079 5027 8888 99
25080 5027 2930 89
25081 5027 1738 67
25082 5027 9745 91
25083 5028 7270 34
25084 5028 2644 49
25085 5028 2262 83
25086 5028 7116 69
25087 5028 4001 75
25088 5028 3677 69
25089 5029 3688 99
25090 5030 1178 45
25091 5030 9226 93
25092 5030 7565 83
25093 5030 567 69
25094 5030 1904 4
25095 5031 94 97
25096 5031 9821 32
25097 5031 8014 51
25098 5031 3085 24
25099 5031 2523 47
25100 5031 8100 92
25101 5031 211 67
25102 5031 116 95
25103 5032 3470 65
25104 5032 346 3
25105 5032 6954 6
25106 5032 5714 13
25107 5032 2661 87
25108 5032 6110 92
25109 5032 9302 20
25110 5032 5932 51
25111 5033 4392 87
25112 5033 783 93
25113 5034 1509 16
25114 5034 6599 45
25115 5034 8773 69
25116 5034 1054 89
25117 5034 1988 65
25118 5035 2670 64
25119 5035 5242 58
25120 5035 3982 26
25121 5035 9288 81
25122 5035 9408 94
25123 5036 3317 64
25124 5036 6028 92
25125 5036 7418 81
25126 5036 4119 97
25127 5036 9011 24
25128 5036 4075 16
25129 5037 5698 43
25130 5037 1037 97
25131 5037 4772 61
25132 5037 6966 76
25133 5037 4148 74
25134 5038 5564 98
25135 5038 1664 42
25136 5038 5922 51
25137 5038 9203 7
25138 5038 3595 58
25139 5038 1227 96
25140 5038 581 63
25141 5038 4918 100
25142 5039 8433 28
25143 5039 5646 99
25144 5039 2999 1
25145 5039 4031 65
25146 5039 4636 40
25147 5039 8902 56
25148 5039 8264 16
25149 5040 548 100
25150 5040 5910 53
25151 5040 9547 57
25152 5040 5404 21
25153 5040 7814 14
25154 5040 6682 18
25155 5040 1732 40
25156 5041 7227 78
25157 5041 6902 68
25158 5041 6567 93
25159 5041 5114 17
25160 5041 4460 40
25161 5041 1857 45
25162 5041 5065 55
25163 5041 8951 81
25164 5042 362 93
25165 5042 3298 92
25166 5042 7029 68
25167 5042 8499 6
25168 5042 5789 33
25169 5042 2791 3
25170 5043 3507 23
25171 5044 9304 73
25172 5044 7344 97
25173 5044 158 34
25174 5044 6575 8
25175 5044 5292 15
25176 5046 461 100
25177 5046 4400 14
25178 5046 2499 82
25179 5046 9945 52
25180 5046 7216 62
25181 5047 8324 8
25182 5047 9307 36
25183 5047 782 90
25184 5047 5570 79
25185 5047 98 99
25186 5047 5000 21
25187 5047 4103 51
25188 5048 6732 85
25189 5048 9349 87
25190 5048 8690 99
25191 5048 9389 18
25192 5048 4759 70
25193 5048 794 42
25194 5049 1034 57
25195 5049 3550 71
25196 5049 6059 46
25197 5049 5356 30
25198 5049 8611 69
25199 5049 180 29
25200 5049 9546 6
25201 5049 1804 78
25202 5050 6657 48
25203 5050 1647 75
25204 5050 3 13
25205 5050 3258 91
25206 5051 9136 61
25207 5051 2998 76
25208 5052 9297 15
25209 5052 3744 92
25210 5052 8861 74
25211 5053 4155 41
25212 5053 9138 68
25213 5053 4011 72
25214 5053 8760 34
25215 5053 3837 24
25216 5053 7597 26
25217 5054 9610 99
25218 5054 724 87
25219 5054 7914 73
25220 5054 2494 57
25221 5054 2621 88
25222 5055 5753 92
25223 5055 6737 46
25224 5055 1977 19
25225 5055 123 57
25226 5055 7983 62
25227 5056 1717 67
25228 5056 3973 42
25229 5056 6700 97
25230 5057 941 7
25231 5057 2943 57
25232 5057 2592 62
25233 5057 6685 20
25234 5058 9678 31
25235 5058 8338 75
25236 5058 4146 52
25237 5058 2348 45
25238 5059 6288 20
25239 5059 4824 38
25240 5059 1246 95
25241 5059 9820 71
25242 5059 4832 68
25243 5059 7494 38
25244 5059 1275 15
25245 5060 5227 80
25246 5060 3074 18
25247 5060 3441 47
25248 5060 6609 11
25249 5060 6413 93
25250 5060 7205 74
25251 5061 3234 76
25252 5061 2135 93
25253 5061 9966 19
25254 5061 2111 82
25255 5062 1056 84
25256 5062 8200 91
25257 5062 3211 1
25258 5063 7041 23
25259 5063 3120 3
25260 5064 4746 9
25261 5064 9373 33
25262 5064 8457 2
25263 5064 5307 23
25264 5065 837 90
25265 5065 3673 62
25266 5065 2565 34
25267 5065 1437 44
25268 5065 701 30
25269 5066 6176 72
25270 5066 4428 58
25271 5067 2300 97
25272 5067 8528 87
25273 5067 7721 54
25274 5067 7261 65
25275 5067 8959 34
25276 5067 2938 65
25277 5067 5928 91
25278 5067 906 77
25279 5067 5635 49
25280 5067 8755 51
25281 5068 3269 88
25282 5068 8037 36
25283 5068 298 50
25284 5068 7724 31
25285 5068 4266 69
25286 5068 8377 11
25287 5069 2702 43
25288 5069 4396 40
25289 5069 3963 37
25290 5069 3821 75
25291 5069 548 33
25292 5069 5665 13
25293 5070 2145 96
25294 5070 3843 47
25295 5070 2131 58
25296 5070 1857 5
25297 5071 6798 28
25298 5071 863 96
25299 5071 5003 88
25300 5071 5814 25
25301 5071 4879 74
25302 5071 5984 9
25303 5071 1756 36
25304 5071 3963 72
25305 5072 2409 79
25306 5072 2771 71
25307 5072 9213 39
25308 5072 6852 95
25309 5072 822 3
25310 5073 9449 55
25311 5073 7899 37
25312 5073 1441 67
25313 5073 9186 15
25314 5074 8930 98
25315 5074 9245 40
25316 5074 6257 14
25317 5074 873 27
25318 5074 7508 80
25319 5074 973 96
25320 5074 1425 90
25321 5074 188 93
25322 5074 9508 96
25323 5074 7941 23
25324 5074 5621 10
25325 5074 6365 93
25326 5075 2867 34
25327 5075 4665 75
25328 5075 5709 28
25329 5075 4988 8
25330 5075 7864 94
25331 5076 5475 4
25332 5076 6195 89
25333 5077 3733 60
25334 5077 9730 76
25335 5077 5663 92
25336 5077 6694 76
25337 5077 9461 14
25338 5078 7998 31
25339 5078 1533 39
25340 5078 5692 37
25341 5078 5983 25
25342 5078 9354 98
25343 5079 1272 44
25344 5079 1702 76
25345 5079 1186 51
25346 5079 7561 67
25347 5079 8891 19
25348 5079 5684 18
25349 5079 4438 11
25350 5079 9906 52
25351 5080 2498 77
25352 5080 633 71
25353 5080 7888 31
25354 5080 3109 54
25355 5081 2389 89
25356 5081 4146 7
25357 5081 466 20
25358 5082 6502 31
25359 5082 4475 86
25360 5082 5193 43
25361 5082 5148 76
25362 5083 6957 30
25363 5083 147 68
25364 5083 8205 40
25365 5083 6590 62
25366 5084 2928 10
25367 5084 7765 55
25368 5084 9928 10
25369 5085 718 46
25370 5085 9218 93
25371 5085 6898 76
25372 5085 3159 68
25373 5085 8996 5
25374 5086 2582 12
25375 5086 9488 15
25376 5087 4365 22
25377 5087 5683 91
25378 5087 9681 82
25379 5087 8895 70
25380 5087 4698 9
25381 5088 7205 7
25382 5088 1427 4
25383 5088 5231 12
25384 5088 6902 58
25385 5088 4541 89
25386 5088 7009 62
25387 5089 4416 90
25388 5089 2072 30
25389 5089 9552 3
25390 5090 6272 34
25391 5090 2884 4
25392 5090 1070 73
25393 5090 4948 46
25394 5090 4527 15
25395 5091 1431 63
25396 5091 6940 15
25397 5091 1549 50
25398 5092 9054 97
25399 5092 6884 65
25400 5092 4799 37
25401 5093 176 36
25402 5093 8078 55
25403 5093 7690 44
25404 5093 8142 41
25405 5093 4366 58
25406 5093 5232 28
25407 5093 4673 88
25408 5093 6788 1
25409 5093 564 58
25410 5093 37 42
25411 5093 8669 35
25412 5094 792 37
25413 5094 3727 9
25414 5094 3303 11
25415 5094 9336 54
25416 5094 9110 37
25417 5094 588 24
25418 5094 5405 18
25419 5095 7589 45
25420 5096 9082 8
25421 5096 4843 3
25422 5096 1613 28
25423 5096 2219 83
25424 5096 6274 75
25425 5097 906 75
25426 5097 2301 19
25427 5097 2053 63
25428 5097 7212 72
25429 5097 1717 14
25430 5097 7242 57
25431 5097 2660 37
25432 5098 904 10
25433 5098 407 18
25434 5099 3859 25
25435 5099 1952 68
25436 5099 2338 78
25437 5100 8508 83
25438 5100 1036 100
25439 5100 4004 65
25440 5100 6043 19
25441 5100 848 56
25442 5100 7138 100
25443 5100 4103 44
25444 5101 5283 61
25445 5101 5064 68
25446 5101 2086 39
25447 5101 7131 28
25448 5101 1167 5
25449 5101 8666 66
25450 5101 24 25
25451 5101 9738 24
25452 5102 5344 96
25453 5102 8922 100
25454 5102 4997 1
25455 5102 8489 58
25456 5102 9292 38
25457 5102 570 88
25458 5102 825 71
25459 5102 6059 97
25460 5102 6431 87
25461 5103 7624 25
25462 5103 9013 5
25463 5103 268 75
25464 5103 6969 60
25465 5103 9508 21
25466 5103 1223 42
25467 5103 8733 67
25468 5104 804 90
25469 5104 156 62
25470 5104 7331 38
25471 5104 1497 5
25472 5104 4046 59
25473 5105 649 36
25474 5105 7049 66
25475 5105 3842 5
25476 5105 1646 36
25477 5106 4196 52
25478 5106 860 97
25479 5106 6721 57
25480 5106 5717 95
25481 5107 2421 9
25482 5107 9425 15
25483 5107 505 65
25484 5107 4603 30
25485 5107 6518 16
25486 5108 5447 98
25487 5108 4840 27
25488 5108 4418 73
25489 5108 1361 31
25490 5109 1055 96
25491 5109 3155 79
25492 5109 4185 17
25493 5109 5512 71
25494 5110 6739 55
25495 5110 1867 27
25496 5111 3373 2
25497 5111 1938 87
25498 5111 9944 54
25499 5111 9109 67
25500 5111 5758 72
25501 5111 5366 76
25502 5111 7042 55
25503 5111 2862 8
25504 5111 5168 83
25505 5111 6657 95
25506 5111 3757 68
25507 5112 4323 38
25508 5112 721 2
25509 5112 381 46
25510 5113 6210 30
25511 5113 8005 28
25512 5113 429 95
25513 5113 4542 31
25514 5113 2547 50
25515 5113 2168 21
25516 5113 1852 36
25517 5114 4187 38
25518 5114 2446 34
25519 5114 4962 35
25520 5114 8742 50
25521 5114 4489 45
25522 5114 3068 49
25523 5114 944 7
25524 5115 8824 21
25525 5115 1931 84
25526 5115 7920 48
25527 5115 5884 7
25528 5116 4644 43
25529 5116 583 83
25530 5116 6196 77
25531 5116 2775 85
25532 5116 6510 58
25533 5116 8342 13
25534 5116 5505 25
25535 5116 5256 73
25536 5116 1872 69
25537 5116 5674 56
25538 5117 7443 29
25539 5117 8479 64
25540 5117 8372 7
25541 5117 9665 10
25542 5117 8083 84
25543 5118 4529 8
25544 5118 803 59
25545 5118 204 60
25546 5119 5806 37
25547 5119 1573 45
25548 5119 1008 84
25549 5119 4987 70
25550 5119 7135 65
25551 5119 1213 84
25552 5120 5229 31
25553 5120 7391 48
25554 5120 2653 74
25555 5120 1535 69
25556 5121 825 45
25557 5121 8325 72
25558 5121 4996 90
25559 5121 3301 81
25560 5121 2782 29
25561 5122 212 90
25562 5122 2453 41
25563 5122 726 8
25564 5122 397 28
25565 5123 8117 22
25566 5123 9627 16
25567 5123 8169 31
25568 5123 1283 36
25569 5124 4061 85
25570 5124 7120 95
25571 5125 1895 92
25572 5125 4330 10
25573 5125 8605 27
25574 5125 8422 31
25575 5125 6667 30
25576 5125 3218 39
25577 5126 8886 80
25578 5126 4512 35
25579 5126 9245 72
25580 5127 185 96
25581 5127 8794 18
25582 5127 1475 20
25583 5127 4521 6
25584 5127 3716 42
25585 5127 6538 62
25586 5127 4809 8
25587 5127 4895 79
25588 5128 6138 36
25589 5128 9670 72
25590 5129 9121 93
25591 5129 9986 17
25592 5130 8025 30
25593 5130 2238 96
25594 5130 8427 3
25595 5130 1832 29
25596 5130 4070 70
25597 5131 741 89
25598 5132 2964 80
25599 5132 9179 38
25600 5132 8928 81
25601 5132 6604 23
25602 5132 4162 65
25603 5132 9241 7
25604 5132 6053 76
25605 5133 7414 73
25606 5133 6941 89
25607 5133 2863 31
25608 5133 9997 95
25609 5133 69 98
25610 5134 9125 42
25611 5134 7256 44
25612 5135 7892 57
25613 5135 8897 57
25614 5135 8596 57
25615 5135 8078 63
25616 5136 3719 11
25617 5136 7919 42
25618 5136 525 28
25619 5136 5037 8
25620 5137 2071 25
25621 5137 2800 24
25622 5137 2786 67
25623 5137 1005 74
25624 5137 1714 6
25625 5138 641 76
25626 5138 3615 52
25627 5139 8431 88
25628 5139 7374 11
25629 5139 1158 21
25630 5139 7683 49
25631 5139 6635 39
25632 5139 1155 22
25633 5139 9481 85
25634 5139 8743 12
25635 5139 9690 9
25636 5140 3888 22
25637 5140 2152 44
25638 5140 4654 93
25639 5140 7829 46
25640 5140 8614 99
25641 5140 2875 67
25642 5140 5967 74
25643 5141 4527 14
25644 5141 6634 55
25645 5141 7753 7
25646 5141 9138 72
25647 5142 5537 70
25648 5142 4564 53
25649 5142 9247 45
25650 5142 848 82
25651 5142 6616 7
25652 5143 4323 92
25653 5143 5910 69
25654 5143 5950 17
25655 5143 5748 48
25656 5143 6143 5
25657 5143 5568 90
25658 5144 8002 92
25659 5144 6650 32
25660 5144 9148 88
25661 5144 318 82
25662 5145 4206 30
25663 5145 94 24
25664 5145 138 88
25665 5145 1972 33
25666 5145 1087 63
25667 5145 3356 92
25668 5146 6184 53
25669 5146 8380 42
25670 5146 3726 90
25671 5146 5365 24
25672 5146 4106 47
25673 5147 4719 62
25674 5147 8108 83
25675 5147 2741 8
25676 5148 4744 26
25677 5148 8961 24
25678 5148 7905 86
25679 5148 9188 64
25680 5148 6537 89
25681 5148 5946 49
25682 5148 4153 22
25683 5148 8868 61
25684 5148 8949 54
25685 5148 3123 24
25686 5148 8693 10
25687 5149 6205 47
25688 5149 2051 14
25689 5150 1794 25
25690 5150 6788 89
25691 5150 5357 85
25692 5150 6987 37
25693 5150 9952 33
25694 5151 1186 58
25695 5151 2232 80
25696 5151 3652 80
25697 5151 3854 89
25698 5151 1286 9
25699 5151 3259 5
25700 5151 4855 58
25701 5151 842 47
25702 5151 4110 27
25703 5152 1983 95
25704 5152 276 37
25705 5152 8978 43
25706 5152 1005 80
25707 5153 4252 37
25708 5153 2853 18
25709 5153 3432 84
25710 5153 8625 46
25711 5153 5214 62
25712 5153 4540 98
25713 5153 795 78
25714 5154 8952 99
25715 5154 7586 15
25716 5154 5223 89
25717 5154 9369 39
25718 5154 1526 67
25719 5154 4385 59
25720 5155 116 57
25721 5155 9864 83
25722 5155 7950 25
25723 5155 6209 37
25724 5156 6740 47
25725 5156 6586 47
25726 5156 1230 25
25727 5157 145 83
25728 5157 5823 37
25729 5157 8571 21
25730 5157 1634 87
25731 5157 1722 9
25732 5157 8898 86
25733 5158 7656 12
25734 5158 1052 50
25735 5158 5077 64
25736 5158 8122 4
25737 5158 780 65
25738 5158 5778 58
25739 5159 9888 71
25740 5159 3303 43
25741 5159 8784 3
25742 5159 3575 55
25743 5159 5554 86
25744 5159 6314 80
25745 5160 8265 30
25746 5160 174 78
25747 5160 3499 19
25748 5161 2225 54
25749 5161 6306 88
25750 5161 7790 64
25751 5161 7327 52
25752 5161 8560 86
25753 5161 4210 22
25754 5161 7348 86
25755 5161 7297 10
25756 5162 4763 19
25757 5162 8318 52
25758 5162 2682 90
25759 5162 4247 22
25760 5162 6568 19
25761 5162 3692 97
25762 5162 2102 8
25763 5163 8004 21
25764 5164 2078 84
25765 5164 5531 89
25766 5164 2787 75
25767 5164 2374 19
25768 5164 9254 98
25769 5165 449 81
25770 5165 3620 97
25771 5165 6846 53
25772 5165 1278 34
25773 5165 9497 86
25774 5165 9506 32
25775 5166 4298 46
25776 5166 444 89
25777 5166 4740 17
25778 5166 9503 40
25779 5166 123 15
25780 5166 8736 62
25781 5166 3252 57
25782 5167 4892 55
25783 5167 6244 77
25784 5167 2328 40
25785 5167 1875 56
25786 5168 2612 73
25787 5168 2302 21
25788 5168 3861 80
25789 5168 6778 27
25790 5168 1811 95
25791 5168 3622 37
25792 5169 1582 68
25793 5169 1976 77
25794 5169 688 81
25795 5169 5324 86
25796 5169 6324 95
25797 5170 9757 59
25798 5170 4185 3
25799 5170 803 56
25800 5170 8346 47
25801 5171 7351 29
25802 5171 481 68
25803 5172 2425 81
25804 5172 4616 15
25805 5172 1523 37
25806 5172 9508 46
25807 5172 6069 2
25808 5172 1069 69
25809 5172 2153 88
25810 5172 2269 96
25811 5173 8384 28
25812 5174 1172 63
25813 5174 5947 44
25814 5174 3514 30
25815 5174 1955 50
25816 5175 998 40
25817 5175 7299 85
25818 5175 5491 74
25819 5175 2918 27
25820 5176 219 77
25821 5176 8794 19
25822 5177 9250 52
25823 5177 8030 86
25824 5177 9179 65
25825 5178 5399 8
25826 5178 890 66
25827 5178 291 54
25828 5178 3006 1
25829 5179 1257 23
25830 5179 9113 11
25831 5179 2559 68
25832 5179 9110 51
25833 5180 1581 56
25834 5180 2392 62
25835 5180 7327 94
25836 5180 4945 57
25837 5180 9422 20
25838 5180 5900 42
25839 5180 6364 97
25840 5181 5283 10
25841 5181 5160 100
25842 5181 2309 5
25843 5181 9578 17
25844 5182 6774 44
25845 5182 9045 72
25846 5182 7603 43
25847 5182 8761 94
25848 5183 1912 75
25849 5183 8120 80
25850 5183 7415 23
25851 5183 2541 58
25852 5184 976 75
25853 5184 8482 95
25854 5184 9914 12
25855 5184 6844 68
25856 5184 7409 40
25857 5184 8159 21
25858 5184 635 27
25859 5184 9755 63
25860 5185 4283 43
25861 5185 2584 26
25862 5185 7585 4
25863 5186 8941 12
25864 5186 8212 3
25865 5186 2472 76
25866 5186 3917 50
25867 5186 9707 86
25868 5186 9802 43
25869 5187 2105 40
25870 5187 7613 54
25871 5187 1611 96
25872 5187 4904 60
25873 5187 9154 44
25874 5187 8435 49
25875 5188 1937 76
25876 5188 7545 28
25877 5188 3875 95
25878 5188 7638 25
25879 5188 4903 83
25880 5188 6109 67
25881 5188 4448 40
25882 5188 829 97
25883 5189 3186 66
25884 5189 8150 31
25885 5189 1865 15
25886 5189 7400 79
25887 5189 8914 45
25888 5190 1840 3
25889 5190 2338 89
25890 5190 1048 99
25891 5190 6466 10
25892 5190 1429 51
25893 5190 3647 51
25894 5190 1143 59
25895 5190 9860 66
25896 5191 5106 64
25897 5191 5384 46
25898 5191 17 68
25899 5191 8845 96
25900 5191 3547 44
25901 5191 9819 16
25902 5192 3470 62
25903 5192 4990 65
25904 5192 3141 85
25905 5192 3398 18
25906 5193 6755 30
25907 5193 9206 53
25908 5193 2147 22
25909 5193 7198 35
25910 5194 7628 74
25911 5194 5402 1
25912 5194 307 53
25913 5194 5931 39
25914 5194 4196 60
25915 5194 9266 45
25916 5194 9059 1
25917 5195 9351 69
25918 5195 5614 91
25919 5195 2998 68
25920 5195 7908 3
25921 5195 2229 31
25922 5196 9663 54
25923 5196 5130 48
25924 5196 7790 97
25925 5196 8462 56
25926 5196 2535 94
25927 5196 3047 94
25928 5196 1577 41
25929 5197 1855 14
25930 5197 1892 5
25931 5197 9002 67
25932 5197 1732 100
25933 5197 7823 11
25934 5198 5194 18
25935 5198 1023 94
25936 5199 1564 79
25937 5199 2088 66
25938 5199 2675 52
25939 5199 4472 83
25940 5199 3156 90
25941 5199 9797 9
25942 5200 7041 29
25943 5200 2152 83
25944 5200 4795 75
25945 5200 5277 27
25946 5200 1799 96
25947 5200 6277 49
25948 5200 4814 75
25949 5201 8822 84
25950 5202 9130 32
25951 5202 8231 87
25952 5202 9946 6
25953 5202 7058 55
25954 5202 5647 9
25955 5203 8430 70
25956 5203 2780 58
25957 5203 9789 24
25958 5203 3959 17
25959 5203 9376 60
25960 5203 3541 39
25961 5203 2174 41
25962 5204 103 18
25963 5204 2049 55
25964 5204 7630 98
25965 5204 8250 2
25966 5205 6056 13
25967 5205 8297 1
25968 5205 4731 6
25969 5205 2167 52
25970 5205 646 35
25971 5205 6359 76
25972 5205 1908 80
25973 5205 863 35
25974 5205 1788 45
25975 5206 9515 61
25976 5206 1273 62
25977 5206 9974 97
25978 5206 4773 63
25979 5206 211 9
25980 5206 4743 18
25981 5207 3413 7
25982 5207 9331 7
25983 5207 1021 52
25984 5207 4033 72
25985 5207 5533 25
25986 5207 6307 25
25987 5207 251 98
25988 5207 5796 80
25989 5208 4731 44
25990 5208 7738 32
25991 5208 3033 98
25992 5208 7357 47
25993 5208 2308 79
25994 5208 1748 66
25995 5209 9480 60
25996 5209 4040 99
25997 5209 2621 67
25998 5209 5636 5
25999 5209 6028 98
26000 5209 5036 21
26001 5210 2674 93
26002 5210 8752 5
26003 5210 6281 75
26004 5210 1490 8
26005 5210 1432 12
26006 5210 8068 47
26007 5210 1667 42
26008 5210 3829 85
26009 5211 3887 87
26010 5211 6126 39
26011 5211 8868 26
26012 5211 2099 58
26013 5211 6892 89
26014 5211 8373 24
26015 5211 9415 57
26016 5211 1116 11
26017 5211 8618 28
26018 5211 2221 12
26019 5212 2076 86
26020 5212 2451 91
26021 5212 6433 88
26022 5212 4930 11
26023 5212 8656 73
26024 5212 8770 90
26025 5212 6535 54
26026 5212 431 26
26027 5212 5330 17
26028 5213 1870 69
26029 5213 6118 26
26030 5214 4482 26
26031 5214 4449 39
26032 5214 9824 64
26033 5215 1582 58
26034 5215 4492 7
26035 5215 6143 61
26036 5215 7627 28
26037 5215 4166 99
26038 5216 9072 45
26039 5216 1528 8
26040 5216 3949 50
26041 5216 1820 67
26042 5216 5858 94
26043 5216 5343 66
26044 5216 324 14
26045 5217 2804 12
26046 5217 2150 65
26047 5217 9424 4
26048 5217 8096 11
26049 5218 9910 9
26050 5218 9981 42
26051 5219 5746 74
26052 5219 6629 20
26053 5219 4314 13
26054 5219 9370 15
26055 5219 2142 71
26056 5220 4505 10
26057 5220 6751 94
26058 5220 423 30
26059 5220 3754 61
26060 5220 5748 90
26061 5220 1061 98
26062 5220 5904 8
26063 5220 8945 44
26064 5221 2921 7
26065 5221 8336 41
26066 5221 8852 34
26067 5221 1215 67
26068 5221 7044 34
26069 5221 3558 43
26070 5222 6519 97
26071 5222 2228 3
26072 5222 6176 44
26073 5222 3271 6
26074 5222 9356 91
26075 5222 5472 5
26076 5223 4729 45
26077 5223 2612 80
26078 5223 8475 21
26079 5224 8425 73
26080 5224 5557 85
26081 5224 7794 23
26082 5224 1701 100
26083 5224 3526 66
26084 5224 2947 9
26085 5225 4110 19
26086 5226 9460 57
26087 5226 9534 90
26088 5226 574 1
26089 5226 1853 31
26090 5226 4277 95
26091 5226 1233 33
26092 5227 1737 53
26093 5227 4589 97
26094 5227 659 59
26095 5228 5491 13
26096 5228 9506 83
26097 5228 4929 47
26098 5228 3858 37
26099 5229 4940 60
26100 5229 1788 97
26101 5229 9342 100
26102 5229 2233 12
26103 5229 3864 95
26104 5230 5883 11
26105 5230 8384 27
26106 5230 3537 41
26107 5231 237 72
26108 5231 5154 72
26109 5231 4217 37
26110 5232 6956 46
26111 5232 3874 88
26112 5232 3944 45
26113 5232 3194 16
26114 5232 3521 47
26115 5232 507 14
26116 5232 5063 31
26117 5232 3528 11
26118 5233 2698 90
26119 5233 3797 6
26120 5233 9443 38
26121 5234 9932 33
26122 5234 1210 82
26123 5234 6957 79
26124 5234 5920 44
26125 5234 1668 34
26126 5235 3617 91
26127 5235 6820 6
26128 5235 35 37
26129 5235 4268 49
26130 5236 466 61
26131 5236 6987 57
26132 5237 4338 72
26133 5237 79 37
26134 5238 4664 58
26135 5238 3258 41
26136 5238 5471 98
26137 5238 1445 10
26138 5238 5154 90
26139 5239 5065 86
26140 5239 9655 92
26141 5239 7361 94
26142 5239 2725 41
26143 5239 7548 15
26144 5239 5919 67
26145 5239 483 12
26146 5239 3780 20
26147 5240 6469 78
26148 5240 5416 28
26149 5240 7617 38
26150 5240 7999 54
26151 5240 5315 93
26152 5241 5396 86
26153 5241 6449 48
26154 5241 233 80
26155 5241 6964 38
26156 5241 2566 37
26157 5241 6570 53
26158 5241 7138 76
26159 5242 6805 14
26160 5242 572 68
26161 5242 3832 11
26162 5242 1119 39
26163 5243 9196 5
26164 5243 2706 27
26165 5243 5659 9
26166 5244 7084 96
26167 5244 5258 14
26168 5245 7449 98
26169 5245 6337 59
26170 5246 3576 92
26171 5246 2200 3
26172 5246 4683 72
26173 5246 1792 39
26174 5246 1615 62
26175 5246 547 76
26176 5246 9536 8
26177 5246 9800 28
26178 5246 9759 3
26179 5247 5951 100
26180 5247 8434 62
26181 5247 5485 96
26182 5247 8365 80
26183 5247 2869 13
26184 5247 1311 90
26185 5247 1219 59
26186 5248 5737 57
26187 5248 703 28
26188 5249 2352 8
26189 5249 1384 47
26190 5250 5777 100
26191 5250 7062 11
26192 5250 5328 11
26193 5250 3573 29
26194 5251 1439 87
26195 5251 6269 70
26196 5251 1184 39
26197 5251 4061 38
26198 5251 1437 11
26199 5251 9297 85
26200 5251 5093 41
26201 5251 4215 99
26202 5252 3242 33
26203 5252 6430 54
26204 5252 871 39
26205 5252 758 64
26206 5252 6598 4
26207 5253 2237 50
26208 5253 8778 31
26209 5253 7809 31
26210 5253 3831 17
26211 5254 7427 48
26212 5254 8719 95
26213 5254 3066 33
26214 5254 29 39
26215 5254 9671 54
26216 5254 2604 92
26217 5255 5227 37
26218 5255 5161 32
26219 5255 9570 8
26220 5255 4695 81
26221 5255 343 39
26222 5257 8897 76
26223 5257 1777 5
26224 5257 4263 96
26225 5257 2432 24
26226 5257 1809 47
26227 5257 7867 71
26228 5258 7348 25
26229 5258 8812 13
26230 5258 986 48
26231 5258 2571 32
26232 5258 8693 2
26233 5259 275 61
26234 5259 9033 55
26235 5259 4023 57
26236 5259 7424 18
26237 5259 8460 3
26238 5260 8830 1
26239 5260 5893 40
26240 5260 9101 84
26241 5260 9071 12
26242 5260 4960 55
26243 5260 9204 20
26244 5261 7017 86
26245 5261 2187 100
26246 5261 1974 28
26247 5261 6815 1
26248 5262 1749 67
26249 5262 8297 26
26250 5263 825 98
26251 5263 8631 9
26252 5263 1352 64
26253 5263 216 53
26254 5263 8976 80
26255 5264 4946 26
26256 5264 9905 1
26257 5264 3705 21
26258 5265 4529 24
26259 5265 1852 24
26260 5265 4949 56
26261 5265 6976 57
26262 5265 1317 46
26263 5265 9147 81
26264 5265 256 60
26265 5265 6631 19
26266 5265 5897 76
26267 5266 1576 75
26268 5266 4119 16
26269 5266 4051 24
26270 5266 8174 5
26271 5266 9340 2
26272 5267 2089 25
26273 5267 7977 60
26274 5267 6125 94
26275 5267 568 36
26276 5268 4084 78
26277 5268 5266 38
26278 5268 3222 23
26279 5268 3000 27
26280 5269 7012 26
26281 5269 7074 7
26282 5269 4218 9
26283 5270 6281 46
26284 5270 9707 60
26285 5271 8952 28
26286 5271 5436 81
26287 5271 7858 6
26288 5271 9408 88
26289 5272 8498 95
26290 5272 2325 81
26291 5272 9097 57
26292 5272 5832 8
26293 5272 1591 79
26294 5273 6568 81
26295 5273 1718 87
26296 5273 7002 42
26297 5273 9822 40
26298 5273 6010 57
26299 5274 3232 83
26300 5274 8055 41
26301 5274 4506 54
26302 5274 5393 35
26303 5274 8247 36
26304 5274 169 60
26305 5274 4875 53
26306 5275 4187 99
26307 5276 483 37
26308 5276 3441 25
26309 5276 9147 51
26310 5276 5397 83
26311 5276 2685 61
26312 5277 7447 58
26313 5277 1980 48
26314 5277 547 11
26315 5277 3654 39
26316 5278 4554 3
26317 5278 2655 16
26318 5278 8741 99
26319 5278 9784 81
26320 5278 2118 42
26321 5279 2608 44
26322 5279 9386 97
26323 5279 8521 22
26324 5279 6286 6
26325 5280 6929 42
26326 5280 5449 52
26327 5280 1143 85
26328 5280 1854 27
26329 5281 6912 51
26330 5281 2440 11
26331 5281 7295 34
26332 5281 1839 28
26333 5282 4923 60
26334 5282 8445 32
26335 5282 5177 49
26336 5282 2969 40
26337 5282 9296 70
26338 5282 3117 21
26339 5282 2064 3
26340 5283 1651 71
26341 5283 5291 90
26342 5283 5683 16
26343 5283 9526 62
26344 5283 961 93
26345 5283 331 59
26346 5283 8399 83
26347 5284 7244 30
26348 5284 4039 94
26349 5284 825 64
26350 5284 65 39
26351 5284 8464 49
26352 5284 6206 71
26353 5284 2330 22
26354 5285 2147 82
26355 5285 9909 36
26356 5285 1639 65
26357 5285 349 16
26358 5285 8756 92
26359 5285 1469 59
26360 5286 7670 50
26361 5286 8231 66
26362 5286 4918 57
26363 5286 970 21
26364 5286 7981 85
26365 5286 9913 28
26366 5287 2064 21
26367 5287 3774 25
26368 5287 8269 74
26369 5287 644 14
26370 5287 2334 95
26371 5287 6279 24
26372 5288 3165 36
26373 5288 2697 77
26374 5288 3050 87
26375 5288 7708 68
26376 5288 1098 44
26377 5288 3785 77
26378 5289 1638 56
26379 5289 1544 69
26380 5289 3303 84
26381 5289 9979 66
26382 5289 9369 20
26383 5289 9459 60
26384 5290 1584 92
26385 5290 3785 57
26386 5290 5302 26
26387 5290 2447 76
26388 5290 3267 31
26389 5291 2465 17
26390 5291 6037 17
26391 5291 1024 49
26392 5292 4247 39
26393 5292 9273 62
26394 5292 9238 63
26395 5292 1417 83
26396 5292 3259 83
26397 5292 9348 55
26398 5293 6285 75
26399 5293 5262 64
26400 5293 8808 65
26401 5293 8078 41
26402 5293 6290 78
26403 5293 5475 77
26404 5294 9347 61
26405 5294 6852 17
26406 5294 1778 13
26407 5294 3995 59
26408 5294 6091 29
26409 5294 8163 95
26410 5295 7356 65
26411 5295 8349 26
26412 5295 6315 86
26413 5295 9882 36
26414 5295 2410 79
26415 5296 3818 31
26416 5296 1759 76
26417 5296 6426 59
26418 5296 6830 3
26419 5296 4399 12
26420 5296 3096 71
26421 5297 9038 49
26422 5297 1641 16
26423 5297 375 18
26424 5297 1590 92
26425 5297 735 21
26426 5297 675 72
26427 5297 4686 28
26428 5298 1404 51
26429 5298 7290 32
26430 5298 666 61
26431 5298 361 86
26432 5298 985 78
26433 5298 6292 96
26434 5299 4958 97
26435 5299 5400 34
26436 5299 3607 17
26437 5299 5202 75
26438 5299 3626 85
26439 5300 2054 50
26440 5300 6775 63
26441 5300 647 38
26442 5300 2934 9
26443 5300 8648 79
26444 5300 3073 19
26445 5300 2722 34
26446 5302 327 16
26447 5302 474 1
26448 5302 2106 58
26449 5302 5872 51
26450 5302 6112 91
26451 5303 3463 50
26452 5303 3247 85
26453 5303 2577 12
26454 5303 2242 63
26455 5303 3384 81
26456 5304 9803 93
26457 5304 9716 21
26458 5304 4651 63
26459 5304 8671 4
26460 5304 2579 21
26461 5304 3851 28
26462 5304 1032 59
26463 5304 2488 9
26464 5305 9844 73
26465 5305 5849 39
26466 5305 6251 38
26467 5305 5984 87
26468 5305 589 14
26469 5306 4429 27
26470 5306 9894 49
26471 5306 3736 24
26472 5307 2236 83
26473 5307 509 78
26474 5308 1978 59
26475 5308 6910 62
26476 5308 5024 88
26477 5308 2323 13
26478 5309 4222 80
26479 5309 3938 35
26480 5309 397 53
26481 5309 636 96
26482 5309 4141 2
26483 5311 4016 56
26484 5311 2979 91
26485 5311 9553 54
26486 5311 4688 98
26487 5312 7922 36
26488 5312 5773 18
26489 5312 2322 73
26490 5312 128 42
26491 5312 9505 96
26492 5313 7955 61
26493 5313 706 73
26494 5313 9134 17
26495 5313 4840 54
26496 5313 7626 67
26497 5313 4945 80
26498 5313 1654 42
26499 5313 1598 36
26500 5314 5713 46
26501 5314 8777 58
26502 5314 8159 8
26503 5314 1348 84
26504 5314 4805 98
26505 5314 27 69
26506 5314 4813 1
26507 5314 4806 21
26508 5315 9132 34
26509 5315 8738 76
26510 5316 153 16
26511 5316 2625 43
26512 5316 702 33
26513 5317 857 60
26514 5317 1147 21
26515 5317 4786 6
26516 5317 933 79
26517 5317 4317 78
26518 5317 6654 88
26519 5318 4804 30
26520 5318 3017 19
26521 5318 5023 100
26522 5318 8257 83
26523 5319 9151 98
26524 5319 7570 77
26525 5319 7708 27
26526 5319 5032 41
26527 5320 6591 59
26528 5320 6559 33
26529 5320 2273 47
26530 5320 52 79
26531 5320 7120 100
26532 5321 1883 39
26533 5321 5329 3
26534 5321 5463 20
26535 5321 1514 17
26536 5321 2017 38
26537 5321 7153 48
26538 5321 1017 97
26539 5321 5024 80
26540 5321 6834 3
26541 5321 6952 66
26542 5321 9761 93
26543 5322 6093 19
26544 5322 3363 93
26545 5322 6799 17
26546 5322 5716 85
26547 5323 1106 49
26548 5323 1347 37
26549 5323 7355 62
26550 5323 8636 82
26551 5323 437 58
26552 5323 6062 87
26553 5323 6708 12
26554 5324 8152 7
26555 5324 5176 5
26556 5325 2926 64
26557 5325 8164 41
26558 5325 1078 37
26559 5326 4696 11
26560 5326 2407 76
26561 5326 3792 43
26562 5326 7592 72
26563 5326 9161 51
26564 5326 385 30
26565 5327 122 12
26566 5327 7293 77
26567 5327 2074 19
26568 5327 5794 79
26569 5327 9528 23
26570 5327 417 75
26571 5327 6081 40
26572 5328 1272 65
26573 5328 3739 85
26574 5329 8403 1
26575 5329 8094 66
26576 5329 8568 21
26577 5329 5072 100
26578 5330 5073 18
26579 5330 1431 57
26580 5331 7429 53
26581 5331 4310 51
26582 5331 7659 1
26583 5331 660 48
26584 5331 639 56
26585 5331 5839 85
26586 5332 5879 28
26587 5332 5074 45
26588 5332 7065 46
26589 5332 8067 86
26590 5332 5240 44
26591 5332 1528 84
26592 5332 1419 85
26593 5333 8293 71
26594 5333 6378 55
26595 5333 6627 59
26596 5334 2794 68
26597 5334 2708 58
26598 5334 2735 27
26599 5334 9415 78
26600 5334 2433 12
26601 5334 8037 38
26602 5334 7379 68
26603 5334 755 47
26604 5335 2927 86
26605 5335 4780 47
26606 5335 9871 23
26607 5335 9398 78
26608 5335 2164 87
26609 5335 4738 68
26610 5335 7866 3
26611 5335 6758 14
26612 5335 1028 55
26613 5336 4941 48
26614 5336 4074 19
26615 5336 1327 49
26616 5336 3775 35
26617 5336 3939 6
26618 5336 1713 28
26619 5336 2525 100
26620 5336 4866 99
26621 5336 19 24
26622 5337 9507 57
26623 5337 9676 10
26624 5337 2781 13
26625 5337 9107 15
26626 5338 3857 97
26627 5338 8231 3
26628 5338 3590 73
26629 5338 7646 28
26630 5339 3314 50
26631 5339 6709 24
26632 5339 4975 24
26633 5339 6266 88
26634 5339 9422 22
26635 5339 6978 18
26636 5340 7064 96
26637 5340 1894 20
26638 5340 2658 40
26639 5340 9621 33
26640 5340 6421 9
26641 5340 113 33
26642 5340 7003 80
26643 5341 9026 69
26644 5342 7680 86
26645 5343 3021 42
26646 5343 7426 20
26647 5343 9200 51
26648 5343 4785 61
26649 5343 2466 25
26650 5343 8287 37
26651 5343 2878 24
26652 5343 9585 55
26653 5343 5725 3
26654 5343 3789 51
26655 5344 9337 51
26656 5344 730 40
26657 5344 6817 99
26658 5344 8739 73
26659 5344 1965 76
26660 5344 1545 76
26661 5345 9418 70
26662 5345 5693 39
26663 5346 1186 86
26664 5347 646 24
26665 5347 8906 98
26666 5348 9000 13
26667 5348 9953 76
26668 5348 3833 25
26669 5348 9665 2
26670 5348 8586 58
26671 5348 5449 1
26672 5349 7546 49
26673 5349 1334 29
26674 5349 979 96
26675 5349 6340 95
26676 5349 2166 28
26677 5350 4844 68
26678 5350 2567 58
26679 5350 4556 67
26680 5350 9551 96
26681 5350 2343 42
26682 5351 7921 3
26683 5351 5828 56
26684 5351 3149 100
26685 5351 9799 28
26686 5351 1605 45
26687 5351 4141 19
26688 5352 7901 35
26689 5352 2198 78
26690 5352 8023 16
26691 5352 9697 90
26692 5352 1435 65
26693 5352 5410 1
26694 5352 8808 49
26695 5352 6827 27
26696 5353 2982 81
26697 5353 6795 32
26698 5353 6644 28
26699 5353 6394 45
26700 5354 1813 98
26701 5354 4602 36
26702 5354 7285 8
26703 5354 7790 6
26704 5354 2292 82
26705 5354 6607 60
26706 5355 3060 11
26707 5355 822 15
26708 5355 6573 78
26709 5356 4253 39
26710 5356 5704 9
26711 5357 1687 65
26712 5357 7828 56
26713 5357 1038 52
26714 5357 6717 80
26715 5358 982 51
26716 5358 8267 86
26717 5358 8707 50
26718 5358 5774 33
26719 5358 9607 4
26720 5359 8579 90
26721 5359 5809 63
26722 5359 3050 18
26723 5359 798 2
26724 5359 4944 75
26725 5359 978 13
26726 5359 9752 76
26727 5360 8063 83
26728 5360 8543 23
26729 5360 4636 51
26730 5360 6563 6
26731 5361 776 56
26732 5361 8921 89
26733 5361 9807 14
26734 5361 6538 78
26735 5361 3154 82
26736 5361 9022 97
26737 5362 3902 6
26738 5362 9372 41
26739 5362 6545 58
26740 5362 5854 58
26741 5362 7173 91
26742 5363 2396 54
26743 5363 3409 33
26744 5364 9619 66
26745 5364 2970 50
26746 5364 2705 12
26747 5365 4751 74
26748 5365 8601 70
26749 5365 6936 44
26750 5365 1799 32
26751 5365 8796 21
26752 5366 6762 7
26753 5366 1454 94
26754 5366 4785 69
26755 5366 7907 57
26756 5366 3421 51
26757 5367 7961 60
26758 5367 8762 4
26759 5367 4617 37
26760 5367 9165 98
26761 5368 2849 99
26762 5368 348 61
26763 5368 3082 15
26764 5368 7479 29
26765 5368 4561 96
26766 5368 4552 100
26767 5368 4175 29
26768 5369 5359 50
26769 5369 6619 23
26770 5369 7289 23
26771 5370 9352 11
26772 5370 8512 64
26773 5370 6901 83
26774 5370 5960 60
26775 5370 4609 23
26776 5370 8466 13
26777 5370 5041 6
26778 5371 3757 13
26779 5371 2737 23
26780 5371 1205 79
26781 5371 16 43
26782 5372 6386 16
26783 5372 124 13
26784 5372 5036 55
26785 5372 4020 72
26786 5372 9252 7
26787 5373 5159 6
26788 5373 2663 53
26789 5373 7634 31
26790 5373 6349 83
26791 5373 2492 30
26792 5374 2920 68
26793 5374 6168 20
26794 5374 8923 88
26795 5374 3259 34
26796 5375 107 88
26797 5375 2249 91
26798 5375 9784 7
26799 5375 4454 64
26800 5375 267 54
26801 5375 5513 11
26802 5375 1764 34
26803 5375 9623 35
26804 5375 1025 10
26805 5375 30 31
26806 5376 9967 50
26807 5376 8210 41
26808 5377 7998 85
26809 5377 2802 67
26810 5377 9257 44
26811 5377 4236 78
26812 5377 9077 20
26813 5377 460 50
26814 5377 4333 85
26815 5377 257 45
26816 5377 8496 70
26817 5377 3361 64
26818 5377 4781 40
26819 5377 5244 90
26820 5377 40 93
26821 5378 2983 93
26822 5378 2201 38
26823 5378 4585 51
26824 5378 1015 40
26825 5378 2745 93
26826 5378 9641 86
26827 5379 2998 58
26828 5380 7656 81
26829 5381 8099 68
26830 5381 4399 66
26831 5381 7068 17
26832 5381 327 69
26833 5381 5380 36
26834 5381 3545 3
26835 5382 5158 24
26836 5382 5528 32
26837 5382 8606 33
26838 5382 6980 1
26839 5382 9154 34
26840 5382 7283 10
26841 5383 8098 1
26842 5383 3038 38
26843 5383 7971 29
26844 5383 6032 16
26845 5383 9220 55
26846 5383 1762 16
26847 5384 9448 48
26848 5384 1639 77
26849 5385 8756 18
26850 5385 8188 70
26851 5385 1140 31
26852 5385 4772 7
26853 5385 9 67
26854 5385 1511 65
26855 5386 9109 55
26856 5386 6411 57
26857 5386 55 33
26858 5386 2840 81
26859 5386 4848 56
26860 5386 2435 88
26861 5386 7103 29
26862 5387 6871 36
26863 5387 9844 39
26864 5387 5991 5
26865 5387 9512 41
26866 5387 1734 6
26867 5388 582 34
26868 5388 4906 18
26869 5388 4879 8
26870 5388 1071 62
26871 5389 4981 50
26872 5389 9239 34
26873 5389 1878 88
26874 5390 603 60
26875 5390 5655 40
26876 5390 6088 2
26877 5390 1868 91
26878 5390 6328 96
26879 5390 4574 61
26880 5390 2113 72
26881 5391 8862 60
26882 5391 661 17
26883 5391 2421 51
26884 5391 3903 96
26885 5391 1737 28
26886 5392 6253 84
26887 5392 4466 86
26888 5392 6805 21
26889 5392 144 55
26890 5392 4232 19
26891 5392 6888 90
26892 5392 954 73
26893 5393 4561 6
26894 5393 2695 64
26895 5393 9243 39
26896 5394 6303 5
26897 5394 4640 100
26898 5394 2067 4
26899 5394 5768 34
26900 5394 8472 85
26901 5394 7363 84
26902 5395 8390 27
26903 5395 7565 1
26904 5395 5990 44
26905 5396 7102 35
26906 5396 1479 33
26907 5396 3305 82
26908 5396 1968 49
26909 5396 8244 42
26910 5396 6742 73
26911 5397 4708 13
26912 5397 1758 40
26913 5397 1063 60
26914 5397 6607 75
26915 5397 8270 2
26916 5398 5800 60
26917 5399 826 73
26918 5399 1314 51
26919 5399 4952 50
26920 5399 1882 24
26921 5399 7034 79
26922 5400 6774 11
26923 5400 2313 28
26924 5400 3291 36
26925 5400 982 99
26926 5401 3745 83
26927 5401 5995 96
26928 5402 1921 92
26929 5402 6737 45
26930 5402 6320 78
26931 5402 4446 73
26932 5402 8994 28
26933 5402 5505 88
26934 5402 5147 84
26935 5403 2409 38
26936 5403 3439 59
26937 5403 2990 43
26938 5404 4048 61
26939 5405 5396 80
26940 5405 4039 72
26941 5405 513 36
26942 5405 9467 82
26943 5405 171 11
26944 5406 2170 64
26945 5406 1514 9
26946 5406 8715 71
26947 5406 9998 94
26948 5407 4313 11
26949 5407 2088 64
26950 5407 6726 61
26951 5407 7623 80
26952 5408 8188 9
26953 5408 3269 5
26954 5408 8450 13
26955 5408 3790 34
26956 5408 9084 35
26957 5408 3726 37
26958 5408 4230 46
26959 5409 1976 54
26960 5409 9709 58
26961 5410 2610 22
26962 5410 7630 22
26963 5410 1862 86
26964 5410 2511 66
26965 5410 5877 77
26966 5410 5478 50
26967 5410 7555 23
26968 5410 4781 20
26969 5410 8169 97
26970 5410 177 98
26971 5410 648 63
26972 5411 6156 40
26973 5411 5880 77
26974 5411 8196 91
26975 5411 8823 62
26976 5412 832 2
26977 5412 2523 15
26978 5412 6057 83
26979 5413 1919 55
26980 5413 9720 35
26981 5413 6359 2
26982 5414 6445 34
26983 5414 9220 88
26984 5414 5900 57
26985 5414 6942 58
26986 5414 2320 45
26987 5414 212 51
26988 5415 6550 52
26989 5415 3402 47
26990 5415 8037 47
26991 5415 8780 37
26992 5416 3507 31
26993 5416 5959 26
26994 5416 7718 42
26995 5416 9352 43
26996 5416 6549 80
26997 5416 2570 85
26998 5416 5833 88
26999 5417 2517 22
27000 5417 8145 71
27001 5417 6354 71
27002 5417 7428 41
27003 5418 2368 42
27004 5418 7999 29
27005 5419 4727 67
27006 5419 6856 91
27007 5419 9858 31
27008 5419 7813 40
27009 5419 8009 42
27010 5419 2587 25
27011 5420 639 50
27012 5420 615 86
27013 5420 3557 62
27014 5420 8744 89
27015 5421 8737 86
27016 5421 1576 11
27017 5421 2239 33
27018 5421 2542 93
27019 5421 8677 10
27020 5421 7836 73
27021 5421 589 44
27022 5421 9359 42
27023 5422 5232 87
27024 5422 4685 60
27025 5422 2153 96
27026 5422 3676 76
27027 5422 3380 97
27028 5423 1438 96
27029 5423 5478 78
27030 5423 2022 46
27031 5423 1113 43
27032 5424 2395 24
27033 5425 1096 2
27034 5425 1181 23
27035 5426 7819 43
27036 5426 557 58
27037 5426 9335 83
27038 5426 2540 41
27039 5426 8564 37
27040 5426 878 45
27041 5427 8444 17
27042 5427 4110 15
27043 5427 1598 23
27044 5428 1891 98
27045 5428 4595 75
27046 5428 3339 9
27047 5428 8547 76
27048 5429 1509 14
27049 5429 7396 85
27050 5429 4095 31
27051 5429 6344 64
27052 5429 5182 88
27053 5429 7933 3
27054 5429 7386 43
27055 5429 1768 58
27056 5429 7941 39
27057 5429 4605 22
27058 5429 392 86
27059 5429 6292 21
27060 5429 8234 12
27061 5430 1230 76
27062 5430 7299 52
27063 5430 4868 33
27064 5430 6223 97
27065 5430 4597 10
27066 5430 4648 90
27067 5430 955 59
27068 5430 1264 38
27069 5430 3498 63
27070 5431 3622 47
27071 5431 3425 60
27072 5431 1447 2
27073 5431 5250 64
27074 5431 5926 38
27075 5431 3467 92
27076 5431 7792 67
27077 5431 3671 21
27078 5431 5402 97
27079 5432 9121 16
27080 5432 4572 78
27081 5432 6446 18
27082 5432 8052 77
27083 5432 7914 76
27084 5433 2132 100
27085 5433 7077 63
27086 5433 4526 64
27087 5433 8562 49
27088 5433 3352 57
27089 5434 3670 75
27090 5434 9839 80
27091 5434 1095 67
27092 5434 9670 21
27093 5434 412 80
27094 5434 7083 29
27095 5434 4128 74
27096 5435 5947 95
27097 5435 2020 73
27098 5435 5787 98
27099 5435 159 96
27100 5435 4348 42
27101 5435 8406 65
27102 5435 9898 47
27103 5435 4616 77
27104 5436 8355 8
27105 5436 2593 17
27106 5437 9105 99
27107 5437 159 98
27108 5437 7305 31
27109 5437 3447 67
27110 5438 8766 100
27111 5438 4713 4
27112 5438 7798 86
27113 5438 3622 47
27114 5439 8068 37
27115 5439 9393 87
27116 5439 273 63
27117 5440 7742 56
27118 5440 1091 68
27119 5440 2192 20
27120 5440 6965 33
27121 5440 702 54
27122 5441 8517 84
27123 5441 6281 75
27124 5441 5088 51
27125 5441 6341 49
27126 5441 1739 13
27127 5442 8394 20
27128 5442 5985 38
27129 5442 1689 1
27130 5442 7999 52
27131 5442 3562 66
27132 5442 9271 82
27133 5442 8796 27
27134 5442 8471 8
27135 5442 166 100
27136 5443 8858 26
27137 5443 5394 14
27138 5443 4775 18
27139 5443 8202 97
27140 5444 5603 51
27141 5444 8327 18
27142 5444 474 99
27143 5444 7562 65
27144 5444 9877 40
27145 5445 7229 19
27146 5445 306 99
27147 5445 3367 21
27148 5445 2020 3
27149 5445 5741 91
27150 5445 9082 68
27151 5445 801 50
27152 5445 5220 4
27153 5445 1762 79
27154 5445 6440 54
27155 5446 4846 28
27156 5446 1914 23
27157 5446 2249 29
27158 5446 3524 45
27159 5446 8623 10
27160 5446 1680 95
27161 5447 8622 32
27162 5447 4561 46
27163 5447 868 88
27164 5447 3572 35
27165 5447 8514 21
27166 5448 5953 61
27167 5448 6085 77
27168 5448 7397 35
27169 5449 200 24
27170 5449 9415 8
27171 5449 4469 88
27172 5449 6519 78
27173 5449 2885 18
27174 5450 9969 43
27175 5450 7785 28
27176 5450 6516 45
27177 5450 8835 31
27178 5450 4781 85
27179 5450 1634 27
27180 5451 8982 25
27181 5451 9888 7
27182 5451 2054 76
27183 5451 7039 13
27184 5452 2777 43
27185 5452 1251 96
27186 5452 2298 96
27187 5452 728 84
27188 5452 1984 89
27189 5453 1607 36
27190 5453 2620 9
27191 5453 3902 56
27192 5453 847 66
27193 5453 5302 34
27194 5453 3014 48
27195 5453 5894 93
27196 5454 5478 53
27197 5454 4089 91
27198 5454 2643 92
27199 5454 3923 46
27200 5454 9389 41
27201 5455 601 57
27202 5455 7747 22
27203 5456 5272 4
27204 5456 7656 26
27205 5456 8650 89
27206 5456 3651 63
27207 5456 3703 45
27208 5456 3594 44
27209 5457 9162 69
27210 5457 5120 83
27211 5457 2512 10
27212 5457 8165 66
27213 5457 4771 24
27214 5457 2464 63
27215 5457 8695 74
27216 5457 1599 36
27217 5457 301 65
27218 5458 3203 21
27219 5458 5339 3
27220 5458 4577 42
27221 5458 8229 25
27222 5458 4860 81
27223 5458 5257 43
27224 5459 2853 27
27225 5459 2238 11
27226 5459 99 20
27227 5459 8734 13
27228 5459 3118 5
27229 5459 7083 13
27230 5459 4384 89
27231 5459 4999 58
27232 5459 4513 33
27233 5460 6552 82
27234 5460 7031 24
27235 5460 2848 17
27236 5460 2274 36
27237 5460 4358 15
27238 5460 4162 77
27239 5460 5582 39
27240 5461 4163 11
27241 5461 7053 34
27242 5461 4444 57
27243 5462 634 4
27244 5462 5734 44
27245 5462 8661 67
27246 5462 7966 77
27247 5462 2959 70
27248 5462 4507 10
27249 5462 605 5
27250 5462 8535 87
27251 5463 1404 65
27252 5463 6397 56
27253 5463 4421 23
27254 5463 8798 34
27255 5463 4863 29
27256 5464 2352 85
27257 5464 431 75
27258 5464 5087 6
27259 5464 5851 79
27260 5464 468 24
27261 5464 4092 54
27262 5464 4504 49
27263 5464 7225 20
27264 5465 5998 60
27265 5465 1161 30
27266 5465 6448 78
27267 5465 6617 29
27268 5466 8655 11
27269 5466 5022 69
27270 5466 3706 93
27271 5467 1448 12
27272 5467 4643 29
27273 5467 3920 97
27274 5467 5345 100
27275 5467 4524 15
27276 5467 7425 35
27277 5468 840 40
27278 5468 731 53
27279 5469 8408 100
27280 5469 3889 15
27281 5469 331 41
27282 5469 716 60
27283 5469 5378 66
27284 5469 2190 19
27285 5469 3518 71
27286 5470 4712 61
27287 5470 9962 24
27288 5470 7982 91
27289 5470 4402 29
27290 5470 1779 22
27291 5471 2468 67
27292 5471 4564 24
27293 5471 8319 69
27294 5471 3600 12
27295 5471 9273 34
27296 5472 3771 99
27297 5472 7232 33
27298 5472 4776 8
27299 5472 266 28
27300 5472 1795 70
27301 5473 6441 22
27302 5473 571 50
27303 5473 671 75
27304 5473 2156 41
27305 5473 8453 35
27306 5474 1748 81
27307 5474 5748 37
27308 5474 615 4
27309 5474 855 72
27310 5474 3912 53
27311 5475 6083 88
27312 5475 1988 32
27313 5475 3265 91
27314 5475 82 45
27315 5475 9397 89
27316 5475 5740 87
27317 5475 922 63
27318 5475 8527 69
27319 5475 2871 73
27320 5475 1492 78
27321 5476 5754 66
27322 5476 7368 46
27323 5476 7112 19
27324 5476 3952 76
27325 5476 1622 43
27326 5476 6021 90
27327 5477 7212 76
27328 5477 6267 15
27329 5477 1888 58
27330 5477 4742 51
27331 5477 6249 63
27332 5477 5651 54
27333 5478 8821 65
27334 5478 329 93
27335 5478 1031 24
27336 5478 4083 27
27337 5478 1758 76
27338 5478 1025 79
27339 5478 2195 40
27340 5479 4811 46
27341 5479 5330 79
27342 5479 8456 76
27343 5479 610 22
27344 5479 1013 27
27345 5480 6025 90
27346 5480 1710 23
27347 5480 4127 23
27348 5480 8140 33
27349 5480 6661 60
27350 5480 9540 95
27351 5481 645 71
27352 5481 8916 94
27353 5481 6432 100
27354 5481 6582 72
27355 5481 569 53
27356 5481 5382 34
27357 5481 6301 25
27358 5482 4488 12
27359 5482 6589 44
27360 5482 3462 45
27361 5482 3436 97
27362 5482 1628 11
27363 5482 734 17
27364 5483 7259 22
27365 5483 303 39
27366 5483 1794 66
27367 5483 1855 77
27368 5483 7797 48
27369 5484 2348 53
27370 5484 2689 81
27371 5484 4146 47
27372 5484 9050 61
27373 5484 8250 17
27374 5485 3705 94
27375 5485 3284 79
27376 5485 1338 25
27377 5485 9113 40
27378 5485 9723 39
27379 5485 4557 100
27380 5486 1193 40
27381 5486 8091 37
27382 5486 6910 38
27383 5486 5138 38
27384 5487 5989 63
27385 5487 6091 73
27386 5487 2688 39
27387 5487 324 19
27388 5487 1591 97
27389 5487 6788 84
27390 5488 5283 34
27391 5488 3079 62
27392 5488 7704 61
27393 5488 2390 16
27394 5489 8588 74
27395 5489 2481 54
27396 5489 4807 17
27397 5489 8767 27
27398 5489 4802 4
27399 5489 1265 8
27400 5489 9638 90
27401 5490 6943 99
27402 5490 9041 22
27403 5490 9335 63
27404 5490 5338 41
27405 5491 8009 26
27406 5491 4396 39
27407 5491 6521 78
27408 5491 9212 9
27409 5491 6914 14
27410 5492 5436 73
27411 5492 1884 60
27412 5492 5030 6
27413 5492 7566 65
27414 5492 5067 56
27415 5493 6550 73
27416 5493 6378 36
27417 5493 5798 79
27418 5494 7580 93
27419 5494 7224 74
27420 5494 4787 65
27421 5495 6193 12
27422 5495 6518 29
27423 5495 5006 39
27424 5495 6279 99
27425 5495 8699 76
27426 5496 3605 12
27427 5496 3826 1
27428 5496 5401 68
27429 5497 2057 69
27430 5497 744 67
27431 5497 5778 81
27432 5497 7995 68
27433 5497 3253 99
27434 5497 8341 9
27435 5497 4655 5
27436 5498 5022 66
27437 5498 1434 95
27438 5498 4150 10
27439 5498 9048 42
27440 5499 9794 42
27441 5499 8731 33
27442 5499 1965 45
27443 5499 3538 35
27444 5499 6693 98
27445 5500 430 14
27446 5500 125 79
27447 5500 8219 17
27448 5500 7640 62
27449 5500 4851 45
27450 5500 5087 12
27451 5500 5324 98
27452 5501 6547 48
27453 5501 230 6
27454 5501 3602 96
27455 5501 9709 87
27456 5501 3592 41
27457 5502 6470 82
27458 5502 868 12
27459 5502 5404 77
27460 5502 1982 40
27461 5502 8585 5
27462 5503 9777 4
27463 5503 8973 50
27464 5503 2934 57
27465 5504 9402 8
27466 5504 914 88
27467 5504 878 99
27468 5504 3284 68
27469 5504 4108 44
27470 5504 3632 5
27471 5505 5041 83
27472 5505 6006 84
27473 5505 7512 6
27474 5505 1151 99
27475 5505 1203 73
27476 5505 9930 12
27477 5505 7062 78
27478 5505 4177 100
27479 5505 7029 58
27480 5506 5012 57
27481 5506 5695 92
27482 5506 6108 26
27483 5506 4024 55
27484 5506 2688 3
27485 5506 9183 53
27486 5506 2935 45
27487 5506 1223 50
27488 5506 47 54
27489 5506 8623 20
27490 5507 8972 40
27491 5508 4021 34
27492 5508 8767 57
27493 5508 1777 98
27494 5508 6449 62
27495 5508 1013 86
27496 5508 2920 88
27497 5508 6655 39
27498 5508 1066 12
27499 5509 3270 45
27500 5509 7327 71
27501 5509 9752 66
27502 5510 244 41
27503 5510 6682 13
27504 5510 5707 89
27505 5510 9055 3
27506 5510 3574 57
27507 5510 5383 58
27508 5510 6109 3
27509 5510 1161 31
27510 5511 5355 34
27511 5511 3891 69
27512 5511 749 91
27513 5511 1421 47
27514 5511 5565 96
27515 5511 2191 53
27516 5511 2882 65
27517 5511 8074 42
27518 5511 7367 77
27519 5511 7655 11
27520 5512 8984 51
27521 5512 9183 98
27522 5512 2882 52
27523 5512 7905 37
27524 5512 4178 80
27525 5512 9607 32
27526 5512 8241 61
27527 5513 1283 77
27528 5513 4947 99
27529 5513 9897 88
27530 5513 280 7
27531 5513 7239 76
27532 5513 4203 55
27533 5513 4107 5
27534 5513 7243 62
27535 5513 8929 77
27536 5514 9119 55
27537 5514 5581 71
27538 5514 7194 27
27539 5514 6552 40
27540 5514 7952 91
27541 5514 7882 67
27542 5514 7262 32
27543 5514 8274 5
27544 5514 5622 53
27545 5515 9585 45
27546 5515 3827 95
27547 5515 5437 21
27548 5515 4339 81
27549 5516 4784 7
27550 5516 7705 54
27551 5516 3875 45
27552 5516 9571 23
27553 5517 8577 61
27554 5517 240 33
27555 5517 9433 50
27556 5517 4276 10
27557 5517 8251 47
27558 5518 2549 64
27559 5518 2308 56
27560 5518 8468 1
27561 5518 4362 58
27562 5519 5296 14
27563 5519 8468 73
27564 5519 4784 81
27565 5520 5496 24
27566 5520 9619 4
27567 5521 3338 69
27568 5521 7260 10
27569 5522 3413 48
27570 5522 2270 6
27571 5522 4139 7
27572 5522 5828 56
27573 5523 9422 79
27574 5523 8762 100
27575 5523 1888 91
27576 5523 8430 73
27577 5523 904 15
27578 5524 7088 68
27579 5525 5075 28
27580 5525 1606 70
27581 5525 4677 65
27582 5526 3310 56
27583 5526 9617 53
27584 5526 9368 99
27585 5526 3837 43
27586 5526 8953 7
27587 5526 679 47
27588 5526 803 31
27589 5526 9810 53
27590 5527 2263 20
27591 5527 1309 33
27592 5527 1046 17
27593 5527 3208 65
27594 5528 9302 6
27595 5528 1678 46
27596 5528 4160 41
27597 5528 9012 8
27598 5528 8064 19
27599 5529 5436 21
27600 5529 5020 5
27601 5529 424 90
27602 5529 3936 39
27603 5529 2607 56
27604 5530 3951 88
27605 5530 1647 50
27606 5531 1891 38
27607 5531 7355 29
27608 5531 3769 48
27609 5531 1056 5
27610 5531 9568 68
27611 5531 3294 85
27612 5531 1097 88
27613 5532 3876 1
27614 5533 3280 11
27615 5533 4519 32
27616 5533 4179 46
27617 5533 4931 69
27618 5533 3905 54
27619 5534 2904 87
27620 5534 9994 46
27621 5534 3880 95
27622 5534 4602 81
27623 5534 873 85
27624 5534 4142 99
27625 5534 8294 38
27626 5534 9405 59
27627 5535 7325 63
27628 5535 286 61
27629 5535 5089 55
27630 5535 636 35
27631 5535 2905 18
27632 5535 4319 85
27633 5535 6863 74
27634 5536 8864 94
27635 5536 4383 37
27636 5536 3348 20
27637 5536 7484 72
27638 5537 2916 39
27639 5537 663 58
27640 5537 7931 87
27641 5538 407 26
27642 5538 7353 77
27643 5538 5666 64
27644 5538 4551 84
27645 5538 8385 52
27646 5538 4030 89
27647 5538 3265 29
27648 5539 5873 11
27649 5539 9559 49
27650 5540 8756 46
27651 5540 3518 4
27652 5540 8637 59
27653 5540 2403 15
27654 5540 5043 33
27655 5540 4783 97
27656 5540 7448 25
27657 5541 9345 94
27658 5541 3787 89
27659 5542 891 44
27660 5543 8352 35
27661 5543 3896 17
27662 5543 7195 91
27663 5543 5459 75
27664 5543 7928 46
27665 5543 4235 51
27666 5543 1843 2
27667 5543 5506 48
27668 5543 8349 4
27669 5543 136 69
27670 5543 1432 66
27671 5543 3214 89
27672 5544 8893 12
27673 5544 1574 79
27674 5544 3023 46
27675 5544 9232 12
27676 5544 7932 95
27677 5545 906 60
27678 5545 2460 95
27679 5545 8855 60
27680 5545 9183 35
27681 5545 2449 84
27682 5546 9107 89
27683 5546 8033 43
27684 5546 7142 52
27685 5546 1660 15
27686 5546 6950 11
27687 5547 6191 31
27688 5547 1299 2
27689 5547 7360 77
27690 5547 4281 24
27691 5547 9090 66
27692 5547 2367 67
27693 5547 4320 97
27694 5547 8262 52
27695 5547 9737 66
27696 5547 1680 88
27697 5547 3579 18
27698 5548 9577 14
27699 5548 1414 54
27700 5548 2524 32
27701 5548 9874 53
27702 5548 5115 44
27703 5548 6882 32
27704 5548 3341 39
27705 5549 4842 85
27706 5549 2601 52
27707 5549 379 23
27708 5549 7987 69
27709 5549 9345 80
27710 5549 8147 13
27711 5549 8153 15
27712 5550 9288 100
27713 5550 5844 19
27714 5550 6575 55
27715 5550 8154 5
27716 5550 5540 13
27717 5550 5390 33
27718 5551 4535 81
27719 5551 9509 6
27720 5551 2165 21
27721 5551 2027 61
27722 5551 8642 1
27723 5552 2876 6
27724 5552 2924 53
27725 5552 2458 57
27726 5552 7258 19
27727 5553 9670 1
27728 5553 4859 49
27729 5553 5363 37
27730 5554 7011 87
27731 5554 5311 49
27732 5554 6328 17
27733 5554 7110 68
27734 5554 3583 20
27735 5554 1101 34
27736 5555 5840 22
27737 5555 7110 76
27738 5555 8621 5
27739 5555 2585 56
27740 5555 3019 38
27741 5556 8794 18
27742 5556 6808 30
27743 5556 2502 34
27744 5556 5343 98
27745 5556 1318 22
27746 5557 2434 85
27747 5557 4128 75
27748 5557 3324 33
27749 5557 1620 63
27750 5557 2960 10
27751 5557 5813 20
27752 5558 8905 20
27753 5558 177 95
27754 5558 1840 72
27755 5558 8659 78
27756 5559 9917 85
27757 5559 8360 44
27758 5560 3589 88
27759 5560 3229 88
27760 5560 8767 86
27761 5560 5858 16
27762 5561 1720 54
27763 5561 1651 31
27764 5562 1983 85
27765 5562 1108 32
27766 5562 6460 91
27767 5563 4560 86
27768 5563 6514 6
27769 5563 587 59
27770 5563 382 91
27771 5563 9605 26
27772 5563 9693 43
27773 5563 9636 39
27774 5563 5102 11
27775 5564 9542 71
27776 5564 719 25
27777 5564 5631 95
27778 5564 608 31
27779 5564 579 56
27780 5565 7533 91
27781 5565 309 54
27782 5565 1989 91
27783 5565 4165 2
27784 5566 2224 54
27785 5566 6809 86
27786 5566 1712 22
27787 5566 2054 73
27788 5567 8250 89
27789 5567 808 50
27790 5567 5516 47
27791 5567 4158 49
27792 5567 9044 65
27793 5567 1101 69
27794 5567 7067 40
27795 5568 626 100
27796 5568 4180 4
27797 5568 8556 4
27798 5568 1908 78
27799 5569 2853 89
27800 5569 3005 92
27801 5570 9673 17
27802 5570 3412 55
27803 5570 6276 89
27804 5570 7803 10
27805 5570 1805 46
27806 5570 6682 54
27807 5570 1544 53
27808 5571 4143 18
27809 5571 4062 47
27810 5571 7896 86
27811 5571 6010 73
27812 5571 3626 10
27813 5571 3648 86
27814 5572 4074 55
27815 5572 7682 29
27816 5572 9298 18
27817 5572 1142 73
27818 5572 7328 51
27819 5572 7905 62
27820 5572 3045 6
27821 5573 2385 4
27822 5573 373 2
27823 5573 4840 22
27824 5573 7304 29
27825 5574 3946 53
27826 5574 8774 13
27827 5574 3963 83
27828 5574 1729 100
27829 5574 6704 90
27830 5575 8498 9
27831 5576 1904 35
27832 5576 1464 79
27833 5576 2821 68
27834 5576 5622 46
27835 5577 2364 39
27836 5577 640 16
27837 5577 8063 8
27838 5577 4352 35
27839 5577 8229 62
27840 5578 1200 71
27841 5578 309 19
27842 5578 5644 85
27843 5578 7770 51
27844 5578 1684 20
27845 5578 4797 63
27846 5578 6853 41
27847 5579 9207 65
27848 5579 7791 83
27849 5579 3112 4
27850 5579 3710 39
27851 5579 1488 39
27852 5579 1416 60
27853 5579 3010 17
27854 5579 8893 31
27855 5580 5170 51
27856 5580 6596 57
27857 5580 1990 52
27858 5580 6677 73
27859 5580 7068 24
27860 5580 1171 54
27861 5581 6785 80
27862 5581 9709 25
27863 5581 6637 28
27864 5581 2819 3
27865 5582 5353 23
27866 5582 5602 48
27867 5582 3242 69
27868 5583 2268 75
27869 5583 7417 12
27870 5584 602 77
27871 5585 8656 97
27872 5585 7180 14
27873 5586 4925 3
27874 5586 6100 95
27875 5586 3419 45
27876 5587 6235 79
27877 5587 5600 37
27878 5588 5814 60
27879 5588 4155 94
27880 5588 5102 78
27881 5588 4808 81
27882 5588 7696 39
27883 5588 7762 59
27884 5588 3451 41
27885 5588 3777 36
27886 5588 2463 33
27887 5588 1331 87
27888 5589 4441 77
27889 5589 9488 80
27890 5589 3386 5
27891 5589 7186 51
27892 5590 5340 66
27893 5590 1744 1
27894 5591 1126 33
27895 5591 5395 2
27896 5592 8852 9
27897 5592 9768 33
27898 5592 9531 89
27899 5592 137 2
27900 5592 3936 88
27901 5592 8314 39
27902 5592 4049 25
27903 5592 5143 57
27904 5593 5854 37
27905 5593 5824 92
27906 5593 1797 97
27907 5593 5486 73
27908 5593 585 56
27909 5593 163 93
27910 5593 130 33
27911 5594 9630 93
27912 5594 9403 45
27913 5594 6641 32
27914 5594 5150 61
27915 5595 3907 56
27916 5595 1057 73
27917 5595 8908 36
27918 5595 1526 46
27919 5596 5951 29
27920 5596 9914 25
27921 5596 4404 6
27922 5596 9997 62
27923 5597 35 63
27924 5597 3002 30
27925 5597 3639 87
27926 5597 7625 83
27927 5597 535 2
27928 5597 6468 51
27929 5598 9550 89
27930 5598 6400 56
27931 5598 8737 40
27932 5598 2637 90
27933 5598 493 48
27934 5598 8768 98
27935 5598 6371 2
27936 5598 1102 10
27937 5598 9399 31
27938 5598 1056 71
27939 5599 8489 60
27940 5599 401 77
27941 5599 7624 2
27942 5599 1348 19
27943 5599 4692 9
27944 5600 3741 73
27945 5600 3004 67
27946 5600 5319 48
27947 5601 5670 67
27948 5601 7910 89
27949 5601 8131 53
27950 5601 1923 90
27951 5602 7300 11
27952 5603 7184 41
27953 5603 5487 69
27954 5603 1579 15
27955 5603 4001 39
27956 5604 3431 24
27957 5604 8406 98
27958 5604 6267 67
27959 5604 7922 3
27960 5604 1508 23
27961 5604 5096 92
27962 5604 2729 65
27963 5605 3509 97
27964 5605 3787 35
27965 5605 1991 100
27966 5605 8327 33
27967 5605 3661 30
27968 5605 9341 11
27969 5605 3534 74
27970 5605 1752 23
27971 5606 650 77
27972 5606 6151 21
27973 5606 8800 28
27974 5606 6382 6
27975 5606 9103 92
27976 5606 8772 90
27977 5606 7569 63
27978 5606 6670 52
27979 5607 3643 99
27980 5607 2626 48
27981 5607 2460 47
27982 5607 7682 98
27983 5608 5996 58
27984 5608 4883 85
27985 5608 843 50
27986 5608 4985 100
27987 5608 7068 47
27988 5608 8401 79
27989 5609 7926 14
27990 5609 6719 70
27991 5609 1392 9
27992 5609 2202 82
27993 5610 447 60
27994 5610 8732 75
27995 5610 1224 19
27996 5610 9893 59
27997 5611 5561 72
27998 5611 8966 77
27999 5611 640 39
28000 5611 3201 83
28001 5611 8175 11
28002 5611 620 44
28003 5611 8670 2
28004 5611 5798 16
28005 5611 9299 50
28006 5612 6601 91
28007 5612 784 30
28008 5612 7174 94
28009 5613 2055 51
28010 5613 8666 44
28011 5613 1979 95
28012 5613 1488 18
28013 5613 4358 93
28014 5613 3344 19
28015 5613 7464 84
28016 5614 3643 21
28017 5614 2171 27
28018 5614 8924 8
28019 5614 7773 74
28020 5614 7962 99
28021 5614 301 14
28022 5614 8699 13
28023 5615 362 16
28024 5616 490 45
28025 5616 4491 14
28026 5616 4498 1
28027 5616 6145 48
28028 5616 4463 60
28029 5616 7974 23
28030 5616 3897 82
28031 5616 8517 21
28032 5616 9676 31
28033 5617 6624 24
28034 5617 3157 89
28035 5617 6108 76
28036 5617 3019 8
28037 5617 1120 89
28038 5617 7794 82
28039 5617 9668 29
28040 5617 2531 6
28041 5617 2311 18
28042 5617 6896 77
28043 5618 4853 47
28044 5618 7544 21
28045 5618 8420 25
28046 5618 4626 89
28047 5618 1697 33
28048 5618 6895 26
28049 5618 4935 35
28050 5618 1673 98
28051 5618 3061 66
28052 5619 5325 5
28053 5619 2044 99
28054 5619 4944 100
28055 5619 1173 12
28056 5619 7875 89
28057 5619 217 25
28058 5620 3403 87
28059 5620 4789 58
28060 5620 5423 9
28061 5620 8013 32
28062 5620 4861 29
28063 5620 7737 66
28064 5620 6650 65
28065 5620 6792 7
28066 5620 6362 25
28067 5621 5633 15
28068 5621 2658 13
28069 5621 5872 49
28070 5621 6213 8
28071 5621 9740 40
28072 5621 4456 41
28073 5621 8171 22
28074 5622 6553 54
28075 5622 5882 37
28076 5622 6848 27
28077 5622 1686 54
28078 5623 9959 19
28079 5623 4044 5
28080 5623 8535 63
28081 5623 3453 89
28082 5623 5772 13
28083 5623 8733 27
28084 5623 8823 61
28085 5624 3443 23
28086 5624 7293 94
28087 5624 3540 61
28088 5624 7512 81
28089 5625 7792 26
28090 5625 5062 62
28091 5625 7905 67
28092 5625 2067 48
28093 5625 4056 49
28094 5626 2563 8
28095 5626 9276 16
28096 5626 2721 27
28097 5626 955 26
28098 5626 874 8
28099 5627 2940 36
28100 5627 6679 52
28101 5627 5842 96
28102 5627 2922 74
28103 5627 452 42
28104 5628 4194 21
28105 5628 5322 49
28106 5628 134 23
28107 5628 4198 84
28108 5628 6307 79
28109 5628 3844 60
28110 5629 6901 61
28111 5629 6771 18
28112 5629 5857 1
28113 5629 2168 96
28114 5629 4916 65
28115 5629 1326 13
28116 5629 9725 36
28117 5630 6297 100
28118 5630 5666 55
28119 5630 2090 6
28120 5630 3102 24
28121 5630 3557 95
28122 5631 983 97
28123 5631 1860 20
28124 5631 6191 68
28125 5631 9735 56
28126 5631 4496 24
28127 5631 2004 14
28128 5631 8472 87
28129 5632 3137 55
28130 5632 3194 73
28131 5633 867 63
28132 5633 1947 77
28133 5633 6867 5
28134 5633 4017 87
28135 5633 1489 88
28136 5634 262 42
28137 5634 4661 31
28138 5634 3105 80
28139 5634 411 85
28140 5634 7984 49
28141 5635 6700 33
28142 5635 9194 33
28143 5635 9211 24
28144 5635 8682 52
28145 5635 3367 98
28146 5636 9766 71
28147 5636 2867 56
28148 5636 5647 100
28149 5636 8693 53
28150 5636 6261 34
28151 5636 9920 18
28152 5637 9363 88
28153 5637 5874 41
28154 5637 3247 69
28155 5637 1343 80
28156 5637 8261 41
28157 5637 6703 44
28158 5637 9304 27
28159 5638 6320 89
28160 5638 498 94
28161 5638 1679 65
28162 5638 154 96
28163 5639 3707 56
28164 5639 2286 8
28165 5639 913 45
28166 5639 5122 13
28167 5639 3978 38
28168 5639 10 12
28169 5640 8056 48
28170 5640 106 50
28171 5640 4986 68
28172 5640 3920 54
28173 5641 4909 90
28174 5641 8720 59
28175 5641 7521 94
28176 5641 6783 94
28177 5641 4013 95
28178 5641 7721 86
28179 5642 5105 47
28180 5642 6403 59
28181 5642 5092 19
28182 5642 5503 35
28183 5642 7775 25
28184 5643 1099 71
28185 5643 485 52
28186 5644 3900 68
28187 5644 9525 86
28188 5644 2203 45
28189 5644 3172 83
28190 5644 8659 42
28191 5645 1092 33
28192 5645 4701 10
28193 5645 8400 49
28194 5645 4230 35
28195 5645 4390 63
28196 5646 1109 22
28197 5647 3317 68
28198 5647 7883 55
28199 5647 5821 95
28200 5647 3756 62
28201 5647 4836 18
28202 5647 7718 72
28203 5647 5472 9
28204 5648 249 54
28205 5648 3250 60
28206 5648 5134 49
28207 5648 5800 56
28208 5648 8881 85
28209 5648 7054 7
28210 5648 9445 34
28211 5648 2269 70
28212 5648 5251 60
28213 5649 3487 23
28214 5649 7381 13
28215 5649 4710 12
28216 5650 34 52
28217 5650 7989 89
28218 5650 638 66
28219 5650 7733 62
28220 5650 5565 50
28221 5650 2669 93
28222 5650 6666 27
28223 5650 7850 32
28224 5651 5117 89
28225 5651 9503 33
28226 5651 2933 95
28227 5651 9364 63
28228 5651 1771 60
28229 5651 3505 15
28230 5651 1757 77
28231 5652 3023 24
28232 5652 9728 78
28233 5652 5326 77
28234 5652 838 52
28235 5652 9250 69
28236 5653 7794 84
28237 5653 4890 35
28238 5653 62 39
28239 5654 5805 93
28240 5654 8520 61
28241 5654 4702 43
28242 5655 9987 38
28243 5655 6745 76
28244 5656 1608 97
28245 5656 4827 6
28246 5656 6925 25
28247 5656 1889 67
28248 5656 4417 18
28249 5656 6300 12
28250 5657 3522 46
28251 5657 5836 79
28252 5657 2813 44
28253 5657 2869 71
28254 5657 89 35
28255 5658 3890 1
28256 5659 4719 79
28257 5659 8964 66
28258 5659 7575 24
28259 5659 7566 20
28260 5659 4424 72
28261 5660 9532 56
28262 5660 2508 30
28263 5660 7818 55
28264 5661 9125 25
28265 5661 3331 99
28266 5661 7459 89
28267 5661 7554 59
28268 5661 426 36
28269 5661 9716 49
28270 5661 3532 6
28271 5661 2985 76
28272 5661 4513 16
28273 5662 7978 77
28274 5662 3495 48
28275 5663 6406 8
28276 5663 6578 41
28277 5663 8301 67
28278 5663 1494 36
28279 5663 3678 12
28280 5663 6836 81
28281 5664 2118 72
28282 5664 3237 75
28283 5664 510 11
28284 5665 4209 53
28285 5665 6003 20
28286 5665 9725 75
28287 5665 9989 4
28288 5665 6320 27
28289 5665 9634 82
28290 5666 4296 68
28291 5666 1345 85
28292 5666 5546 38
28293 5666 4183 41
28294 5666 277 44
28295 5666 4619 8
28296 5666 1828 78
28297 5666 8530 89
28298 5667 1964 92
28299 5667 3427 48
28300 5667 6900 26
28301 5667 4180 10
28302 5667 8184 10
28303 5667 8707 69
28304 5667 23 22
28305 5667 7988 71
28306 5668 6318 25
28307 5668 3879 90
28308 5668 1359 39
28309 5668 518 39
28310 5669 8654 96
28311 5669 9406 53
28312 5669 8996 16
28313 5669 423 52
28314 5670 5727 66
28315 5670 4965 92
28316 5670 4563 11
28317 5671 8962 39
28318 5671 3139 25
28319 5671 8840 74
28320 5671 2414 75
28321 5671 7119 68
28322 5671 2260 11
28323 5672 3440 86
28324 5672 2584 17
28325 5672 837 44
28326 5672 7688 74
28327 5672 1105 77
28328 5672 6438 68
28329 5672 6321 58
28330 5672 867 19
28331 5672 7708 12
28332 5673 2105 81
28333 5673 393 35
28334 5673 7889 53
28335 5673 9164 40
28336 5673 2708 1
28337 5673 278 34
28338 5673 3127 95
28339 5673 8002 21
28340 5674 3100 96
28341 5674 5829 32
28342 5674 719 66
28343 5675 1085 25
28344 5675 6599 60
28345 5675 3913 45
28346 5675 3308 70
28347 5675 4898 34
28348 5675 4976 39
28349 5676 3404 51
28350 5676 5013 9
28351 5676 2729 65
28352 5676 7425 21
28353 5676 9035 50
28354 5676 8152 9
28355 5677 7233 70
28356 5677 2057 61
28357 5677 9321 77
28358 5677 17 96
28359 5677 9267 3
28360 5678 8810 23
28361 5678 9829 78
28362 5678 4248 80
28363 5679 9426 13
28364 5679 9369 69
28365 5679 6847 2
28366 5679 5579 30
28367 5679 8494 5
28368 5680 9625 29
28369 5680 9387 100
28370 5680 7851 82
28371 5680 7370 93
28372 5680 832 31
28373 5681 3984 2
28374 5681 5383 58
28375 5681 4639 46
28376 5682 1780 46
28377 5682 1101 100
28378 5682 3455 11
28379 5683 9893 78
28380 5683 6388 36
28381 5683 3274 69
28382 5683 652 90
28383 5684 6331 34
28384 5684 6314 68
28385 5684 1626 54
28386 5685 4790 49
28387 5685 9370 3
28388 5685 4689 51
28389 5685 2143 46
28390 5685 7050 59
28391 5685 8089 82
28392 5686 6450 3
28393 5686 4542 14
28394 5686 5687 22
28395 5686 9360 94
28396 5686 4404 65
28397 5686 2689 71
28398 5687 9115 48
28399 5687 402 27
28400 5687 1524 77
28401 5687 3169 53
28402 5687 6897 11
28403 5687 4682 56
28404 5687 3183 16
28405 5688 8116 54
28406 5688 1808 23
28407 5688 8960 98
28408 5688 6674 72
28409 5689 2050 96
28410 5689 7700 5
28411 5689 6550 79
28412 5689 3552 26
28413 5689 9123 24
28414 5690 503 97
28415 5690 6480 74
28416 5691 192 58
28417 5691 7280 36
28418 5691 3497 46
28419 5691 9677 98
28420 5691 2202 55
28421 5691 9625 9
28422 5692 7452 29
28423 5692 9587 89
28424 5692 5022 3
28425 5692 1423 76
28426 5692 8398 38
28427 5692 858 68
28428 5692 580 77
28429 5693 8272 3
28430 5693 10 55
28431 5693 9099 25
28432 5694 1996 46
28433 5694 9626 26
28434 5694 7571 66
28435 5694 827 67
28436 5695 8461 54
28437 5695 346 64
28438 5696 5660 62
28439 5696 145 14
28440 5696 6948 45
28441 5697 6389 25
28442 5697 5730 47
28443 5697 465 1
28444 5697 8609 71
28445 5697 6597 47
28446 5698 4167 20
28447 5698 3072 13
28448 5698 6330 19
28449 5698 6044 75
28450 5698 8635 21
28451 5699 3267 33
28452 5699 6037 3
28453 5699 522 39
28454 5700 1588 100
28455 5700 2080 6
28456 5700 9572 50
28457 5700 3355 95
28458 5700 4024 31
28459 5701 5162 43
28460 5701 2928 73
28461 5701 3863 18
28462 5701 7814 84
28463 5701 5038 86
28464 5701 2570 92
28465 5702 8921 56
28466 5702 2887 35
28467 5702 6070 32
28468 5702 1054 83
28469 5703 7601 56
28470 5703 9584 64
28471 5703 6272 6
28472 5703 5996 7
28473 5703 3845 10
28474 5704 681 76
28475 5704 1173 88
28476 5704 4032 20
28477 5704 8965 3
28478 5704 4116 9
28479 5705 3458 48
28480 5705 5306 46
28481 5705 922 30
28482 5705 640 36
28483 5705 1726 50
28484 5706 3900 84
28485 5706 4704 98
28486 5706 9142 63
28487 5706 9818 42
28488 5706 6240 11
28489 5706 7479 29
28490 5707 7988 52
28491 5707 312 14
28492 5707 9225 67
28493 5707 7401 50
28494 5708 1866 18
28495 5708 3469 12
28496 5708 2724 60
28497 5708 9907 15
28498 5708 8977 64
28499 5708 4378 51
28500 5709 1846 82
28501 5709 7780 23
28502 5709 4136 88
28503 5709 9909 53
28504 5709 4753 76
28505 5709 9666 15
28506 5709 9039 29
28507 5710 4220 88
28508 5710 8846 90
28509 5710 3220 24
28510 5710 6608 24
28511 5711 5623 61
28512 5712 338 33
28513 5712 1836 34
28514 5712 5207 19
28515 5712 2898 2
28516 5713 7380 61
28517 5713 4284 20
28518 5713 2080 66
28519 5713 4695 29
28520 5713 7663 47
28521 5713 2696 23
28522 5713 7480 26
28523 5714 3253 20
28524 5714 8116 29
28525 5714 6336 3
28526 5714 9226 67
28527 5715 3332 78
28528 5715 2886 89
28529 5715 3425 68
28530 5715 7028 61
28531 5715 5066 8
28532 5715 6285 97
28533 5716 9644 38
28534 5716 1001 91
28535 5716 5239 36
28536 5717 1346 21
28537 5717 2712 77
28538 5717 6289 81
28539 5717 3175 72
28540 5717 7494 91
28541 5717 587 2
28542 5718 8957 8
28543 5718 6330 32
28544 5718 9660 96
28545 5718 2709 21
28546 5718 3417 98
28547 5719 4969 83
28548 5719 7699 78
28549 5720 7323 53
28550 5720 8968 100
28551 5720 9160 24
28552 5720 3825 84
28553 5720 5166 88
28554 5720 4615 29
28555 5720 8594 62
28556 5720 8912 82
28557 5721 2982 43
28558 5721 2913 39
28559 5721 2120 41
28560 5721 8294 84
28561 5722 5910 15
28562 5722 9521 68
28563 5722 8439 22
28564 5722 2949 40
28565 5722 4911 79
28566 5722 9501 68
28567 5723 9594 55
28568 5723 4522 29
28569 5723 2397 74
28570 5723 9166 28
28571 5724 9891 89
28572 5724 3747 84
28573 5724 9461 83
28574 5724 6589 27
28575 5725 8868 52
28576 5725 1660 39
28577 5725 6023 87
28578 5725 176 91
28579 5725 1192 44
28580 5726 749 87
28581 5726 291 2
28582 5726 3714 65
28583 5727 2050 73
28584 5727 3216 70
28585 5727 2712 38
28586 5727 4006 69
28587 5727 1441 37
28588 5727 1418 30
28589 5727 5799 34
28590 5727 7893 23
28591 5727 391 66
28592 5727 9202 62
28593 5727 4992 100
28594 5728 6267 25
28595 5728 7972 9
28596 5728 246 83
28597 5728 9623 42
28598 5728 677 47
28599 5728 32 60
28600 5729 6362 85
28601 5729 7450 9
28602 5729 6455 99
28603 5729 5540 41
28604 5729 3290 45
28605 5729 4297 37
28606 5730 8067 83
28607 5730 2671 21
28608 5730 6657 85
28609 5730 9205 14
28610 5730 400 35
28611 5731 4314 31
28612 5732 1665 64
28613 5732 1751 24
28614 5732 9205 64
28615 5732 8976 24
28616 5732 6963 26
28617 5732 3850 90
28618 5733 6216 63
28619 5733 3740 62
28620 5733 1543 87
28621 5734 9946 48
28622 5734 9640 23
28623 5735 3150 93
28624 5735 5994 38
28625 5735 15 63
28626 5736 1231 44
28627 5736 3260 97
28628 5736 7289 78
28629 5736 1158 19
28630 5737 4317 47
28631 5737 2951 9
28632 5737 9645 24
28633 5737 9725 27
28634 5738 3638 91
28635 5738 2783 24
28636 5738 8389 87
28637 5738 2763 79
28638 5738 2088 57
28639 5738 5557 56
28640 5739 3517 59
28641 5739 1677 17
28642 5739 4767 66
28643 5739 5565 56
28644 5739 8304 19
28645 5740 8516 13
28646 5740 2283 79
28647 5740 8179 68
28648 5740 653 46
28649 5740 5182 46
28650 5741 3695 87
28651 5741 9712 91
28652 5741 7637 52
28653 5741 6715 98
28654 5741 4575 17
28655 5741 275 11
28656 5741 8702 28
28657 5742 4923 50
28658 5742 8652 88
28659 5742 1471 100
28660 5742 7805 6
28661 5743 6292 47
28662 5743 1876 94
28663 5743 3703 79
28664 5743 2387 18
28665 5743 5724 31
28666 5743 9296 28
28667 5743 6210 85
28668 5743 8381 92
28669 5743 6513 11
28670 5743 1911 71
28671 5744 6709 94
28672 5744 9021 67
28673 5744 2521 77
28674 5744 1499 25
28675 5745 5133 53
28676 5745 7167 81
28677 5745 5800 28
28678 5745 866 71
28679 5745 7144 26
28680 5746 2698 55
28681 5746 1685 37
28682 5746 2146 2
28683 5747 5550 71
28684 5747 7842 19
28685 5747 4857 60
28686 5748 2651 4
28687 5748 9642 77
28688 5748 4437 29
28689 5748 8793 37
28690 5748 5000 14
28691 5748 700 75
28692 5748 9172 76
28693 5748 7748 2
28694 5749 1707 72
28695 5749 6000 71
28696 5749 9562 11
28697 5749 9268 63
28698 5749 1723 27
28699 5749 1007 74
28700 5750 7825 88
28701 5750 3015 25
28702 5750 7323 9
28703 5750 3051 12
28704 5750 1737 84
28705 5750 7135 58
28706 5751 5534 40
28707 5751 9398 95
28708 5751 5968 48
28709 5751 1188 33
28710 5751 6356 57
28711 5751 5587 90
28712 5751 9177 17
28713 5752 7296 7
28714 5752 1702 22
28715 5752 5291 65
28716 5752 4890 98
28717 5752 6612 41
28718 5752 6019 59
28719 5753 455 71
28720 5753 9 24
28721 5753 7356 41
28722 5753 4385 88
28723 5753 4013 64
28724 5753 7447 36
28725 5753 7178 42
28726 5754 5525 59
28727 5754 813 57
28728 5754 1887 24
28729 5755 3842 85
28730 5755 278 64
28731 5755 254 99
28732 5756 8531 12
28733 5756 1198 19
28734 5756 6542 46
28735 5756 468 16
28736 5756 7799 2
28737 5757 4574 87
28738 5757 433 41
28739 5757 6963 28
28740 5757 9155 97
28741 5757 9592 34
28742 5757 3939 46
28743 5757 2267 28
28744 5757 5786 79
28745 5758 1705 61
28746 5758 1645 47
28747 5758 9463 46
28748 5758 6703 98
28749 5759 1090 19
28750 5759 5326 94
28751 5759 485 89
28752 5760 6587 70
28753 5760 1292 38
28754 5760 7074 27
28755 5760 2628 41
28756 5760 900 44
28757 5761 9624 20
28758 5761 8161 100
28759 5761 4205 49
28760 5761 7111 54
28761 5762 2929 55
28762 5762 4424 95
28763 5762 4468 55
28764 5762 8807 58
28765 5762 4972 37
28766 5762 5503 13
28767 5763 9698 89
28768 5763 2438 24
28769 5763 8820 12
28770 5764 6249 37
28771 5764 4753 42
28772 5765 5120 94
28773 5765 1166 68
28774 5765 7328 85
28775 5766 3643 46
28776 5766 4495 24
28777 5766 9093 13
28778 5766 4998 60
28779 5766 4746 43
28780 5766 2580 15
28781 5766 2366 20
28782 5766 9628 25
28783 5767 7968 62
28784 5767 3572 29
28785 5768 8551 84
28786 5768 2747 78
28787 5768 8531 8
28788 5768 9102 79
28789 5768 7733 86
28790 5768 4633 63
28791 5768 7109 31
28792 5769 6537 9
28793 5769 9970 15
28794 5769 9378 51
28795 5769 5495 38
28796 5769 5964 5
28797 5769 4447 21
28798 5769 7983 32
28799 5769 2469 20
28800 5769 4755 62
28801 5769 9009 53
28802 5770 4157 9
28803 5770 9976 4
28804 5770 2445 58
28805 5770 9797 62
28806 5770 370 72
28807 5770 8236 75
28808 5771 1352 1
28809 5771 63 46
28810 5771 4100 93
28811 5772 2201 23
28812 5772 5211 38
28813 5772 7372 22
28814 5772 1314 94
28815 5773 5662 58
28816 5773 6618 28
28817 5773 9538 17
28818 5773 5287 61
28819 5773 7360 45
28820 5773 3693 12
28821 5773 6345 84
28822 5773 9190 57
28823 5774 7817 26
28824 5774 7745 23
28825 5774 8085 17
28826 5775 9507 12
28827 5775 5854 37
28828 5775 3914 56
28829 5775 2699 89
28830 5776 2669 17
28831 5776 2026 100
28832 5776 7943 85
28833 5776 7472 74
28834 5776 6040 21
28835 5777 7904 15
28836 5777 2132 2
28837 5778 956 9
28838 5778 7320 98
28839 5778 653 7
28840 5778 2083 22
28841 5778 2532 9
28842 5778 4680 24
28843 5779 3946 78
28844 5779 8068 47
28845 5779 2609 77
28846 5779 7184 76
28847 5779 2215 71
28848 5779 3178 14
28849 5779 181 19
28850 5779 8361 58
28851 5780 9820 66
28852 5780 1004 61
28853 5780 1148 14
28854 5780 3253 68
28855 5780 2809 77
28856 5781 5639 40
28857 5781 3623 46
28858 5781 6140 87
28859 5781 8198 68
28860 5782 5307 63
28861 5782 3974 31
28862 5782 1579 50
28863 5782 1221 75
28864 5782 2165 1
28865 5782 2866 74
28866 5783 3544 36
28867 5783 3250 49
28868 5783 210 45
28869 5783 2251 61
28870 5783 979 78
28871 5783 830 45
28872 5783 5235 82
28873 5784 6246 56
28874 5784 9961 23
28875 5784 5422 97
28876 5784 5401 78
28877 5784 8632 60
28878 5785 4434 16
28879 5785 8467 6
28880 5785 642 95
28881 5785 7444 26
28882 5785 3675 40
28883 5785 3660 38
28884 5786 3294 88
28885 5786 1910 16
28886 5786 4614 25
28887 5787 8455 35
28888 5787 8369 15
28889 5787 4911 27
28890 5787 6318 7
28891 5787 5083 87
28892 5788 7507 44
28893 5788 2515 1
28894 5788 7702 3
28895 5788 2429 71
28896 5788 1940 51
28897 5788 5529 93
28898 5789 8740 82
28899 5789 2335 6
28900 5789 2326 68
28901 5789 8523 47
28902 5789 8084 27
28903 5789 1280 37
28904 5790 8128 87
28905 5790 9831 29
28906 5790 2188 58
28907 5790 7547 46
28908 5790 182 40
28909 5791 1583 56
28910 5791 9629 8
28911 5791 9185 9
28912 5791 9568 1
28913 5791 2095 18
28914 5791 4957 39
28915 5792 9139 14
28916 5792 8003 93
28917 5792 3567 72
28918 5792 7408 36
28919 5793 4213 72
28920 5793 4892 65
28921 5793 5464 9
28922 5793 9775 1
28923 5793 569 71
28924 5793 6704 45
28925 5793 5122 48
28926 5794 6049 12
28927 5794 6479 44
28928 5794 8409 96
28929 5794 6463 76
28930 5794 3084 94
28931 5795 44 23
28932 5795 2258 39
28933 5795 9883 63
28934 5795 7755 72
28935 5795 1257 99
28936 5796 6989 50
28937 5796 4609 3
28938 5796 9122 98
28939 5796 6691 71
28940 5796 2798 84
28941 5796 4857 52
28942 5796 3509 40
28943 5797 2516 86
28944 5797 33 65
28945 5798 5000 76
28946 5798 3989 60
28947 5798 2562 24
28948 5799 8869 46
28949 5799 5634 68
28950 5799 575 25
28951 5800 9239 34
28952 5800 1963 61
28953 5800 2589 47
28954 5801 7519 64
28955 5801 1261 18
28956 5801 3118 66
28957 5801 1427 50
28958 5801 3796 77
28959 5801 1223 74
28960 5801 1312 72
28961 5801 9587 50
28962 5802 6501 49
28963 5802 1957 54
28964 5802 2120 55
28965 5802 9733 81
28966 5803 9703 2
28967 5803 118 26
28968 5804 1955 5
28969 5804 3629 85
28970 5804 6924 84
28971 5804 8352 51
28972 5804 3480 30
28973 5804 7309 86
28974 5805 6567 78
28975 5805 8212 74
28976 5805 1552 5
28977 5805 7062 54
28978 5805 3063 77
28979 5805 2511 31
28980 5805 6654 88
28981 5805 8627 86
28982 5806 2994 85
28983 5806 7561 78
28984 5807 113 20
28985 5807 6520 74
28986 5807 3901 70
28987 5807 699 22
28988 5807 3673 90
28989 5808 3471 94
28990 5808 5436 12
28991 5808 9547 92
28992 5808 8254 47
28993 5808 3891 48
28994 5808 982 27
28995 5809 3518 57
28996 5809 6700 65
28997 5809 3459 67
28998 5810 2878 9
28999 5810 3816 42
29000 5811 4142 98
29001 5811 7930 78
29002 5811 8766 72
29003 5811 6585 100
29004 5812 8401 9
29005 5812 9476 82
29006 5812 3965 73
29007 5812 2886 69
29008 5812 8873 39
29009 5812 9443 85
29010 5812 9764 2
29011 5812 8661 25
29012 5812 4424 50
29013 5812 4426 43
29014 5812 3802 61
29015 5812 2405 37
29016 5813 2124 26
29017 5813 292 62
29018 5813 272 74
29019 5813 3948 64
29020 5813 2921 39
29021 5813 1523 8
29022 5814 3720 77
29023 5814 1164 62
29024 5815 2070 14
29025 5815 3604 25
29026 5815 6850 53
29027 5816 1665 62
29028 5816 1508 69
29029 5816 1903 94
29030 5816 9851 60
29031 5817 6716 34
29032 5817 8777 54
29033 5817 266 3
29034 5817 6714 17
29035 5817 8517 17
29036 5817 269 25
29037 5817 4166 89
29038 5818 7091 80
29039 5818 329 55
29040 5818 9791 72
29041 5818 6574 67
29042 5818 5683 41
29043 5818 8585 17
29044 5818 5372 80
29045 5818 539 21
29046 5818 5527 24
29047 5819 8370 98
29048 5819 9559 6
29049 5820 2107 36
29050 5820 3561 18
29051 5821 3536 99
29052 5821 2592 54
29053 5821 3017 84
29054 5821 5775 45
29055 5821 8639 24
29056 5822 347 78
29057 5822 6847 10
29058 5822 8616 63
29059 5822 8466 96
29060 5823 6283 73
29061 5823 646 27
29062 5823 9178 58
29063 5823 5477 39
29064 5823 8768 87
29065 5824 4317 92
29066 5824 9325 77
29067 5824 1564 94
29068 5824 4982 30
29069 5824 1893 50
29070 5825 656 33
29071 5825 5475 73
29072 5825 5105 71
29073 5825 1856 63
29074 5825 4372 12
29075 5825 5719 82
29076 5826 6835 22
29077 5826 2050 6
29078 5826 8650 22
29079 5826 9206 6
29080 5827 3483 97
29081 5828 1476 71
29082 5828 8520 66
29083 5828 9550 55
29084 5828 5100 68
29085 5828 8044 58
29086 5828 9023 70
29087 5828 3388 78
29088 5828 1885 42
29089 5828 9 19
29090 5829 6894 86
29091 5829 7059 30
29092 5829 4460 87
29093 5829 325 76
29094 5829 128 59
29095 5829 5791 7
29096 5829 8030 57
29097 5830 5940 21
29098 5830 6508 26
29099 5830 1867 96
29100 5830 9303 80
29101 5831 448 9
29102 5831 7955 57
29103 5831 8756 75
29104 5831 4680 23
29105 5831 2635 23
29106 5831 8774 46
29107 5832 4245 2
29108 5832 7971 13
29109 5832 1770 49
29110 5833 7206 52
29111 5833 6984 54
29112 5834 9917 77
29113 5834 8150 24
29114 5834 6148 7
29115 5835 6731 50
29116 5835 1811 28
29117 5835 3437 30
29118 5835 3853 56
29119 5835 9736 16
29120 5836 9384 77
29121 5836 8951 74
29122 5837 8403 97
29123 5837 3067 24
29124 5838 1625 52
29125 5838 2852 32
29126 5838 9428 62
29127 5838 5302 6
29128 5838 1531 62
29129 5838 9441 44
29130 5838 1385 18
29131 5839 1049 45
29132 5839 8125 92
29133 5839 4386 55
29134 5839 9090 75
29135 5839 1092 3
29136 5839 8498 8
29137 5839 603 93
29138 5839 5988 9
29139 5840 7649 90
29140 5840 9001 78
29141 5840 3170 53
29142 5840 3346 86
29143 5840 2681 35
29144 5840 8860 3
29145 5840 6874 92
29146 5840 8839 58
29147 5840 3573 57
29148 5840 5410 56
29149 5840 3069 77
29150 5840 723 92
29151 5840 6992 67
29152 5840 224 34
29153 5841 3972 71
29154 5841 8551 71
29155 5841 7259 49
29156 5841 4774 46
29157 5841 3205 85
29158 5841 6424 9
29159 5842 1915 43
29160 5842 7198 37
29161 5842 4212 67
29162 5842 7186 72
29163 5843 2207 74
29164 5843 9271 84
29165 5843 3434 36
29166 5844 6345 63
29167 5844 6517 54
29168 5844 9446 38
29169 5844 7923 46
29170 5844 9892 13
29171 5844 6649 25
29172 5844 4552 47
29173 5845 4066 68
29174 5845 1427 94
29175 5845 6279 15
29176 5845 6116 53
29177 5845 3952 67
29178 5845 4945 61
29179 5845 5148 97
29180 5845 8673 92
29181 5846 6859 36
29182 5846 2466 25
29183 5847 5353 97
29184 5847 9348 43
29185 5847 7207 95
29186 5847 9031 55
29187 5847 4379 32
29188 5847 8098 10
29189 5848 3545 15
29190 5848 7153 90
29191 5848 1411 99
29192 5849 7314 4
29193 5849 6161 31
29194 5849 9438 95
29195 5850 2608 29
29196 5850 2643 57
29197 5850 4929 67
29198 5850 7646 64
29199 5850 3476 46
29200 5850 9592 77
29201 5850 6759 37
29202 5850 8956 65
29203 5851 7545 82
29204 5851 655 79
29205 5851 4151 54
29206 5851 5013 36
29207 5851 9944 18
29208 5851 2438 4
29209 5852 9214 1
29210 5852 1660 3
29211 5852 8826 69
29212 5852 5499 80
29213 5852 5012 35
29214 5853 4611 82
29215 5853 4947 84
29216 5853 6820 28
29217 5853 32 54
29218 5853 4226 15
29219 5854 6417 25
29220 5854 4254 61
29221 5854 1796 99
29222 5855 6921 71
29223 5855 2592 44
29224 5855 9420 30
29225 5855 2460 45
29226 5855 9402 43
29227 5855 7827 100
29228 5855 9670 21
29229 5855 6931 18
29230 5856 9964 87
29231 5856 8205 60
29232 5856 193 65
29233 5857 7856 6
29234 5857 8868 68
29235 5857 1452 14
29236 5857 4384 84
29237 5857 1694 42
29238 5858 8801 34
29239 5858 9184 93
29240 5858 3414 32
29241 5858 8767 47
29242 5858 109 72
29243 5859 2507 44
29244 5859 136 15
29245 5859 7275 8
29246 5859 6712 53
29247 5859 9570 78
29248 5860 1338 80
29249 5860 876 34
29250 5860 6568 8
29251 5860 5733 66
29252 5861 3470 20
29253 5861 5347 29
29254 5861 9657 66
29255 5861 3454 15
29256 5861 784 26
29257 5861 2801 87
29258 5861 9106 80
29259 5862 3574 70
29260 5862 4142 30
29261 5863 1377 54
29262 5863 6931 37
29263 5863 316 78
29264 5863 9857 43
29265 5863 5688 12
29266 5863 71 65
29267 5863 9777 92
29268 5863 1458 52
29269 5864 9330 20
29270 5864 36 70
29271 5864 8385 87
29272 5864 7429 55
29273 5864 1032 89
29274 5864 1218 67
29275 5865 4642 80
29276 5865 8364 91
29277 5865 1136 46
29278 5865 873 62
29279 5865 3985 85
29280 5865 2956 90
29281 5865 5551 99
29282 5865 3358 20
29283 5865 3778 88
29284 5866 1635 77
29285 5866 994 77
29286 5866 1721 83
29287 5867 9423 29
29288 5867 7498 38
29289 5867 323 60
29290 5867 4056 84
29291 5867 1250 12
29292 5867 7492 70
29293 5867 4142 71
29294 5868 8904 70
29295 5868 8850 70
29296 5869 8949 6
29297 5869 193 30
29298 5869 5683 55
29299 5869 1534 30
29300 5870 231 69
29301 5870 5595 49
29302 5870 4293 10
29303 5870 11 99
29304 5870 9041 55
29305 5870 1878 95
29306 5870 2726 87
29307 5871 1695 99
29308 5871 2130 11
29309 5871 9979 42
29310 5871 9254 56
29311 5871 549 40
29312 5871 3248 41
29313 5872 5327 16
29314 5872 6952 51
29315 5872 5410 32
29316 5873 5083 83
29317 5873 8706 27
29318 5873 900 47
29319 5873 6764 9
29320 5874 6384 42
29321 5874 2243 67
29322 5875 9967 53
29323 5875 7352 55
29324 5875 918 57
29325 5875 5909 12
29326 5875 1946 47
29327 5875 679 33
29328 5876 4691 41
29329 5876 6393 5
29330 5876 7760 61
29331 5876 4291 65
29332 5876 3252 38
29333 5877 2627 63
29334 5877 2724 11
29335 5877 1311 1
29336 5877 2074 67
29337 5877 2777 59
29338 5877 544 30
29339 5877 6741 32
29340 5877 936 93
29341 5877 2699 15
29342 5877 1796 59
29343 5878 5430 9
29344 5878 9459 25
29345 5878 3061 75
29346 5878 2224 34
29347 5879 8789 74
29348 5879 8551 62
29349 5880 1889 79
29350 5880 6398 68
29351 5880 7471 99
29352 5880 9517 20
29353 5881 5924 45
29354 5881 310 49
29355 5881 9987 18
29356 5881 1239 86
29357 5881 8076 81
29358 5881 6054 77
29359 5881 892 83
29360 5882 3869 98
29361 5882 5572 78
29362 5882 2573 92
29363 5882 7966 22
29364 5882 2461 94
29365 5883 3748 4
29366 5883 5059 66
29367 5883 9828 34
29368 5883 7111 83
29369 5883 213 26
29370 5883 9155 51
29371 5884 7051 55
29372 5884 116 55
29373 5884 4446 97
29374 5884 6121 15
29375 5884 695 38
29376 5884 5081 59
29377 5884 8075 99
29378 5884 6725 50
29379 5885 7930 27
29380 5885 8675 88
29381 5885 1374 39
29382 5885 1231 35
29383 5885 6702 76
29384 5885 5903 95
29385 5885 960 60
29386 5885 1345 52
29387 5886 8661 54
29388 5887 4523 98
29389 5887 8799 54
29390 5887 6920 6
29391 5888 4585 100
29392 5888 5273 65
29393 5888 4340 48
29394 5888 7794 5
29395 5888 3453 80
29396 5888 5014 2
29397 5889 1831 41
29398 5889 4228 29
29399 5889 2835 4
29400 5889 1722 40
29401 5889 8590 49
29402 5890 2397 18
29403 5890 5850 12
29404 5890 1173 88
29405 5890 3857 68
29406 5890 7822 3
29407 5890 3770 18
29408 5890 1080 81
29409 5890 1541 48
29410 5890 8717 53
29411 5891 5855 80
29412 5891 1627 20
29413 5892 7805 99
29414 5892 6414 29
29415 5892 1218 6
29416 5892 275 74
29417 5892 3336 83
29418 5892 453 80
29419 5893 5139 39
29420 5893 6600 53
29421 5893 9263 80
29422 5893 2264 68
29423 5893 8569 40
29424 5894 1711 46
29425 5894 2134 66
29426 5894 8827 28
29427 5894 2719 3
29428 5895 5164 41
29429 5895 968 28
29430 5895 1092 31
29431 5895 9814 82
29432 5895 3682 25
29433 5895 1717 7
29434 5895 9606 89
29435 5895 8547 92
29436 5896 1818 22
29437 5896 8062 46
29438 5896 2127 45
29439 5896 8445 4
29440 5896 1289 47
29441 5896 1984 33
29442 5896 8636 85
29443 5896 6605 5
29444 5896 8192 69
29445 5896 9349 37
29446 5897 523 40
29447 5897 7073 79
29448 5897 6610 16
29449 5897 9561 34
29450 5898 4355 45
29451 5898 593 26
29452 5898 4731 12
29453 5899 359 21
29454 5899 5356 11
29455 5899 7994 89
29456 5899 123 96
29457 5899 4942 88
29458 5899 8860 89
29459 5899 459 38
29460 5899 5637 89
29461 5899 335 24
29462 5899 5595 91
29463 5900 5651 36
29464 5900 2766 37
29465 5900 4154 3
29466 5900 1972 85
29467 5900 6545 6
29468 5900 2443 20
29469 5901 2247 49
29470 5901 9718 9
29471 5901 7042 71
29472 5901 9210 43
29473 5902 1486 2
29474 5902 5901 29
29475 5902 4045 96
29476 5902 9840 62
29477 5902 6272 39
29478 5902 8654 31
29479 5903 8043 45
29480 5903 5982 38
29481 5903 3646 27
29482 5904 6694 22
29483 5904 3985 55
29484 5904 6524 55
29485 5904 5498 91
29486 5904 5566 69
29487 5904 379 24
29488 5904 7922 55
29489 5905 5087 65
29490 5905 1532 10
29491 5906 6089 7
29492 5906 497 26
29493 5906 8403 44
29494 5906 8872 67
29495 5906 3321 52
29496 5906 5831 5
29497 5907 5194 74
29498 5907 3462 75
29499 5907 2551 25
29500 5907 59 52
29501 5908 4421 79
29502 5908 1181 46
29503 5908 9114 96
29504 5908 950 9
29505 5908 8070 50
29506 5908 2355 71
29507 5908 1735 97
29508 5908 786 6
29509 5908 9676 82
29510 5909 4624 37
29511 5909 9188 37
29512 5909 1250 6
29513 5909 8296 86
29514 5909 3897 49
29515 5909 5557 9
29516 5910 2802 88
29517 5910 7432 55
29518 5910 9315 76
29519 5910 9043 90
29520 5910 7555 71
29521 5911 5955 17
29522 5911 4311 24
29523 5912 3903 51
29524 5912 3641 55
29525 5912 6861 36
29526 5912 600 79
29527 5912 9798 42
29528 5912 4016 52
29529 5912 4925 95
29530 5913 1329 62
29531 5913 2270 22
29532 5913 4306 13
29533 5913 818 50
29534 5914 8124 96
29535 5914 5045 91
29536 5914 1966 79
29537 5915 2561 36
29538 5915 2772 87
29539 5915 8649 35
29540 5915 2041 2
29541 5916 6052 56
29542 5916 3308 82
29543 5916 2772 81
29544 5917 4744 71
29545 5917 5492 53
29546 5917 4498 34
29547 5918 1335 67
29548 5918 1363 36
29549 5918 6789 62
29550 5918 7527 85
29551 5919 5010 74
29552 5919 5344 9
29553 5919 5676 7
29554 5919 1277 6
29555 5920 7117 26
29556 5920 3964 94
29557 5920 6922 92
29558 5920 6683 14
29559 5921 6224 14
29560 5921 9960 12
29561 5921 1099 48
29562 5921 6257 69
29563 5921 3537 55
29564 5921 6877 92
29565 5922 1336 49
29566 5922 7154 42
29567 5922 5140 77
29568 5922 2548 76
29569 5923 6479 69
29570 5923 978 35
29571 5923 9958 50
29572 5923 3080 68
29573 5923 2750 100
29574 5923 298 41
29575 5923 6373 51
29576 5924 7136 72
29577 5924 6265 67
29578 5924 6607 39
29579 5924 789 21
29580 5924 9373 41
29581 5924 7829 27
29582 5924 8816 85
29583 5924 9592 20
29584 5925 2975 39
29585 5925 8620 86
29586 5926 265 65
29587 5926 3713 55
29588 5926 2088 16
29589 5927 9393 18
29590 5927 3795 23
29591 5927 8403 83
29592 5927 2735 1
29593 5927 5461 44
29594 5927 3373 90
29595 5927 5164 86
29596 5927 1048 15
29597 5927 4582 13
29598 5928 634 84
29599 5928 6872 13
29600 5928 5953 30
29601 5928 3193 32
29602 5928 746 95
29603 5928 2954 26
29604 5929 5648 16
29605 5929 8270 75
29606 5930 8820 62
29607 5930 7284 3
29608 5930 8665 8
29609 5930 3582 83
29610 5930 2869 2
29611 5930 5013 95
29612 5930 3715 98
29613 5930 2644 12
29614 5930 71 50
29615 5930 5628 97
29616 5931 6843 20
29617 5931 6422 57
29618 5931 8991 53
29619 5931 9434 69
29620 5931 1010 38
29621 5931 4631 46
29622 5931 2576 63
29623 5931 4794 39
29624 5931 751 89
29625 5932 2048 5
29626 5932 8996 48
29627 5932 7637 57
29628 5933 148 5
29629 5933 215 91
29630 5933 8413 21
29631 5933 9559 98
29632 5933 3167 22
29633 5934 4136 43
29634 5934 2130 51
29635 5934 3668 35
29636 5935 5005 62
29637 5935 8409 58
29638 5935 9816 12
29639 5935 5040 54
29640 5935 2590 59
29641 5936 8644 75
29642 5936 7024 96
29643 5936 409 16
29644 5936 5287 70
29645 5937 6620 94
29646 5937 5818 93
29647 5937 1285 46
29648 5937 758 4
29649 5938 82 40
29650 5938 498 91
29651 5938 3248 96
29652 5938 2531 96
29653 5938 5993 14
29654 5938 7877 58
29655 5939 1814 59
29656 5939 884 15
29657 5939 2019 45
29658 5939 6994 85
29659 5939 2582 6
29660 5939 3424 83
29661 5940 6248 6
29662 5940 2953 18
29663 5940 9010 73
29664 5940 3346 97
29665 5941 7668 77
29666 5941 1032 66
29667 5941 7791 84
29668 5941 1996 11
29669 5941 7011 49
29670 5941 1074 4
29671 5942 1317 29
29672 5942 7214 47
29673 5942 9930 61
29674 5942 5978 24
29675 5943 8293 34
29676 5943 4127 72
29677 5943 2264 41
29678 5943 6403 49
29679 5943 5985 93
29680 5943 8951 70
29681 5944 7875 65
29682 5944 3231 53
29683 5944 8828 88
29684 5945 8485 33
29685 5945 2325 100
29686 5945 4503 56
29687 5946 9839 94
29688 5946 9144 9
29689 5946 129 32
29690 5947 5621 54
29691 5947 7624 73
29692 5947 9200 37
29693 5947 5191 63
29694 5947 7732 20
29695 5948 1911 43
29696 5948 4303 1
29697 5948 7026 4
29698 5949 8603 92
29699 5949 3578 6
29700 5949 1756 22
29701 5949 3399 67
29702 5949 5109 87
29703 5950 4382 84
29704 5950 3078 93
29705 5950 8143 95
29706 5950 1228 75
29707 5951 38 68
29708 5951 29 48
29709 5951 9972 37
29710 5952 6172 95
29711 5952 2034 36
29712 5952 7674 49
29713 5952 1746 82
29714 5952 2078 86
29715 5952 8174 28
29716 5952 8778 42
29717 5953 6186 12
29718 5953 4463 86
29719 5953 3701 54
29720 5953 6654 41
29721 5953 6793 12
29722 5954 1215 27
29723 5954 9249 53
29724 5954 2132 43
29725 5954 3197 68
29726 5954 1090 72
29727 5954 9101 61
29728 5954 5096 22
29729 5954 3086 34
29730 5955 4820 91
29731 5955 7682 87
29732 5955 547 52
29733 5955 4618 96
29734 5955 9299 64
29735 5955 9408 6
29736 5955 9952 37
29737 5955 680 97
29738 5955 9198 45
29739 5955 1493 37
29740 5956 3665 69
29741 5956 1832 16
29742 5956 2015 13
29743 5956 2610 34
29744 5956 1450 8
29745 5956 4884 33
29746 5956 174 35
29747 5956 4701 17
29748 5957 2586 15
29749 5957 7481 2
29750 5957 892 99
29751 5957 9159 23
29752 5958 368 3
29753 5958 2219 6
29754 5958 9237 49
29755 5958 1257 42
29756 5958 5517 85
29757 5958 4405 93
29758 5958 6371 78
29759 5958 7018 68
29760 5959 9438 59
29761 5959 3072 36
29762 5959 3186 47
29763 5959 4322 9
29764 5959 3092 87
29765 5959 5141 57
29766 5960 6944 4
29767 5960 2626 36
29768 5960 7104 40
29769 5961 809 68
29770 5961 1674 38
29771 5961 7754 36
29772 5961 14 35
29773 5961 6499 89
29774 5961 1692 46
29775 5962 148 42
29776 5962 7491 88
29777 5962 8652 33
29778 5963 8889 78
29779 5963 2452 18
29780 5963 5632 3
29781 5963 4058 80
29782 5963 2733 32
29783 5963 3701 96
29784 5963 381 97
29785 5963 1044 12
29786 5963 7078 49
29787 5963 5383 23
29788 5963 2195 98
29789 5963 2952 12
29790 5964 6678 78
29791 5964 990 22
29792 5964 5469 88
29793 5964 3943 52
29794 5964 8525 42
29795 5965 8261 99
29796 5965 8340 88
29797 5965 7214 24
29798 5965 7505 26
29799 5965 2243 87
29800 5965 1444 29
29801 5965 5389 20
29802 5965 5213 32
29803 5966 9344 46
29804 5966 6385 26
29805 5966 1686 70
29806 5966 871 84
29807 5966 8935 81
29808 5966 6569 14
29809 5967 2425 57
29810 5967 4590 7
29811 5967 1219 64
29812 5967 6382 92
29813 5968 3242 95
29814 5968 8964 52
29815 5968 3191 88
29816 5968 382 42
29817 5968 1970 42
29818 5968 5623 13
29819 5968 5459 43
29820 5968 9194 47
29821 5968 1965 78
29822 5969 1706 88
29823 5969 2757 7
29824 5969 563 2
29825 5969 8331 34
29826 5969 3644 8
29827 5969 6274 69
29828 5970 7310 81
29829 5970 754 68
29830 5971 593 1
29831 5971 8492 14
29832 5971 1813 42
29833 5972 6673 61
29834 5972 9055 69
29835 5972 9915 81
29836 5973 9912 27
29837 5973 1059 87
29838 5974 3251 78
29839 5975 1117 53
29840 5975 6260 10
29841 5975 6855 65
29842 5975 3343 32
29843 5975 4167 30
29844 5975 5477 36
29845 5975 799 37
29846 5975 1366 74
29847 5975 2712 98
29848 5976 5481 9
29849 5976 1634 80
29850 5976 4098 53
29851 5976 1018 67
29852 5976 411 98
29853 5976 7105 19
29854 5977 8699 67
29855 5977 9717 65
29856 5977 7262 90
29857 5977 6211 92
29858 5977 6989 60
29859 5977 6923 22
29860 5977 2833 97
29861 5977 617 82
29862 5978 1673 49
29863 5978 7331 46
29864 5978 9851 55
29865 5978 490 63
29866 5978 6001 29
29867 5978 6701 18
29868 5979 8884 77
29869 5979 9945 36
29870 5979 2705 48
29871 5979 6075 75
29872 5979 5748 67
29873 5979 155 62
29874 5979 2082 32
29875 5979 5681 20
29876 5980 8898 80
29877 5980 5043 97
29878 5980 9137 16
29879 5981 5084 45
29880 5981 5222 46
29881 5981 7415 72
29882 5982 9933 81
29883 5983 3855 37
29884 5983 8214 77
29885 5983 1497 16
29886 5984 487 59
29887 5984 6136 70
29888 5985 9233 73
29889 5985 6592 68
29890 5985 8145 75
29891 5985 5183 4
29892 5985 6193 33
29893 5986 7330 21
29894 5986 5122 22
29895 5986 2192 5
29896 5987 8282 8
29897 5987 6342 72
29898 5987 3761 97
29899 5988 3987 3
29900 5988 5724 71
29901 5988 1114 6
29902 5988 8101 59
29903 5989 4554 92
29904 5989 1899 9
29905 5989 830 33
29906 5989 711 22
29907 5990 5105 92
29908 5990 192 45
29909 5990 5731 35
29910 5990 8519 57
29911 5991 8668 64
29912 5991 5185 91
29913 5991 859 63
29914 5991 8050 29
29915 5991 9221 26
29916 5991 4126 93
29917 5991 6561 40
29918 5992 2717 95
29919 5993 2182 73
29920 5993 5513 83
29921 5993 6156 72
29922 5993 153 70
29923 5993 1492 7
29924 5993 2693 55
29925 5993 9118 55
29926 5993 8929 13
29927 5994 4619 66
29928 5994 3936 73
29929 5994 856 71
29930 5995 1946 63
29931 5995 7532 21
29932 5995 2864 13
29933 5995 3656 17
29934 5995 4760 69
29935 5995 8297 53
29936 5996 3422 7
29937 5996 7038 65
29938 5996 1705 2
29939 5996 7064 9
29940 5997 8618 25
29941 5997 5817 8
29942 5997 7816 83
29943 5997 3390 61
29944 5997 4764 44
29945 5997 9109 89
29946 5997 8500 78
29947 5997 2612 43
29948 5997 7221 27
29949 5998 3376 62
29950 5998 4172 6
29951 5998 8355 68
29952 5998 8352 33
29953 5999 7629 80
29954 5999 5762 59
29955 5999 5314 42
29956 5999 7101 87
29957 6000 9862 56
29958 6000 8749 32
29959 6000 6515 7
29960 6000 8198 59
29961 6000 7493 93
29962 6000 5189 78
29963 6001 1047 34
29964 6001 7718 96
29965 6001 5993 34
29966 6001 475 88
29967 6001 9361 96
29968 6002 8011 29
29969 6002 6825 44
29970 6003 3389 74
29971 6003 6120 25
29972 6003 669 43
29973 6003 8322 52
29974 6003 974 9
29975 6003 3565 33
29976 6003 8905 37
29977 6004 5676 96
29978 6004 9438 57
29979 6004 3976 79
29980 6004 5674 96
29981 6005 9940 88
29982 6005 3405 72
29983 6005 5970 79
29984 6005 675 61
29985 6005 9419 13
29986 6006 1501 1
29987 6006 2639 14
29988 6006 697 62
29989 6006 737 22
29990 6007 4210 80
29991 6007 5582 44
29992 6007 5297 75
29993 6007 9616 24
29994 6007 9595 67
29995 6007 3439 85
29996 6007 6603 59
29997 6007 391 33
29998 6007 254 1
29999 6008 8772 51
30000 6008 1299 90
30001 6009 8040 8
30002 6009 8192 61
30003 6009 8417 64
30004 6009 4256 22
30005 6010 3785 55
30006 6010 9430 76
30007 6010 7708 77
30008 6010 3508 63
30009 6010 1850 65
30010 6010 1760 92
30011 6010 5139 11
30012 6011 6465 33
30013 6011 4163 94
30014 6011 9588 73
30015 6011 6631 81
30016 6011 2470 32
30017 6011 5310 96
30018 6011 7316 91
30019 6012 8487 16
30020 6012 8272 1
30021 6013 7542 10
30022 6013 7449 37
30023 6013 4630 88
30024 6013 5723 23
30025 6013 7764 30
30026 6013 6245 100
30027 6013 8930 2
30028 6013 4660 39
30029 6013 3234 13
30030 6014 9747 74
30031 6014 6053 4
30032 6014 1132 45
30033 6014 6388 63
30034 6015 864 47
30035 6015 6640 91
30036 6015 4393 3
30037 6016 5279 89
30038 6016 738 48
30039 6017 1569 98
30040 6017 80 1
30041 6017 7438 59
30042 6017 7694 75
30043 6018 7179 72
30044 6018 6605 8
30045 6018 9809 75
30046 6019 4705 65
30047 6019 6277 66
30048 6020 3470 38
30049 6020 1576 31
30050 6020 9706 53
30051 6020 3362 95
30052 6020 5338 87
30053 6020 8090 81
30054 6021 5040 49
30055 6021 2455 14
30056 6022 8880 77
30057 6022 4059 85
30058 6022 6964 5
30059 6022 2405 67
30060 6022 5337 53
30061 6022 7980 27
30062 6022 5676 99
30063 6022 580 22
30064 6022 7110 100
30065 6022 3767 70
30066 6022 1330 98
30067 6023 2379 9
30068 6023 3281 45
30069 6023 7773 80
30070 6024 8440 85
30071 6024 5476 52
30072 6024 5383 98
30073 6024 7427 1
30074 6024 5326 19
30075 6024 2435 61
30076 6024 5051 39
30077 6025 8239 61
30078 6025 1307 23
30079 6025 7898 6
30080 6025 7515 79
30081 6025 7403 50
30082 6025 7750 88
30083 6025 8029 3
30084 6025 5989 32
30085 6025 292 94
30086 6026 344 27
30087 6026 3382 84
30088 6027 9429 71
30089 6027 4566 16
30090 6027 932 55
30091 6028 8655 90
30092 6028 9732 86
30093 6029 4725 79
30094 6029 9255 29
30095 6029 8818 80
30096 6029 9694 46
30097 6029 4875 73
30098 6029 82 67
30099 6030 1286 72
30100 6030 8544 84
30101 6031 8525 19
30102 6031 2867 5
30103 6031 313 29
30104 6031 5683 31
30105 6031 1587 6
30106 6031 1579 67
30107 6032 8355 19
30108 6032 3701 17
30109 6032 35 33
30110 6032 2620 34
30111 6032 138 56
30112 6032 9096 37
30113 6033 831 20
30114 6033 6577 96
30115 6033 4071 40
30116 6033 727 4
30117 6033 2358 73
30118 6034 9002 46
30119 6034 7421 2
30120 6034 1226 13
30121 6034 3783 67
30122 6035 3760 90
30123 6035 1611 45
30124 6035 6809 89
30125 6036 7658 31
30126 6036 2063 80
30127 6036 6290 1
30128 6036 5481 12
30129 6036 1693 34
30130 6036 9172 66
30131 6036 26 44
30132 6037 1277 64
30133 6037 4377 90
30134 6037 5365 83
30135 6038 1647 87
30136 6038 1814 82
30137 6038 1916 5
30138 6038 5902 28
30139 6038 1645 93
30140 6038 3612 20
30141 6039 6553 100
30142 6040 2690 60
30143 6040 6998 2
30144 6040 9993 2
30145 6040 8127 45
30146 6040 1941 100
30147 6041 2308 72
30148 6041 4824 75
30149 6041 7756 76
30150 6041 3012 11
30151 6041 2846 22
30152 6042 3207 64
30153 6042 5413 6
30154 6042 903 29
30155 6043 1874 98
30156 6043 8487 21
30157 6043 842 87
30158 6043 3154 29
30159 6043 7475 64
30160 6043 7082 86
30161 6043 8747 10
30162 6043 7774 53
30163 6043 3105 24
30164 6043 2264 89
30165 6044 6334 50
30166 6044 6903 80
30167 6044 7994 9
30168 6045 1771 41
30169 6045 6228 28
30170 6045 6075 50
30171 6045 3545 13
30172 6046 5690 74
30173 6046 6983 60
30174 6046 7991 16
30175 6046 7136 73
30176 6046 9937 68
30177 6046 2260 74
30178 6046 6893 36
30179 6046 6528 67
30180 6046 5306 100
30181 6047 9533 24
30182 6047 973 1
30183 6047 3277 75
30184 6047 169 52
30185 6047 3000 43
30186 6049 1384 63
30187 6050 9472 71
30188 6050 7703 13
30189 6050 9232 69
30190 6050 1804 44
30191 6051 9811 21
30192 6051 5138 54
30193 6051 8170 55
30194 6051 2321 3
30195 6051 4818 52
30196 6051 596 53
30197 6052 1560 45
30198 6052 2393 72
30199 6053 323 99
30200 6053 6412 12
30201 6053 3053 43
30202 6053 211 90
30203 6053 1673 73
30204 6053 5325 26
30205 6054 9546 58
30206 6054 7617 56
30207 6054 5547 3
30208 6054 5623 85
30209 6054 1034 2
30210 6054 1420 15
30211 6054 4031 86
30212 6055 7830 94
30213 6055 405 34
30214 6055 5850 22
30215 6056 8648 63
30216 6056 2287 48
30217 6056 1171 66
30218 6056 3421 49
30219 6056 2501 94
30220 6056 9743 31
30221 6056 1739 58
30222 6056 3292 12
30223 6056 9102 21
30224 6056 1157 45
30225 6056 9933 47
30226 6056 5710 11
30227 6057 5438 33
30228 6057 4885 37
30229 6057 7638 80
30230 6057 7625 94
30231 6057 6753 47
30232 6057 586 3
30233 6057 7426 42
30234 6057 4180 72
30235 6057 4459 9
30236 6057 4457 8
30237 6058 5832 81
30238 6058 8674 15
30239 6058 2859 38
30240 6058 3103 1
30241 6058 2698 6
30242 6058 6076 36
30243 6058 9083 81
30244 6059 2650 34
30245 6059 4013 37
30246 6059 4301 14
30247 6060 6052 91
30248 6060 7494 31
30249 6060 3280 86
30250 6060 9787 64
30251 6060 1776 50
30252 6061 2747 59
30253 6061 488 100
30254 6061 5310 85
30255 6061 5336 35
30256 6061 6807 24
30257 6062 7924 32
30258 6062 9622 68
30259 6062 1480 3
30260 6062 5426 33
30261 6062 6646 71
30262 6062 4929 78
30263 6062 4031 65
30264 6063 5574 6
30265 6063 740 80
30266 6063 2256 93
30267 6063 3914 84
30268 6063 9731 10
30269 6063 2884 53
30270 6063 1572 50
30271 6063 7192 80
30272 6064 6859 91
30273 6064 9375 94
30274 6064 7243 55
30275 6065 6053 43
30276 6065 7545 22
30277 6065 7579 63
30278 6065 6388 86
30279 6066 9454 52
30280 6066 5842 92
30281 6067 9062 18
30282 6067 4340 37
30283 6067 157 42
30284 6067 7908 5
30285 6067 5914 9
30286 6067 1464 13
30287 6068 2653 76
30288 6068 2842 71
30289 6068 7166 11
30290 6068 9735 9
30291 6068 4989 44
30292 6068 3942 72
30293 6068 4292 80
30294 6068 3129 76
30295 6069 4305 59
30296 6069 2406 91
30297 6069 2491 25
30298 6070 6455 96
30299 6070 898 7
30300 6070 4843 84
30301 6070 5418 28
30302 6071 7223 49
30303 6071 8527 44
30304 6071 7554 3
30305 6071 6723 9
30306 6072 1122 74
30307 6072 1986 49
30308 6072 4037 10
30309 6072 2315 69
30310 6072 2707 30
30311 6073 7187 97
30312 6073 6173 86
30313 6073 4745 1
30314 6074 2362 91
30315 6074 1645 15
30316 6074 2592 18
30317 6074 7391 23
30318 6075 285 99
30319 6075 7430 50
30320 6075 3309 3
30321 6075 7739 59
30322 6075 4760 38
30323 6076 5468 46
30324 6076 6062 11
30325 6076 1863 42
30326 6076 109 65
30327 6076 3397 71
30328 6076 2931 54
30329 6076 9576 62
30330 6076 9175 88
30331 6076 7211 18
30332 6077 390 6
30333 6077 4503 48
30334 6077 8320 53
30335 6077 1805 38
30336 6077 3373 8
30337 6077 1420 41
30338 6078 4480 100
30339 6078 9983 83
30340 6078 4176 18
30341 6078 5141 8
30342 6078 3762 42
30343 6078 4849 82
30344 6078 1439 12
30345 6078 4564 77
30346 6079 3767 23
30347 6079 3613 82
30348 6079 5680 35
30349 6079 5764 5
30350 6079 689 35
30351 6079 552 63
30352 6079 261 10
30353 6080 4020 78
30354 6080 2021 26
30355 6080 9907 95
30356 6080 4063 3
30357 6080 4159 71
30358 6080 2674 7
30359 6081 9034 65
30360 6081 9497 82
30361 6081 6130 5
30362 6081 5981 72
30363 6081 6086 93
30364 6081 1720 20
30365 6081 7368 92
30366 6081 8340 1
30367 6082 3302 85
30368 6082 3615 57
30369 6082 8690 96
30370 6082 8716 29
30371 6082 695 12
30372 6082 2957 98
30373 6082 9299 10
30374 6083 1966 40
30375 6083 2907 13
30376 6083 8662 63
30377 6083 8819 55
30378 6083 5012 46
30379 6083 4161 99
30380 6083 1265 54
30381 6084 148 78
30382 6084 1166 100
30383 6084 4410 90
30384 6084 5977 91
30385 6084 8322 28
30386 6084 952 17
30387 6084 7983 28
30388 6084 5686 77
30389 6084 8099 33
30390 6084 6009 39
30391 6085 829 86
30392 6085 2487 55
30393 6085 5964 13
30394 6085 9231 29
30395 6086 6042 77
30396 6086 794 83
30397 6086 9815 41
30398 6086 5968 76
30399 6086 5386 72
30400 6086 816 17
30401 6086 5946 76
30402 6086 1237 63
30403 6086 8273 45
30404 6087 3038 47
30405 6087 563 44
30406 6088 3638 32
30407 6088 2205 43
30408 6088 5582 49
30409 6088 1695 52
30410 6088 2951 58
30411 6088 4398 96
30412 6089 1805 16
30413 6089 3182 15
30414 6089 572 20
30415 6089 1098 18
30416 6089 6775 62
30417 6089 4990 67
30418 6089 1247 81
30419 6090 852 94
30420 6090 9041 20
30421 6091 4603 83
30422 6091 7643 45
30423 6092 4922 71
30424 6092 1780 4
30425 6092 7265 16
30426 6092 3847 30
30427 6092 2349 84
30428 6092 9763 39
30429 6093 3805 36
30430 6093 5802 29
30431 6093 5148 26
30432 6093 5292 50
30433 6093 4842 1
30434 6093 49 79
30435 6093 3974 82
30436 6093 5626 46
30437 6093 4604 89
30438 6093 551 44
30439 6094 6053 10
30440 6094 7366 33
30441 6095 171 11
30442 6095 438 12
30443 6095 9951 17
30444 6095 2257 95
30445 6095 7344 92
30446 6095 2358 71
30447 6096 5923 100
30448 6096 4363 93
30449 6096 9911 46
30450 6096 1197 42
30451 6096 6433 81
30452 6096 5139 90
30453 6096 8629 83
30454 6097 8133 54
30455 6098 1737 46
30456 6098 4307 91
30457 6098 7235 18
30458 6098 8335 81
30459 6099 9138 21
30460 6099 9456 70
30461 6099 9689 53
30462 6099 2351 18
30463 6099 9076 63
30464 6099 2777 80
30465 6099 2265 8
30466 6099 1684 72
30467 6100 9124 1
30468 6100 3186 30
30469 6100 4008 4
30470 6100 6559 3
30471 6101 3508 66
30472 6101 5497 16
30473 6101 1120 16
30474 6101 4458 12
30475 6102 4188 91
30476 6102 1897 57
30477 6102 8436 53
30478 6103 2962 9
30479 6103 1078 10
30480 6103 5848 66
30481 6103 2475 99
30482 6104 9338 10
30483 6104 9991 91
30484 6104 2194 77
30485 6105 1268 30
30486 6105 114 27
30487 6105 6088 88
30488 6105 8928 55
30489 6105 6671 98
30490 6106 2482 10
30491 6106 8825 6
30492 6106 4421 93
30493 6107 3780 45
30494 6107 3250 16
30495 6107 3198 95
30496 6107 8010 51
30497 6107 3506 28
30498 6107 7971 41
30499 6107 1155 39
30500 6108 8879 3
30501 6108 1364 16
30502 6108 8089 70
30503 6108 1789 34
30504 6109 7410 31
30505 6109 1815 43
30506 6109 2116 34
30507 6109 6290 89
30508 6109 6779 95
30509 6109 461 74
30510 6109 1101 29
30511 6110 572 72
30512 6110 1980 67
30513 6110 6296 48
30514 6110 6232 17
30515 6110 172 4
30516 6111 3036 100
30517 6111 7649 89
30518 6111 147 70
30519 6111 5473 93
30520 6111 8814 69
30521 6111 386 42
30522 6111 6671 72
30523 6112 7555 82
30524 6112 3267 14
30525 6112 4024 55
30526 6112 1985 93
30527 6113 818 49
30528 6113 3237 6
30529 6113 8270 66
30530 6113 9969 77
30531 6113 1282 75
30532 6113 1780 90
30533 6114 8731 71
30534 6114 7918 98
30535 6115 1809 24
30536 6115 2775 22
30537 6115 2291 91
30538 6115 8463 78
30539 6116 2747 80
30540 6116 3968 37
30541 6116 2376 99
30542 6117 8147 50
30543 6117 7416 9
30544 6117 9509 6
30545 6117 3572 91
30546 6117 6547 34
30547 6117 2063 45
30548 6117 924 57
30549 6118 7708 98
30550 6118 8471 79
30551 6120 1532 55
30552 6120 1781 65
30553 6120 9017 71
30554 6120 2011 84
30555 6120 477 90
30556 6120 5158 48
30557 6121 8001 59
30558 6121 1930 67
30559 6121 409 85
30560 6121 2714 72
30561 6121 7409 78
30562 6122 9153 30
30563 6122 7788 6
30564 6122 6778 40
30565 6122 7055 83
30566 6122 5904 83
30567 6122 6060 81
30568 6122 91 35
30569 6122 7419 4
30570 6123 6376 77
30571 6123 9029 26
30572 6123 7338 14
30573 6124 3836 99
30574 6124 5784 97
30575 6124 4377 19
30576 6124 7013 53
30577 6125 3165 13
30578 6125 602 13
30579 6125 1941 37
30580 6125 8495 99
30581 6125 6555 12
30582 6125 457 47
30583 6125 868 8
30584 6125 4794 4
30585 6125 3113 73
30586 6126 514 15
30587 6126 568 80
30588 6126 9370 64
30589 6127 8370 32
30590 6127 8587 77
30591 6127 5203 17
30592 6127 8589 29
30593 6128 2437 43
30594 6128 4428 38
30595 6128 264 7
30596 6129 1983 29
30597 6129 5164 59
30598 6129 1932 26
30599 6129 5679 86
30600 6129 5702 16
30601 6130 9895 60
30602 6130 6662 87
30603 6130 9636 73
30604 6130 4688 63
30605 6130 5706 100
30606 6130 4535 40
30607 6131 1318 7
30608 6131 6974 48
30609 6131 4997 92
30610 6132 6407 6
30611 6132 3819 25
30612 6132 4986 68
30613 6132 8159 61
30614 6132 3425 35
30615 6132 5319 89
30616 6132 7380 85
30617 6133 9790 68
30618 6133 2766 81
30619 6133 8446 18
30620 6134 241 84
30621 6134 3538 4
30622 6134 9658 70
30623 6134 8507 36
30624 6134 4561 86
30625 6134 8276 5
30626 6135 2677 95
30627 6135 8405 22
30628 6136 9719 100
30629 6136 4126 42
30630 6136 3848 28
30631 6137 6668 63
30632 6137 2358 99
30633 6137 9585 77
30634 6137 7655 45
30635 6138 8974 7
30636 6138 3478 20
30637 6138 8322 78
30638 6138 4064 75
30639 6138 6619 67
30640 6138 6101 55
30641 6138 289 76
30642 6139 8033 63
30643 6139 9204 22
30644 6139 762 8
30645 6139 7532 62
30646 6139 6700 21
30647 6140 8716 96
30648 6140 2610 42
30649 6140 4501 7
30650 6140 6682 89
30651 6140 1029 76
30652 6140 3292 53
30653 6141 7008 27
30654 6141 2686 83
30655 6141 4716 33
30656 6143 2904 94
30657 6143 8598 47
30658 6143 1939 63
30659 6143 9510 12
30660 6143 6730 86
30661 6143 6132 99
30662 6144 4095 12
30663 6144 6335 8
30664 6144 8453 64
30665 6145 1310 30
30666 6145 1072 26
30667 6146 9410 16
30668 6146 9057 77
30669 6146 1308 86
30670 6147 7799 37
30671 6147 4197 48
30672 6147 9329 73
30673 6147 4188 14
30674 6148 1295 71
30675 6148 486 96
30676 6148 5308 50
30677 6148 3379 6
30678 6149 2054 73
30679 6149 5317 76
30680 6149 9291 36
30681 6150 4302 5
30682 6150 5149 99
30683 6150 6031 22
30684 6150 8177 49
30685 6150 8269 8
30686 6150 8270 82
30687 6150 198 40
30688 6150 2387 18
30689 6151 6527 86
30690 6151 264 25
30691 6151 2638 90
30692 6151 5356 7
30693 6151 7378 72
30694 6152 5710 100
30695 6152 540 43
30696 6152 5400 50
30697 6153 5743 13
30698 6153 9889 15
30699 6153 3912 3
30700 6153 4361 75
30701 6154 5274 13
30702 6154 6914 17
30703 6154 6156 65
30704 6155 3894 82
30705 6155 3288 26
30706 6155 1900 85
30707 6155 2912 98
30708 6155 3340 27
30709 6155 1289 15
30710 6155 299 29
30711 6156 1252 4
30712 6156 1554 75
30713 6156 6709 2
30714 6156 9405 75
30715 6156 4304 21
30716 6157 3449 13
30717 6157 1058 95
30718 6157 4910 83
30719 6157 4876 92
30720 6157 1891 34
30721 6158 9442 56
30722 6158 6244 43
30723 6158 5855 13
30724 6158 6427 39
30725 6158 3662 21
30726 6159 192 50
30727 6159 3218 8
30728 6159 5632 94
30729 6160 7857 28
30730 6160 8073 50
30731 6160 3549 92
30732 6160 6201 20
30733 6160 699 51
30734 6161 5758 4
30735 6161 4918 22
30736 6161 4733 99
30737 6161 9562 63
30738 6161 9190 80
30739 6161 6967 70
30740 6161 382 48
30741 6162 8627 20
30742 6162 1901 73
30743 6162 9776 94
30744 6162 7048 49
30745 6162 918 100
30746 6162 6011 77
30747 6162 2328 75
30748 6163 158 86
30749 6163 1292 73
30750 6163 8513 65
30751 6163 1745 20
30752 6163 8317 67
30753 6163 1833 92
30754 6163 3517 37
30755 6163 6298 32
30756 6164 1990 3
30757 6164 137 67
30758 6164 3564 67
30759 6164 8646 37
30760 6164 1087 19
30761 6164 2865 35
30762 6164 1436 96
30763 6165 7894 57
30764 6165 853 88
30765 6165 6103 91
30766 6165 1916 59
30767 6165 9208 58
30768 6165 7047 24
30769 6165 3771 11
30770 6165 1708 19
30771 6166 64 67
30772 6166 615 31
30773 6166 347 69
30774 6167 8587 40
30775 6167 3940 79
30776 6167 5913 35
30777 6167 1942 21
30778 6167 6794 35
30779 6167 8202 56
30780 6167 7738 76
30781 6168 2813 77
30782 6168 965 89
30783 6168 1587 60
30784 6168 3015 38
30785 6168 7506 10
30786 6169 5221 39
30787 6169 7597 12
30788 6170 2946 43
30789 6170 7347 65
30790 6170 9804 66
30791 6170 7645 47
30792 6171 2590 11
30793 6171 5544 50
30794 6171 1242 31
30795 6171 1465 59
30796 6171 3232 63
30797 6171 6478 10
30798 6171 8289 98
30799 6171 295 43
30800 6171 3896 58
30801 6172 183 60
30802 6172 9725 17
30803 6172 8028 72
30804 6172 3304 38
30805 6172 2272 23
30806 6173 1563 82
30807 6173 4014 89
30808 6173 4504 63
30809 6173 1323 59
30810 6174 2967 83
30811 6174 6629 45
30812 6174 8015 45
30813 6174 3048 6
30814 6175 2647 33
30815 6175 5116 93
30816 6175 3426 66
30817 6175 6930 14
30818 6175 1536 9
30819 6176 3671 72
30820 6176 2236 71
30821 6176 3003 11
30822 6176 8169 27
30823 6176 198 99
30824 6177 4250 8
30825 6177 9970 52
30826 6177 6458 83
30827 6177 427 14
30828 6178 1916 32
30829 6178 8418 5
30830 6178 4003 83
30831 6178 3201 82
30832 6178 4001 72
30833 6178 7348 80
30834 6179 7649 7
30835 6179 5714 27
30836 6179 5750 94
30837 6179 3415 97
30838 6180 1779 38
30839 6180 5737 16
30840 6180 6399 42
30841 6180 8913 85
30842 6180 8152 94
30843 6180 9969 49
30844 6181 3614 34
30845 6181 8373 55
30846 6181 534 27
30847 6181 930 93
30848 6181 7166 29
30849 6182 41 42
30850 6182 971 36
30851 6182 313 76
30852 6182 5145 78
30853 6182 416 15
30854 6182 6130 50
30855 6183 3672 51
30856 6183 5274 30
30857 6183 4917 10
30858 6183 5350 93
30859 6183 8707 55
30860 6183 2401 80
30861 6183 3724 59
30862 6184 717 48
30863 6185 2559 95
30864 6185 82 92
30865 6185 1490 96
30866 6185 4893 37
30867 6185 3265 97
30868 6185 3208 1
30869 6186 3409 30
30870 6186 4899 10
30871 6186 7659 80
30872 6186 3919 70
30873 6186 3581 12
30874 6187 4634 52
30875 6187 682 58
30876 6187 8332 85
30877 6187 1821 54
30878 6188 705 50
30879 6188 6523 71
30880 6188 3831 34
30881 6189 4470 24
30882 6189 9301 87
30883 6189 1357 33
30884 6189 8316 99
30885 6189 549 10
30886 6189 9808 43
30887 6190 529 18
30888 6190 7758 69
30889 6190 3841 48
30890 6190 6277 91
30891 6190 2383 68
30892 6190 2529 35
30893 6190 8667 42
30894 6190 2125 42
30895 6191 8209 5
30896 6191 3790 43
30897 6191 3048 76
30898 6191 2209 29
30899 6192 9392 5
30900 6192 8569 19
30901 6192 9823 87
30902 6192 2017 98
30903 6192 4336 71
30904 6192 7531 30
30905 6192 5502 20
30906 6192 9057 96
30907 6192 1130 31
30908 6192 5504 15
30909 6192 7678 2
30910 6193 7793 38
30911 6193 6110 28
30912 6194 5360 60
30913 6194 1772 86
30914 6194 6675 93
30915 6195 3815 92
30916 6195 8583 95
30917 6195 8671 86
30918 6195 7562 54
30919 6195 5090 72
30920 6196 9466 92
30921 6196 3455 66
30922 6197 3437 86
30923 6197 5388 86
30924 6197 773 46
30925 6197 8022 74
30926 6197 7795 83
30927 6198 6342 84
30928 6198 2068 9
30929 6199 8679 33
30930 6199 6136 96
30931 6199 2468 71
30932 6199 4211 51
30933 6199 7547 81
30934 6199 754 92
30935 6200 5832 25
30936 6200 6613 35
30937 6200 4474 5
30938 6201 7740 2
30939 6201 4595 78
30940 6201 218 97
30941 6201 5675 33
30942 6201 986 47
30943 6202 3544 66
30944 6202 8579 74
30945 6202 4592 19
30946 6202 7712 46
30947 6202 863 54
30948 6202 6117 81
30949 6202 5456 19
30950 6202 453 76
30951 6202 6033 19
30952 6203 4297 26
30953 6204 7816 15
30954 6204 1657 94
30955 6205 3082 75
30956 6205 5877 69
30957 6205 248 31
30958 6205 1886 87
30959 6205 6058 2
30960 6205 2437 65
30961 6205 253 5
30962 6205 188 85
30963 6205 2756 86
30964 6206 4104 32
30965 6206 3206 99
30966 6206 6827 42
30967 6206 5216 53
30968 6206 774 32
30969 6206 5256 15
30970 6207 2070 26
30971 6207 778 77
30972 6207 7475 94
30973 6207 3111 57
30974 6207 4074 45
30975 6208 6319 57
30976 6208 5824 73
30977 6208 4571 87
30978 6208 966 61
30979 6208 9477 78
30980 6208 51 62
30981 6208 3697 80
30982 6208 4882 69
30983 6208 4116 29
30984 6209 4572 39
30985 6209 3110 89
30986 6209 3156 37
30987 6209 2073 81
30988 6210 5248 85
30989 6210 198 87
30990 6210 6560 68
30991 6210 76 85
30992 6211 404 54
30993 6211 7865 25
30994 6211 9536 43
30995 6211 5009 56
30996 6211 552 37
30997 6211 6712 9
30998 6212 9283 43
30999 6212 622 35
31000 6212 6417 71
31001 6212 8720 1
31002 6213 1715 40
31003 6213 2335 99
31004 6213 5865 28
31005 6213 8824 14
31006 6214 6151 3
31007 6214 1825 24
31008 6214 1107 92
31009 6214 2054 98
31010 6214 9894 42
31011 6215 5062 3
31012 6215 8089 27
31013 6215 3546 72
31014 6215 3117 58
31015 6215 7731 14
31016 6215 9840 58
31017 6215 1633 93
31018 6216 5773 87
31019 6216 143 79
31020 6216 8707 66
31021 6216 4050 77
31022 6216 2377 87
31023 6217 3433 38
31024 6217 4899 96
31025 6217 5344 45
31026 6217 5440 77
31027 6217 1587 71
31028 6218 8264 57
31029 6218 8755 61
31030 6218 8516 63
31031 6218 5111 90
31032 6219 6023 45
31033 6219 8871 18
31034 6219 9273 8
31035 6219 6985 23
31036 6219 6377 9
31037 6219 288 29
31038 6220 5648 79
31039 6220 6650 59
31040 6220 8761 42
31041 6221 8541 66
31042 6221 1244 98
31043 6221 6947 97
31044 6221 5081 8
31045 6222 1083 60
31046 6222 8492 73
31047 6222 4078 97
31048 6222 4087 13
31049 6222 5547 91
31050 6222 9493 5
31051 6223 4108 98
31052 6223 3567 100
31053 6223 9780 78
31054 6223 8054 49
31055 6223 2722 51
31056 6223 1718 72
31057 6224 1080 54
31058 6224 9800 1
31059 6224 4801 28
31060 6224 7515 40
31061 6224 3852 29
31062 6224 631 62
31063 6225 4133 54
31064 6225 2472 98
31065 6225 9992 58
31066 6225 6029 38
31067 6225 2771 39
31068 6225 4657 55
31069 6226 6328 98
31070 6226 3116 40
31071 6226 3675 36
31072 6226 8533 59
31073 6227 59 46
31074 6227 497 14
31075 6227 3968 56
31076 6227 4196 24
31077 6227 216 20
31078 6228 8004 46
31079 6228 8640 70
31080 6228 7163 81
31081 6228 8636 39
31082 6228 3507 89
31083 6229 6195 79
31084 6229 9816 66
31085 6229 2217 73
31086 6229 8588 27
31087 6229 8188 31
31088 6229 5052 19
31089 6230 4232 69
31090 6230 1786 15
31091 6230 6426 87
31092 6230 5763 15
31093 6230 239 52
31094 6231 7684 3
31095 6231 8834 34
31096 6231 7919 22
31097 6231 9679 42
31098 6231 6141 36
31099 6231 154 20
31100 6231 2468 48
31101 6231 9274 2
31102 6232 3319 13
31103 6232 4357 5
31104 6232 1146 79
31105 6232 7158 81
31106 6233 9223 53
31107 6233 4163 82
31108 6234 2329 36
31109 6234 407 54
31110 6234 2117 74
31111 6235 715 16
31112 6235 8801 88
31113 6235 4949 67
31114 6235 7871 43
31115 6235 6598 47
31116 6236 1595 85
31117 6236 962 50
31118 6236 7131 93
31119 6237 426 85
31120 6237 431 94
31121 6238 2611 22
31122 6238 9243 54
31123 6238 2909 97
31124 6238 34 79
31125 6238 4374 54
31126 6238 8507 81
31127 6238 5065 46
31128 6238 3567 45
31129 6239 3996 91
31130 6239 6150 7
31131 6239 3532 22
31132 6239 8455 88
31133 6239 1654 92
31134 6240 60 83
31135 6240 2134 56
31136 6240 8193 84
31137 6240 2324 81
31138 6240 1797 25
31139 6241 3752 16
31140 6241 6921 5
31141 6241 954 26
31142 6241 6551 58
31143 6241 2530 62
31144 6242 6338 80
31145 6242 1426 1
31146 6242 7273 31
31147 6242 5172 54
31148 6242 139 55
31149 6242 5998 45
31150 6242 8394 87
31151 6243 4382 24
31152 6243 1103 3
31153 6243 3356 58
31154 6243 522 43
31155 6243 5332 98
31156 6243 6726 83
31157 6244 1678 84
31158 6244 8450 2
31159 6244 17 93
31160 6245 5969 24
31161 6245 7218 11
31162 6245 2441 40
31163 6245 8853 1
31164 6246 6987 56
31165 6246 4613 93
31166 6246 449 17
31167 6246 8180 55
31168 6246 6394 64
31169 6246 1885 96
31170 6246 7028 24
31171 6247 355 56
31172 6247 4614 49
31173 6247 1165 61
31174 6247 280 100
31175 6247 3782 49
31176 6247 7760 38
31177 6248 3778 98
31178 6248 3509 53
31179 6248 119 37
31180 6248 7919 72
31181 6249 7382 12
31182 6249 5824 44
31183 6249 6637 70
31184 6249 5277 70
31185 6249 6178 51
31186 6250 4754 53
31187 6250 8457 3
31188 6250 5375 73
31189 6250 3017 67
31190 6251 324 86
31191 6251 6597 75
31192 6251 8891 42
31193 6251 2326 5
31194 6251 7016 53
31195 6252 2413 91
31196 6252 457 69
31197 6252 8379 49
31198 6252 7837 37
31199 6253 1061 54
31200 6253 5980 8
31201 6254 8597 75
31202 6254 1712 65
31203 6254 9941 62
31204 6254 2152 22
31205 6254 7086 10
31206 6255 9600 7
31207 6255 7309 58
31208 6255 4648 26
31209 6255 9344 66
31210 6255 6210 45
31211 6255 2532 92
31212 6256 634 58
31213 6256 43 53
31214 6257 3986 21
31215 6257 4314 25
31216 6257 98 56
31217 6258 7331 4
31218 6258 1825 11
31219 6259 3347 18
31220 6259 7228 70
31221 6259 8791 57
31222 6259 8415 62
31223 6259 1807 28
31224 6259 5431 79
31225 6261 9039 50
31226 6261 6140 73
31227 6261 1368 53
31228 6261 5275 89
31229 6261 8299 46
31230 6261 4502 61
31231 6262 6293 100
31232 6262 7861 90
31233 6263 8394 14
31234 6263 5575 4
31235 6263 3861 69
31236 6263 5057 39
31237 6264 7714 11
31238 6264 4457 35
31239 6264 7968 45
31240 6264 1508 37
31241 6264 4530 27
31242 6265 8629 68
31243 6265 5866 37
31244 6265 235 5
31245 6265 7596 89
31246 6265 8737 89
31247 6266 1348 40
31248 6266 4505 90
31249 6266 2482 14
31250 6266 9518 82
31251 6266 605 18
31252 6266 1260 5
31253 6267 2167 7
31254 6267 6531 4
31255 6267 4387 63
31256 6267 6579 34
31257 6267 2715 74
31258 6267 2071 81
31259 6268 5051 52
31260 6268 2160 1
31261 6268 8671 39
31262 6268 8766 35
31263 6268 2390 95
31264 6269 1908 47
31265 6269 1634 46
31266 6270 4519 60
31267 6270 5736 59
31268 6271 9197 88
31269 6271 2296 6
31270 6271 5613 45
31271 6271 9451 34
31272 6271 1068 75
31273 6271 7610 11
31274 6272 2188 41
31275 6272 532 91
31276 6272 3292 69
31277 6273 5799 14
31278 6273 6548 81
31279 6273 7173 48
31280 6273 8274 80
31281 6273 430 59
31282 6273 2665 80
31283 6273 9726 64
31284 6274 6094 54
31285 6274 6531 10
31286 6274 2290 53
31287 6274 8814 5
31288 6274 7370 15
31289 6274 3429 55
31290 6274 9297 26
31291 6274 8101 34
31292 6275 8815 18
31293 6275 5410 56
31294 6275 4193 22
31295 6275 2661 57
31296 6275 2429 19
31297 6276 1113 21
31298 6276 3829 45
31299 6276 7237 13
31300 6276 2350 83
31301 6276 539 87
31302 6276 4623 36
31303 6276 8888 50
31304 6276 6586 60
31305 6277 3245 95
31306 6277 2075 77
31307 6277 7393 15
31308 6277 9166 17
31309 6278 3831 23
31310 6278 3995 76
31311 6278 9064 48
31312 6278 4729 6
31313 6278 2581 59
31314 6278 4464 84
31315 6278 6944 94
31316 6279 7053 42
31317 6279 6962 29
31318 6279 4636 62
31319 6279 5283 60
31320 6279 3732 5
31321 6279 185 62
31322 6280 4835 13
31323 6281 7126 28
31324 6281 3576 61
31325 6281 7057 100
31326 6281 2654 87
31327 6281 3931 53
31328 6281 4568 48
31329 6281 1426 37
31330 6282 7447 67
31331 6282 1212 89
31332 6283 3359 94
31333 6284 9898 94
31334 6284 2441 81
31335 6284 6894 9
31336 6285 1544 15
31337 6285 3920 34
31338 6285 3077 93
31339 6285 3593 78
31340 6286 2979 73
31341 6286 5754 38
31342 6286 2192 52
31343 6286 2285 9
31344 6286 7066 79
31345 6286 1658 95
31346 6287 5508 66
31347 6287 4347 13
31348 6287 5452 93
31349 6287 5182 52
31350 6287 7752 90
31351 6287 9739 54
31352 6287 1282 28
31353 6288 6195 82
31354 6288 603 56
31355 6288 530 15
31356 6288 6472 80
31357 6289 8546 25
31358 6289 8399 24
31359 6289 1856 65
31360 6289 1408 63
31361 6289 3307 3
31362 6289 2786 37
31363 6290 50 9
31364 6290 8881 68
31365 6290 6817 2
31366 6291 2519 27
31367 6291 7656 53
31368 6291 30 50
31369 6291 4362 87
31370 6291 5388 49
31371 6292 524 28
31372 6292 1780 46
31373 6292 8998 10
31374 6292 9882 59
31375 6292 124 64
31376 6292 4664 6
31377 6292 1811 60
31378 6292 9639 44
31379 6293 1444 76
31380 6293 5510 58
31381 6294 1954 90
31382 6294 579 38
31383 6294 4826 9
31384 6294 4034 48
31385 6294 4786 10
31386 6295 6854 69
31387 6295 403 11
31388 6295 1839 47
31389 6295 3591 75
31390 6295 2915 34
31391 6295 7346 12
31392 6295 793 14
31393 6296 7392 90
31394 6296 5734 64
31395 6296 9342 28
31396 6296 2428 42
31397 6296 7254 20
31398 6297 6021 10
31399 6297 7164 76
31400 6297 2038 2
31401 6297 6209 58
31402 6297 6714 25
31403 6297 5180 86
31404 6297 7982 91
31405 6297 9252 72
31406 6298 7205 4
31407 6298 7264 68
31408 6298 8614 100
31409 6299 7752 51
31410 6299 7224 84
31411 6299 7033 1
31412 6300 420 46
31413 6300 6316 61
31414 6300 9965 17
31415 6300 5181 24
31416 6301 3700 60
31417 6301 2977 8
31418 6302 3171 89
31419 6302 6355 50
31420 6303 748 69
31421 6303 8206 49
31422 6303 959 36
31423 6303 3321 61
31424 6303 2198 8
31425 6303 6841 96
31426 6303 4107 35
31427 6304 9617 92
31428 6304 7933 65
31429 6304 3512 54
31430 6304 3081 52
31431 6304 6113 5
31432 6304 2733 7
31433 6304 3764 36
31434 6304 5638 34
31435 6305 7699 90
31436 6305 9414 1
31437 6305 4403 57
31438 6306 8070 7
31439 6306 3717 10
31440 6306 627 59
31441 6306 5638 60
31442 6306 1900 56
31443 6306 2321 59
31444 6306 892 7
31445 6307 8782 67
31446 6307 4183 56
31447 6307 4056 86
31448 6307 9685 14
31449 6307 980 82
31450 6308 3170 36
31451 6308 7474 21
31452 6308 9477 63
31453 6308 1980 41
31454 6308 9250 88
31455 6308 4826 9
31456 6308 6495 31
31457 6309 4581 78
31458 6309 990 96
31459 6309 4687 48
31460 6309 1399 96
31461 6309 1697 98
31462 6309 5907 6
31463 6309 5406 74
31464 6309 159 86
31465 6309 204 10
31466 6310 8499 12
31467 6310 7096 51
31468 6311 4198 73
31469 6311 8277 91
31470 6311 6539 57
31471 6311 7786 89
31472 6311 6265 38
31473 6311 1143 91
31474 6311 6841 100
31475 6311 3323 19
31476 6312 9083 62
31477 6312 2074 2
31478 6312 4962 35
31479 6312 6572 39
31480 6312 1501 38
31481 6312 2306 14
31482 6312 4836 96
31483 6312 3161 15
31484 6312 9714 82
31485 6313 5860 50
31486 6313 8587 100
31487 6313 624 53
31488 6313 31 95
31489 6313 9402 93
31490 6314 1698 41
31491 6314 8479 6
31492 6314 1003 31
31493 6314 7847 82
31494 6314 1577 75
31495 6314 8967 28
31496 6315 5752 41
31497 6315 2589 18
31498 6316 5341 77
31499 6316 3847 42
31500 6316 7118 78
31501 6317 9359 22
31502 6317 7664 100
31503 6317 5545 53
31504 6317 1169 8
31505 6317 3908 90
31506 6317 4795 21
31507 6318 7463 79
31508 6318 3121 48
31509 6318 3945 20
31510 6318 6329 10
31511 6318 4565 91
31512 6318 5412 54
31513 6318 1527 83
31514 6318 6406 34
31515 6318 5652 28
31516 6318 9041 94
31517 6319 639 4
31518 6319 6731 22
31519 6319 565 38
31520 6319 4563 81
31521 6319 5153 11
31522 6320 916 69
31523 6320 8372 12
31524 6320 1728 92
31525 6321 1267 44
31526 6321 75 86
31527 6321 7563 79
31528 6321 8363 63
31529 6321 3916 27
31530 6322 1179 39
31531 6322 5619 76
31532 6322 2318 11
31533 6322 3625 98
31534 6322 5111 35
31535 6323 1414 7
31536 6323 267 50
31537 6323 2365 98
31538 6324 4757 75
31539 6324 8514 26
31540 6324 1070 74
31541 6324 4151 85
31542 6325 4957 70
31543 6325 9109 80
31544 6326 817 87
31545 6326 3991 99
31546 6326 3597 22
31547 6326 1287 21
31548 6326 9568 58
31549 6327 1463 94
31550 6327 9716 80
31551 6327 7996 100
31552 6327 4031 88
31553 6327 5117 78
31554 6327 9898 66
31555 6328 105 55
31556 6328 4325 21
31557 6328 7102 40
31558 6328 7797 5
31559 6328 2405 79
31560 6329 1003 88
31561 6329 3986 75
31562 6329 6771 14
31563 6330 203 26
31564 6330 3911 77
31565 6330 6697 53
31566 6330 3232 75
31567 6330 8745 47
31568 6331 8657 8
31569 6331 9149 37
31570 6331 3898 63
31571 6332 9524 42
31572 6332 9610 12
31573 6333 873 77
31574 6333 5955 1
31575 6333 3900 86
31576 6333 7825 19
31577 6333 2484 86
31578 6333 1561 22
31579 6333 2198 54
31580 6334 5297 84
31581 6335 3496 9
31582 6335 2519 99
31583 6335 4895 35
31584 6335 5769 68
31585 6335 1956 96
31586 6335 9931 62
31587 6335 3354 80
31588 6335 6920 14
31589 6335 2836 87
31590 6336 3455 39
31591 6336 6972 62
31592 6337 5984 47
31593 6337 1477 59
31594 6337 8493 48
31595 6337 7769 81
31596 6337 5595 95
31597 6337 2356 73
31598 6337 5953 4
31599 6338 6915 13
31600 6338 9871 58
31601 6338 4169 100
31602 6339 7881 56
31603 6339 807 2
31604 6339 332 83
31605 6339 2178 88
31606 6340 8519 59
31607 6340 5670 71
31608 6340 915 31
31609 6340 1735 17
31610 6340 6894 61
31611 6340 943 9
31612 6340 2340 66
31613 6340 4493 97
31614 6341 554 51
31615 6341 5000 49
31616 6341 1239 35
31617 6341 2067 94
31618 6341 7113 44
31619 6341 1895 37
31620 6342 1754 13
31621 6342 1652 31
31622 6343 9943 1
31623 6343 875 63
31624 6343 668 29
31625 6343 5250 80
31626 6343 8654 76
31627 6344 3910 45
31628 6344 3229 15
31629 6344 6746 47
31630 6344 538 89
31631 6344 1161 33
31632 6344 8196 81
31633 6344 9302 65
31634 6345 2951 66
31635 6345 4724 95
31636 6345 1447 52
31637 6345 3501 1
31638 6345 5943 80
31639 6346 2882 67
31640 6346 9099 29
31641 6346 3090 63
31642 6346 5047 4
31643 6348 2067 8
31644 6348 3856 81
31645 6348 9546 83
31646 6349 2782 42
31647 6349 9300 51
31648 6349 1399 12
31649 6349 5218 51
31650 6349 6960 73
31651 6349 3748 50
31652 6349 8258 89
31653 6349 6003 34
31654 6350 5489 90
31655 6350 6264 64
31656 6350 1307 28
31657 6350 8502 20
31658 6351 1228 87
31659 6352 7861 72
31660 6352 9232 74
31661 6352 5607 51
31662 6352 5620 62
31663 6352 1906 31
31664 6353 5413 31
31665 6353 7480 60
31666 6353 838 91
31667 6353 4955 5
31668 6353 4806 68
31669 6353 3211 64
31670 6353 9639 27
31671 6354 4376 68
31672 6354 7882 68
31673 6354 6030 80
31674 6354 7403 8
31675 6355 6823 98
31676 6355 8398 86
31677 6355 4669 18
31678 6355 7792 55
31679 6356 7099 70
31680 6356 5131 17
31681 6356 2531 64
31682 6356 2335 82
31683 6357 9105 13
31684 6357 5383 65
31685 6357 7465 100
31686 6357 9800 99
31687 6358 8554 9
31688 6358 9271 69
31689 6358 1563 57
31690 6358 9265 79
31691 6358 1015 30
31692 6359 5090 45
31693 6359 6989 37
31694 6359 7926 68
31695 6359 7820 65
31696 6359 2869 53
31697 6360 4870 69
31698 6360 2494 55
31699 6360 2984 80
31700 6360 2969 67
31701 6360 361 5
31702 6360 6246 85
31703 6361 4706 85
31704 6361 6811 53
31705 6361 2837 94
31706 6361 7955 89
31707 6361 6378 14
31708 6361 7280 41
31709 6362 516 92
31710 6362 121 42
31711 6362 6277 24
31712 6363 5239 32
31713 6363 9023 75
31714 6363 4285 6
31715 6363 3828 1
31716 6363 3637 89
31717 6364 1296 30
31718 6364 7283 48
31719 6364 367 75
31720 6364 5959 18
31721 6364 5787 67
31722 6365 84 19
31723 6366 6659 58
31724 6366 3469 28
31725 6366 488 27
31726 6366 3500 77
31727 6366 8958 89
31728 6366 4626 58
31729 6367 9568 48
31730 6367 6137 96
31731 6367 7885 34
31732 6367 4460 23
31733 6367 2809 44
31734 6368 2928 17
31735 6368 6980 44
31736 6368 6147 31
31737 6368 5583 94
31738 6368 3955 11
31739 6368 4956 16
31740 6368 1879 41
31741 6368 5312 14
31742 6368 1310 16
31743 6368 457 65
31744 6369 2170 56
31745 6369 3738 55
31746 6369 655 71
31747 6369 6453 88
31748 6369 2103 73
31749 6370 6572 60
31750 6370 8893 63
31751 6370 8028 65
31752 6370 1593 25
31753 6370 253 19
31754 6370 6239 32
31755 6371 4007 47
31756 6371 6505 73
31757 6371 8146 61
31758 6371 491 52
31759 6372 6812 20
31760 6372 2079 88
31761 6372 3649 78
31762 6373 471 95
31763 6373 5985 76
31764 6373 2729 97
31765 6374 8198 47
31766 6374 1 7
31767 6374 4141 84
31768 6374 7497 71
31769 6374 5006 82
31770 6374 6816 79
31771 6375 8643 28
31772 6375 7552 80
31773 6375 452 46
31774 6375 7015 42
31775 6376 4620 9
31776 6376 935 8
31777 6376 2631 10
31778 6377 545 79
31779 6377 5519 95
31780 6377 866 57
31781 6377 6144 11
31782 6378 7707 80
31783 6378 8878 31
31784 6378 5946 95
31785 6379 4188 41
31786 6379 5345 31
31787 6379 3469 71
31788 6379 2964 68
31789 6380 9208 90
31790 6380 1908 98
31791 6380 4943 96
31792 6381 5228 87
31793 6381 3069 91
31794 6382 6824 62
31795 6382 4315 84
31796 6382 7895 81
31797 6382 6883 34
31798 6383 3331 84
31799 6384 4484 71
31800 6384 6274 85
31801 6384 6231 40
31802 6384 1204 45
31803 6385 4684 93
31804 6385 2061 66
31805 6386 312 95
31806 6386 6536 61
31807 6386 2878 71
31808 6386 7062 53
31809 6386 9639 57
31810 6387 7748 48
31811 6387 3594 63
31812 6387 8335 60
31813 6387 8919 53
31814 6388 2102 27
31815 6388 4406 6
31816 6388 2121 51
31817 6389 1753 16
31818 6389 5711 60
31819 6389 5348 36
31820 6389 5149 71
31821 6390 326 91
31822 6390 8265 96
31823 6390 2586 71
31824 6390 6733 57
31825 6390 684 99
31826 6390 9661 56
31827 6391 9662 97
31828 6391 4984 97
31829 6392 7513 49
31830 6392 3931 10
31831 6392 5494 14
31832 6393 8571 35
31833 6393 5811 42
31834 6393 3408 83
31835 6393 7552 90
31836 6393 6881 100
31837 6394 5699 14
31838 6394 2469 71
31839 6394 2117 61
31840 6394 4696 61
31841 6394 5979 85
31842 6395 7488 84
31843 6395 6531 97
31844 6395 3372 62
31845 6395 3014 71
31846 6395 3656 32
31847 6395 3662 57
31848 6396 27 42
31849 6396 8037 79
31850 6396 2992 25
31851 6396 7968 53
31852 6397 916 70
31853 6397 2451 12
31854 6397 5418 56
31855 6397 6295 56
31856 6397 546 66
31857 6397 6343 71
31858 6397 9226 68
31859 6398 9577 83
31860 6398 4950 25
31861 6398 2785 27
31862 6398 6650 62
31863 6398 3173 39
31864 6398 8556 2
31865 6398 7398 77
31866 6399 4417 32
31867 6399 1512 25
31868 6400 8400 68
31869 6400 1297 16
31870 6400 3416 89
31871 6400 6287 77
31872 6400 734 82
31873 6400 8718 15
31874 6401 3390 51
31875 6401 9192 52
31876 6401 3285 98
31877 6401 8799 71
31878 6401 1229 28
31879 6401 7648 21
31880 6402 1171 3
31881 6402 3604 70
31882 6402 4831 47
31883 6402 8565 28
31884 6402 5644 37
31885 6403 1585 42
31886 6403 7655 72
31887 6403 5963 49
31888 6404 1386 96
31889 6404 2515 7
31890 6404 5738 91
31891 6404 6759 18
31892 6404 4750 77
31893 6404 456 43
31894 6404 8969 18
31895 6404 5329 29
31896 6404 6872 68
31897 6404 7448 21
31898 6404 2223 29
31899 6405 1203 22
31900 6406 7379 94
31901 6406 4182 36
31902 6406 1788 77
31903 6406 5450 72
31904 6406 4000 68
31905 6407 9997 64
31906 6407 2502 8
31907 6407 2014 47
31908 6407 6588 7
31909 6407 9518 84
31910 6407 1644 57
31911 6408 5194 91
31912 6408 6927 95
31913 6408 1033 39
31914 6408 2901 65
31915 6408 4062 44
31916 6408 6839 80
31917 6408 8993 17
31918 6409 4634 23
31919 6409 3656 64
31920 6409 7999 75
31921 6410 9257 23
31922 6410 8313 5
31923 6410 8512 57
31924 6410 6440 81
31925 6410 1429 44
31926 6411 4470 42
31927 6411 7889 93
31928 6411 2297 36
31929 6411 7127 22
31930 6411 7478 96
31931 6412 115 39
31932 6413 1559 1
31933 6413 9756 15
31934 6414 5957 93
31935 6414 2299 35
31936 6414 2583 14
31937 6414 1343 6
31938 6414 7640 19
31939 6414 2720 59
31940 6415 7762 26
31941 6415 8246 19
31942 6415 6030 7
31943 6415 4352 99
31944 6416 6921 14
31945 6416 9664 72
31946 6416 1978 51
31947 6416 7423 56
31948 6416 1335 16
31949 6416 187 6
31950 6417 6423 51
31951 6417 5353 42
31952 6417 903 85
31953 6417 637 48
31954 6417 3632 39
31955 6417 133 35
31956 6418 8134 29
31957 6418 1162 9
31958 6419 8029 54
31959 6419 2667 29
31960 6419 3520 55
31961 6420 4503 96
31962 6420 2616 37
31963 6421 2293 64
31964 6421 6215 46
31965 6421 7619 79
31966 6421 354 26
31967 6421 8646 6
31968 6421 607 41
31969 6421 4104 4
31970 6422 4338 23
31971 6422 8730 59
31972 6423 8128 100
31973 6423 1809 81
31974 6423 8223 87
31975 6423 1017 92
31976 6423 331 27
31977 6424 5244 90
31978 6424 7672 26
31979 6425 7760 67
31980 6425 7665 52
31981 6425 9465 84
31982 6426 2467 50
31983 6426 5107 35
31984 6426 1376 76
31985 6426 8483 60
31986 6426 730 75
31987 6427 9972 96
31988 6427 564 95
31989 6427 2770 86
31990 6428 4881 92
31991 6428 2657 58
31992 6428 5788 98
31993 6428 5267 50
31994 6428 6608 60
31995 6428 7341 75
31996 6429 8214 89
31997 6429 2303 93
31998 6429 6298 11
31999 6429 372 65
32000 6430 5849 51
32001 6430 8069 74
32002 6430 6936 13
32003 6430 9792 70
32004 6430 6085 4
32005 6431 2303 39
32006 6431 4088 97
32007 6431 2410 1
32008 6432 2629 37
32009 6432 3100 41
32010 6432 5170 7
32011 6432 8962 12
32012 6432 44 5
32013 6433 3114 43
32014 6433 5183 7
32015 6434 8083 13
32016 6434 2038 36
32017 6434 2089 96
32018 6434 4194 40
32019 6434 3860 87
32020 6434 1065 26
32021 6434 6863 15
32022 6434 6321 1
32023 6434 7885 48
32024 6434 3596 44
32025 6435 5832 2
32026 6436 6203 24
32027 6436 2355 36
32028 6436 5137 38
32029 6436 9901 17
32030 6436 2974 2
32031 6436 7530 63
32032 6436 8072 97
32033 6437 3090 40
32034 6437 6161 42
32035 6437 8 14
32036 6437 3873 29
32037 6437 7737 2
32038 6438 3652 67
32039 6438 3554 31
32040 6438 2379 70
32041 6438 7953 68
32042 6438 5716 56
32043 6438 381 63
32044 6438 5937 50
32045 6438 8573 98
32046 6438 2992 92
32047 6438 492 17
32048 6439 3973 11
32049 6439 3949 81
32050 6439 1896 78
32051 6439 6742 43
32052 6439 2743 50
32053 6440 8736 23
32054 6440 3720 29
32055 6440 3871 42
32056 6440 3929 96
32057 6440 6084 29
32058 6440 4501 89
32059 6440 2298 82
32060 6441 6282 21
32061 6441 8056 88
32062 6441 5019 86
32063 6441 3142 18
32064 6441 8715 21
32065 6441 8484 26
32066 6441 5746 7
32067 6442 1383 63
32068 6442 6863 16
32069 6443 253 90
32070 6443 5547 98
32071 6443 4244 64
32072 6443 8014 13
32073 6443 8744 45
32074 6444 8340 17
32075 6444 4104 71
32076 6444 5525 63
32077 6444 7282 21
32078 6444 8503 67
32079 6445 8951 86
32080 6445 7976 74
32081 6445 7509 73
32082 6446 1146 29
32083 6446 6800 31
32084 6446 8818 14
32085 6446 3839 22
32086 6446 2681 82
32087 6447 9738 29
32088 6447 7127 69
32089 6447 9954 65
32090 6447 3144 80
32091 6447 4221 47
32092 6447 3581 51
32093 6448 4273 46
32094 6448 8130 75
32095 6448 2268 10
32096 6448 5460 87
32097 6448 4002 53
32098 6449 4661 73
32099 6449 6196 97
32100 6449 3950 96
32101 6449 2436 9
32102 6449 4058 70
32103 6450 5995 16
32104 6450 3810 100
32105 6450 6635 44
32106 6451 9764 66
32107 6451 5713 96
32108 6452 37 77
32109 6452 5679 17
32110 6452 6736 96
32111 6452 8351 6
32112 6452 3874 93
32113 6453 7044 49
32114 6453 4642 33
32115 6453 802 77
32116 6453 5946 55
32117 6453 4303 21
32118 6453 8050 79
32119 6453 952 86
32120 6454 3589 100
32121 6454 4146 43
32122 6455 1711 10
32123 6455 4299 93
32124 6455 6993 76
32125 6455 9464 77
32126 6455 38 12
32127 6456 5896 46
32128 6456 35 35
32129 6456 4320 51
32130 6456 7897 70
32131 6456 6326 97
32132 6456 2484 87
32133 6456 7968 98
32134 6457 9709 32
32135 6457 5616 89
32136 6457 2294 52
32137 6457 7386 61
32138 6457 593 10
32139 6457 9186 31
32140 6457 1261 42
32141 6458 5218 49
32142 6458 8198 10
32143 6458 6146 18
32144 6458 1448 74
32145 6458 2234 86
32146 6459 8028 23
32147 6459 3846 99
32148 6460 9253 77
32149 6460 1431 36
32150 6460 6239 75
32151 6461 4036 58
32152 6461 3287 29
32153 6461 2254 79
32154 6461 9559 15
32155 6462 3531 98
32156 6462 508 41
32157 6462 4619 23
32158 6463 9025 54
32159 6463 3573 5
32160 6463 3374 29
32161 6463 7666 39
32162 6463 2470 27
32163 6463 4498 76
32164 6464 8754 31
32165 6464 9795 72
32166 6464 7474 73
32167 6464 2260 58
32168 6464 7046 30
32169 6465 4988 37
32170 6465 7918 71
32171 6465 499 7
32172 6465 7083 14
32173 6465 1129 23
32174 6465 9895 58
32175 6465 5183 9
32176 6466 3916 78
32177 6466 7687 8
32178 6466 9587 68
32179 6466 2658 67
32180 6466 8763 94
32181 6466 9274 20
32182 6467 8352 24
32183 6467 6074 84
32184 6467 6211 17
32185 6467 5600 94
32186 6467 7772 50
32187 6468 5815 9
32188 6468 4275 64
32189 6468 4075 72
32190 6468 7476 36
32191 6468 3880 14
32192 6468 1506 39
32193 6468 7639 39
32194 6469 3055 7
32195 6469 3720 8
32196 6469 7567 41
32197 6470 9185 53
32198 6470 3666 18
32199 6470 3462 33
32200 6470 808 24
32201 6470 3544 68
32202 6470 3925 34
32203 6471 694 69
32204 6471 3221 27
32205 6471 7402 91
32206 6471 4317 58
32207 6471 7786 9
32208 6471 5772 62
32209 6471 1239 88
32210 6471 3721 47
32211 6472 8371 45
32212 6472 8087 50
32213 6472 7011 90
32214 6473 7053 40
32215 6473 7422 79
32216 6473 5370 66
32217 6473 3748 26
32218 6473 1603 35
32219 6473 9675 56
32220 6473 8769 75
32221 6474 5365 37
32222 6474 8639 63
32223 6474 428 41
32224 6474 7036 53
32225 6475 1041 44
32226 6475 2728 41
32227 6475 8574 49
32228 6475 3560 56
32229 6476 8415 25
32230 6476 853 37
32231 6476 8163 91
32232 6476 4935 50
32233 6476 2220 10
32234 6476 9772 33
32235 6477 1974 33
32236 6477 5632 59
32237 6477 6456 49
32238 6477 64 22
32239 6478 3964 90
32240 6478 5198 72
32241 6478 3354 79
32242 6479 8961 61
32243 6480 8946 58
32244 6480 7950 29
32245 6480 258 23
32246 6480 3660 38
32247 6480 717 92
32248 6480 9383 78
32249 6481 8845 85
32250 6481 4306 38
32251 6481 1798 93
32252 6481 3142 47
32253 6481 1008 3
32254 6482 8178 11
32255 6482 8023 9
32256 6482 9629 14
32257 6482 8496 77
32258 6482 8392 16
32259 6482 9566 83
32260 6482 2397 18
32261 6483 8682 29
32262 6484 1043 76
32263 6484 3148 84
32264 6484 9444 5
32265 6484 6210 73
32266 6485 8055 76
32267 6485 6068 31
32268 6485 4071 87
32269 6485 8857 27
32270 6485 1237 82
32271 6485 6875 77
32272 6485 728 31
32273 6485 3079 82
32274 6486 8374 12
32275 6486 9791 46
32276 6487 9627 13
32277 6487 8171 93
32278 6487 9413 25
32279 6487 545 24
32280 6487 3178 94
32281 6487 2633 31
32282 6487 6696 74
32283 6488 9338 83
32284 6488 80 77
32285 6488 1544 12
32286 6488 2787 27
32287 6488 8921 63
32288 6488 7427 37
32289 6489 8851 51
32290 6489 6737 98
32291 6489 9830 15
32292 6489 7596 40
32293 6489 7350 12
32294 6489 7970 68
32295 6490 4708 65
32296 6490 4514 84
32297 6490 798 21
32298 6490 1482 55
32299 6490 3706 10
32300 6490 2654 18
32301 6491 8216 58
32302 6491 2241 38
32303 6491 4840 59
32304 6491 8626 86
32305 6491 7943 55
32306 6491 3765 9
32307 6492 7810 51
32308 6492 2011 87
32309 6492 2297 30
32310 6492 7147 63
32311 6492 2735 65
32312 6492 2066 6
32313 6493 5969 19
32314 6493 3498 64
32315 6493 1961 90
32316 6493 3662 35
32317 6493 5509 97
32318 6494 8741 16
32319 6494 8039 39
32320 6494 7586 29
32321 6494 1063 46
32322 6495 1420 77
32323 6495 3033 87
32324 6495 5289 54
32325 6495 9510 7
32326 6495 3354 77
32327 6496 7292 75
32328 6496 8302 43
32329 6496 833 81
32330 6496 2804 46
32331 6496 2084 96
32332 6497 6419 30
32333 6497 1306 21
32334 6497 9546 77
32335 6497 1542 24
32336 6498 8023 72
32337 6498 5896 15
32338 6498 5972 95
32339 6498 8271 23
32340 6498 6144 6
32341 6498 6820 15
32342 6499 9654 24
32343 6499 6318 68
32344 6499 9380 97
32345 6499 1192 59
32346 6499 6484 38
32347 6499 3861 34
32348 6500 5839 29
32349 6500 9826 89
32350 6500 5189 38
32351 6500 1541 10
32352 6500 6410 85
32353 6501 7628 58
32354 6501 9581 57
32355 6501 1802 18
32356 6502 2875 18
32357 6502 1692 44
32358 6502 9723 22
32359 6502 1807 87
32360 6502 6464 14
32361 6502 8959 3
32362 6503 547 66
32363 6503 5979 72
32364 6503 7772 22
32365 6503 1506 98
32366 6504 8452 36
32367 6504 2221 96
32368 6504 6667 23
32369 6504 1057 70
32370 6504 2669 15
32371 6504 7864 19
32372 6505 1335 26
32373 6505 2934 97
32374 6505 5632 86
32375 6505 1556 20
32376 6505 3067 43
32377 6506 4187 57
32378 6506 6353 92
32379 6506 3514 37
32380 6506 3101 66
32381 6506 1570 55
32382 6507 1263 55
32383 6507 2349 5
32384 6507 2441 36
32385 6507 6428 98
32386 6507 5885 38
32387 6507 7388 22
32388 6508 2640 85
32389 6508 4674 79
32390 6508 8294 76
32391 6509 8395 47
32392 6509 1728 96
32393 6509 990 28
32394 6509 1079 95
32395 6510 1358 90
32396 6510 8259 18
32397 6510 4139 42
32398 6510 7614 44
32399 6510 6757 4
32400 6510 5077 71
32401 6510 5168 1
32402 6510 4633 28
32403 6511 9121 72
32404 6511 4577 36
32405 6511 8537 89
32406 6512 3292 89
32407 6512 2737 40
32408 6512 1758 76
32409 6512 9074 40
32410 6512 727 75
32411 6512 402 84
32412 6512 9192 84
32413 6512 5801 100
32414 6512 4308 8
32415 6512 6363 94
32416 6513 1210 62
32417 6513 4335 99
32418 6513 2343 82
32419 6514 1072 96
32420 6514 2846 82
32421 6514 6897 4
32422 6514 7173 1
32423 6514 5468 4
32424 6514 7608 34
32425 6514 9751 14
32426 6515 6557 97
32427 6515 6945 20
32428 6515 3810 12
32429 6515 5965 35
32430 6515 1105 41
32431 6516 549 74
32432 6516 6205 80
32433 6516 2571 92
32434 6516 1341 54
32435 6516 4059 65
32436 6516 7197 66
32437 6516 6429 43
32438 6516 2291 25
32439 6516 6306 82
32440 6516 1597 22
32441 6517 5176 74
32442 6517 2282 33
32443 6517 953 29
32444 6518 7045 51
32445 6518 8382 20
32446 6518 6804 83
32447 6518 4350 69
32448 6518 3809 56
32449 6518 9372 28
32450 6518 3520 84
32451 6518 4733 98
32452 6518 7176 15
32453 6518 538 31
32454 6519 4278 43
32455 6519 742 99
32456 6519 3128 87
32457 6519 8113 92
32458 6520 5626 66
32459 6520 1889 94
32460 6520 1822 3
32461 6520 3293 98
32462 6520 1832 35
32463 6520 9791 88
32464 6521 3787 27
32465 6521 9010 84
32466 6521 1528 85
32467 6521 7179 6
32468 6521 1726 15
32469 6521 2669 73
32470 6521 8250 94
32471 6521 2354 1
32472 6521 8000 62
32473 6521 2060 15
32474 6521 3461 5
32475 6522 1635 64
32476 6522 5830 78
32477 6522 223 74
32478 6522 1307 93
32479 6523 7912 9
32480 6523 7893 92
32481 6524 3876 85
32482 6524 7282 30
32483 6524 9220 88
32484 6524 351 84
32485 6524 2897 56
32486 6524 1268 36
32487 6524 8094 13
32488 6524 7537 46
32489 6526 5368 56
32490 6526 7686 43
32491 6526 5457 3
32492 6527 578 7
32493 6528 2312 53
32494 6528 549 36
32495 6528 7771 94
32496 6528 5149 58
32497 6528 7729 51
32498 6529 3481 45
32499 6529 1558 64
32500 6529 6387 13
32501 6529 1729 57
32502 6529 4113 24
32503 6529 5309 66
32504 6529 1345 85
32505 6529 3810 27
32506 6529 4902 90
32507 6529 1159 85
32508 6529 7827 84
32509 6529 8923 70
32510 6530 7823 86
32511 6530 3805 72
32512 6530 1344 64
32513 6531 5655 62
32514 6531 6523 13
32515 6531 4782 45
32516 6531 7760 19
32517 6531 8430 14
32518 6531 1737 20
32519 6532 1736 70
32520 6532 5679 95
32521 6532 5986 29
32522 6532 476 17
32523 6532 6021 86
32524 6533 1366 97
32525 6533 2689 59
32526 6533 3705 13
32527 6533 9554 84
32528 6533 6781 20
32529 6533 7592 53
32530 6534 5164 36
32531 6534 4038 86
32532 6534 9308 49
32533 6534 8491 83
32534 6534 611 4
32535 6535 4494 2
32536 6535 6419 13
32537 6535 368 17
32538 6535 6836 53
32539 6535 7321 67
32540 6535 2533 56
32541 6535 8409 83
32542 6535 4400 92
32543 6535 5331 50
32544 6536 9703 3
32545 6536 362 70
32546 6536 3025 38
32547 6536 1415 24
32548 6536 3714 62
32549 6537 4508 27
32550 6537 4987 64
32551 6537 8322 13
32552 6537 3207 71
32553 6538 7912 17
32554 6538 3638 48
32555 6538 3557 22
32556 6539 6135 58
32557 6539 3355 87
32558 6539 7796 62
32559 6539 6014 75
32560 6539 3395 74
32561 6539 4944 26
32562 6540 3982 15
32563 6540 7264 80
32564 6540 2071 94
32565 6540 7631 20
32566 6540 3038 25
32567 6540 8255 64
32568 6540 2096 37
32569 6541 4138 35
32570 6541 5543 2
32571 6541 4242 42
32572 6541 822 87
32573 6541 3174 89
32574 6541 6608 20
32575 6541 6056 12
32576 6541 3557 41
32577 6541 8333 74
32578 6542 172 49
32579 6542 8222 82
32580 6542 7286 93
32581 6543 5620 17
32582 6543 6429 41
32583 6543 8599 18
32584 6543 7183 61
32585 6544 7117 13
32586 6544 9006 73
32587 6544 7195 48
32588 6544 7496 22
32589 6544 3581 64
32590 6544 3564 16
32591 6545 91 97
32592 6545 6167 45
32593 6545 2126 68
32594 6546 6860 87
32595 6546 2733 7
32596 6546 8541 16
32597 6546 3547 60
32598 6546 3871 3
32599 6547 1631 66
32600 6547 6470 49
32601 6547 231 84
32602 6548 8837 69
32603 6548 4515 77
32604 6548 1203 31
32605 6548 4767 84
32606 6548 3094 26
32607 6548 9374 5
32608 6549 3870 47
32609 6549 4124 29
32610 6550 605 59
32611 6550 6225 4
32612 6550 4116 7
32613 6551 9550 76
32614 6551 4915 23
32615 6551 5296 34
32616 6551 6521 62
32617 6551 9651 44
32618 6552 7413 57
32619 6552 9896 71
32620 6552 146 84
32621 6552 4046 10
32622 6552 7734 64
32623 6552 4470 85
32624 6552 5212 34
32625 6553 1724 28
32626 6553 5891 39
32627 6553 7043 40
32628 6553 1898 31
32629 6553 7989 85
32630 6553 1612 69
32631 6553 3470 34
32632 6553 4980 6
32633 6554 704 5
32634 6554 7907 30
32635 6554 7681 38
32636 6554 8897 54
32637 6555 8032 24
32638 6555 9216 3
32639 6555 4267 61
32640 6555 1772 28
32641 6556 2405 60
32642 6556 8088 37
32643 6556 2387 97
32644 6556 2651 61
32645 6556 7924 60
32646 6556 6494 73
32647 6556 753 28
32648 6558 4467 6
32649 6559 4265 1
32650 6559 4507 52
32651 6559 7512 70
32652 6559 7794 41
32653 6559 5568 86
32654 6560 9602 84
32655 6560 2689 43
32656 6561 3534 34
32657 6561 3233 3
32658 6561 8744 37
32659 6561 1672 85
32660 6562 7291 58
32661 6562 924 1
32662 6563 8567 80
32663 6563 3513 3
32664 6563 8792 90
32665 6563 9015 47
32666 6563 2671 63
32667 6564 1501 4
32668 6564 7707 29
32669 6564 2004 58
32670 6565 3914 8
32671 6565 8064 4
32672 6565 6932 60
32673 6565 3784 86
32674 6566 5356 90
32675 6566 8237 60
32676 6566 4558 53
32677 6566 4535 23
32678 6567 9821 38
32679 6567 3258 48
32680 6567 7421 94
32681 6567 9698 20
32682 6567 3965 6
32683 6567 8247 38
32684 6567 9669 71
32685 6567 9015 8
32686 6568 7264 4
32687 6568 2641 48
32688 6568 8501 63
32689 6568 3118 94
32690 6569 7604 26
32691 6569 9637 99
32692 6569 7702 40
32693 6570 7413 96
32694 6570 5159 64
32695 6570 8839 54
32696 6570 9433 33
32697 6570 7702 38
32698 6570 7493 75
32699 6570 4263 88
32700 6571 5609 97
32701 6571 1174 56
32702 6571 9693 64
32703 6571 7145 86
32704 6571 1432 69
32705 6571 4585 19
32706 6572 1350 47
32707 6572 9761 27
32708 6572 9904 7
32709 6572 9663 84
32710 6572 837 81
32711 6572 2904 65
32712 6572 1105 92
32713 6573 7719 62
32714 6574 2650 64
32715 6574 550 33
32716 6574 7967 72
32717 6574 1590 89
32718 6574 2051 84
32719 6575 8055 70
32720 6575 9873 85
32721 6575 2976 13
32722 6575 3750 85
32723 6575 5422 80
32724 6575 2227 23
32725 6575 2942 39
32726 6576 1582 58
32727 6576 5321 53
32728 6576 4135 59
32729 6577 5109 16
32730 6577 5573 17
32731 6577 1743 85
32732 6577 4104 21
32733 6578 6071 1
32734 6578 9648 18
32735 6578 4929 57
32736 6578 7091 21
32737 6579 202 88
32738 6579 1110 96
32739 6579 4492 80
32740 6579 456 73
32741 6579 2776 9
32742 6579 836 60
32743 6580 3840 58
32744 6580 9442 53
32745 6580 6991 3
32746 6580 9445 66
32747 6580 9519 38
32748 6580 5508 1
32749 6581 8207 18
32750 6581 8932 26
32751 6581 5873 13
32752 6582 9393 8
32753 6583 151 35
32754 6583 9307 75
32755 6583 379 79
32756 6583 7485 16
32757 6583 8247 38
32758 6583 7638 17
32759 6583 4808 21
32760 6584 1096 60
32761 6584 7561 87
32762 6585 7128 64
32763 6585 3732 51
32764 6585 1338 13
32765 6585 3319 98
32766 6585 2274 31
32767 6586 3852 74
32768 6586 5043 41
32769 6586 3055 77
32770 6586 4162 40
32771 6586 4581 6
32772 6586 5711 87
32773 6587 6467 66
32774 6587 7336 3
32775 6587 5487 60
32776 6587 989 91
32777 6587 2649 18
32778 6587 782 88
32779 6587 7749 69
32780 6588 7387 73
32781 6588 3724 46
32782 6589 5237 23
32783 6589 398 32
32784 6589 3069 43
32785 6589 2508 26
32786 6589 2089 63
32787 6590 8445 99
32788 6590 7082 86
32789 6590 6964 1
32790 6590 6361 49
32791 6590 3224 89
32792 6591 8347 73
32793 6591 6785 40
32794 6591 959 41
32795 6591 8686 95
32796 6591 3993 87
32797 6592 7311 30
32798 6592 3266 47
32799 6592 3663 15
32800 6592 2776 7
32801 6592 4389 81
32802 6593 3789 60
32803 6593 2015 31
32804 6593 4814 14
32805 6593 836 14
32806 6593 5096 24
32807 6593 5708 43
32808 6594 1413 81
32809 6594 2989 16
32810 6594 6579 28
32811 6595 7384 97
32812 6595 4294 20
32813 6595 9041 4
32814 6595 497 94
32815 6595 7257 62
32816 6596 5702 96
32817 6596 3724 5
32818 6596 2331 4
32819 6596 1433 17
32820 6596 8522 86
32821 6596 1931 10
32822 6596 1100 8
32823 6596 5127 53
32824 6596 3749 22
32825 6597 7327 96
32826 6597 3527 47
32827 6597 9687 87
32828 6597 7614 95
32829 6598 9506 78
32830 6598 2042 33
32831 6598 1128 54
32832 6598 8651 61
32833 6599 1291 27
32834 6599 1329 52
32835 6599 2022 77
32836 6599 5779 95
32837 6599 9792 18
32838 6599 296 49
32839 6599 899 22
32840 6599 198 66
32841 6600 6668 62
32842 6600 7065 60
32843 6600 6336 79
32844 6600 5710 38
32845 6600 369 90
32846 6601 879 17
32847 6601 4136 57
32848 6601 1068 47
32849 6601 5251 92
32850 6601 8582 28
32851 6601 9064 62
32852 6601 2811 2
32853 6601 6314 39
32854 6601 7887 23
32855 6602 7320 8
32856 6602 4289 26
32857 6602 5580 82
32858 6603 7621 59
32859 6603 8947 26
32860 6603 7488 87
32861 6603 5498 91
32862 6603 2269 76
32863 6603 1174 65
32864 6604 6360 51
32865 6604 4319 70
32866 6605 7454 78
32867 6605 3559 16
32868 6605 2777 35
32869 6605 169 68
32870 6605 7823 10
32871 6605 6031 73
32872 6605 4296 97
32873 6606 630 5
32874 6606 1798 99
32875 6606 6987 30
32876 6606 9790 21
32877 6607 6205 13
32878 6607 3090 80
32879 6607 1027 64
32880 6607 1515 64
32881 6607 5531 69
32882 6607 9783 22
32883 6607 9886 82
32884 6607 1986 55
32885 6608 3100 68
32886 6608 9243 78
32887 6608 6783 48
32888 6608 9200 10
32889 6608 3562 100
32890 6608 4425 27
32891 6609 1479 41
32892 6609 4424 76
32893 6609 6438 52
32894 6609 5581 57
32895 6609 1469 99
32896 6609 4176 62
32897 6610 6755 96
32898 6611 8735 48
32899 6611 5086 17
32900 6612 316 65
32901 6612 5183 62
32902 6612 3360 33
32903 6612 9807 75
32904 6613 4075 18
32905 6613 7161 99
32906 6613 4106 3
32907 6613 8387 54
32908 6613 267 88
32909 6613 8384 81
32910 6614 6336 84
32911 6614 7710 67
32912 6614 1879 68
32913 6614 6981 32
32914 6614 941 11
32915 6614 3023 21
32916 6614 3113 89
32917 6615 149 41
32918 6615 523 50
32919 6615 3302 71
32920 6615 2581 8
32921 6615 3207 97
32922 6615 3836 6
32923 6615 8306 90
32924 6616 3222 9
32925 6616 85 94
32926 6616 333 13
32927 6616 609 22
32928 6616 5339 76
32929 6616 873 41
32930 6617 7932 19
32931 6618 9306 93
32932 6618 5407 29
32933 6618 5719 45
32934 6618 7035 41
32935 6618 5241 42
32936 6618 2882 58
32937 6618 1236 60
32938 6618 3503 51
32939 6619 3382 51
32940 6619 2471 7
32941 6619 6574 60
32942 6619 4686 86
32943 6619 4142 65
32944 6619 9402 53
32945 6620 7637 68
32946 6620 1121 50
32947 6620 3539 60
32948 6620 6640 68
32949 6620 4697 48
32950 6620 2084 3
32951 6620 8858 82
32952 6621 9229 40
32953 6621 7850 74
32954 6621 7417 28
32955 6621 8943 88
32956 6622 7250 98
32957 6622 2098 94
32958 6622 1482 88
32959 6622 4391 74
32960 6622 427 98
32961 6622 9490 48
32962 6623 2523 61
32963 6623 6769 9
32964 6623 3855 60
32965 6623 913 6
32966 6623 2887 7
32967 6623 944 90
32968 6623 486 8
32969 6624 4262 32
32970 6624 1699 8
32971 6624 2681 65
32972 6624 4404 19
32973 6625 7950 34
32974 6625 2937 40
32975 6625 9571 31
32976 6626 4344 70
32977 6626 7756 69
32978 6627 2142 76
32979 6627 5776 92
32980 6627 7812 65
32981 6627 3727 89
32982 6627 6142 60
32983 6627 8311 60
32984 6628 3172 65
32985 6628 4241 86
32986 6628 8838 10
32987 6628 8054 36
32988 6628 3524 3
32989 6629 8891 1
32990 6629 2490 93
32991 6629 4376 46
32992 6629 4671 2
32993 6629 769 26
32994 6629 7935 65
32995 6629 447 1
32996 6629 7477 72
32997 6629 7446 35
32998 6629 9652 51
32999 6629 8201 20
33000 6629 4177 74
33001 6629 5737 31
33002 6630 2414 89
33003 6630 3046 50
33004 6630 3556 47
33005 6630 4434 18
33006 6631 3625 86
33007 6631 6676 93
33008 6631 2827 33
33009 6631 8942 82
33010 6631 128 83
33011 6631 3621 39
33012 6632 5908 17
33013 6632 4744 13
33014 6633 744 78
33015 6633 618 51
33016 6633 5081 14
33017 6633 7269 58
33018 6633 6198 51
33019 6633 3160 42
33020 6633 3347 70
33021 6634 5326 95
33022 6634 7823 79
33023 6634 9250 20
33024 6634 9159 35
33025 6634 9614 67
33026 6635 4312 28
33027 6635 7772 50
33028 6636 1776 31
33029 6636 6632 57
33030 6636 34 96
33031 6636 2867 88
33032 6636 8163 43
33033 6636 5119 62
33034 6636 8306 39
33035 6636 7339 40
33036 6636 8712 11
33037 6636 186 79
33038 6636 6486 39
33039 6637 3076 67
33040 6637 2312 12
33041 6637 7354 49
33042 6637 508 90
33043 6637 8432 46
33044 6638 5168 75
33045 6638 2267 91
33046 6638 7832 60
33047 6638 5925 49
33048 6638 9799 2
33049 6638 2796 11
33050 6638 3830 45
33051 6638 8328 3
33052 6639 2087 21
33053 6639 1074 10
33054 6639 2862 30
33055 6639 2842 39
33056 6639 6373 16
33057 6640 973 11
33058 6640 57 50
33059 6640 7073 92
33060 6640 4720 18
33061 6640 2702 100
33062 6640 1865 47
33063 6640 389 89
33064 6640 5703 85
33065 6640 422 21
33066 6640 3031 95
33067 6641 1378 22
33068 6641 6576 76
33069 6641 5034 40
33070 6642 6169 23
33071 6642 7554 41
33072 6642 9595 47
33073 6642 8577 82
33074 6642 8311 64
33075 6642 9391 16
33076 6642 4422 32
33077 6643 6122 28
33078 6643 5151 77
33079 6643 9245 20
33080 6643 3979 16
33081 6643 2168 24
33082 6643 368 31
33083 6643 2832 29
33084 6643 3324 6
33085 6643 2265 78
33086 6644 1029 17
33087 6644 7755 69
33088 6644 5183 66
33089 6644 3600 73
33090 6644 7657 8
33091 6645 2595 53
33092 6645 6111 33
33093 6645 9998 82
33094 6645 4206 9
33095 6645 7173 39
33096 6646 3504 55
33097 6646 6164 42
33098 6646 18 89
33099 6646 3381 34
33100 6647 8391 78
33101 6648 5796 28
33102 6648 5993 60
33103 6648 3019 23
33104 6648 1147 38
33105 6648 6125 58
33106 6648 6644 86
33107 6649 9417 5
33108 6649 3263 24
33109 6649 795 94
33110 6649 5151 30
33111 6649 3075 1
33112 6649 3862 65
33113 6650 6262 13
33114 6650 4236 82
33115 6650 3011 3
33116 6650 1450 23
33117 6650 844 61
33118 6650 2164 86
33119 6650 4384 1
33120 6651 3510 19
33121 6651 7473 60
33122 6651 1799 12
33123 6651 2842 59
33124 6651 7393 72
33125 6651 4957 55
33126 6651 6212 59
33127 6652 967 2
33128 6652 5480 58
33129 6652 7149 81
33130 6652 533 12
33131 6652 2976 18
33132 6653 6465 45
33133 6653 1735 10
33134 6653 9485 79
33135 6653 8128 84
33136 6654 2574 64
33137 6654 5623 85
33138 6655 1004 47
33139 6655 5404 19
33140 6655 5309 84
33141 6655 6254 45
33142 6655 3552 21
33143 6655 779 6
33144 6656 1172 74
33145 6656 100 21
33146 6656 304 13
33147 6656 2956 96
33148 6657 547 28
33149 6657 3282 31
33150 6657 2276 24
33151 6657 7159 13
33152 6657 9363 6
33153 6657 7196 74
33154 6658 3635 76
33155 6658 4670 94
33156 6658 8314 67
33157 6658 70 21
33158 6659 4354 6
33159 6659 2049 35
33160 6659 7667 81
33161 6660 7098 20
33162 6660 3901 17
33163 6660 8562 64
33164 6660 5490 45
33165 6660 9013 83
33166 6660 2963 17
33167 6660 2132 7
33168 6660 3252 22
33169 6660 5466 12
33170 6661 5583 90
33171 6661 8006 49
33172 6661 7962 64
33173 6661 6372 50
33174 6661 2253 24
33175 6662 7364 13
33176 6662 7535 84
33177 6662 1489 50
33178 6662 6148 82
33179 6662 8763 26
33180 6662 6935 18
33181 6663 4098 79
33182 6663 1124 45
33183 6663 2365 2
33184 6664 1326 7
33185 6664 4162 57
33186 6664 6942 49
33187 6664 5820 68
33188 6664 543 19
33189 6664 6263 40
33190 6664 6651 34
33191 6664 6605 2
33192 6665 5253 68
33193 6665 9946 1
33194 6666 9309 61
33195 6666 2278 44
33196 6666 3327 61
33197 6666 6725 86
33198 6667 4509 77
33199 6667 5667 44
33200 6668 8403 20
33201 6668 3458 26
33202 6668 3720 67
33203 6669 8284 34
33204 6669 2863 51
33205 6669 9900 20
33206 6669 4776 7
33207 6669 2672 25
33208 6669 7216 89
33209 6670 7588 25
33210 6670 4551 75
33211 6670 7782 49
33212 6670 7911 58
33213 6670 1361 81
33214 6671 675 9
33215 6671 6915 45
33216 6672 5384 25
33217 6672 1632 48
33218 6672 2191 80
33219 6672 7141 45
33220 6672 1100 51
33221 6672 7054 14
33222 6672 898 19
33223 6673 4291 83
33224 6673 5126 18
33225 6673 8672 21
33226 6674 8002 75
33227 6674 3814 35
33228 6674 3087 38
33229 6674 4683 15
33230 6674 4513 73
33231 6674 1709 91
33232 6675 6671 22
33233 6675 3648 81
33234 6675 2175 89
33235 6675 3324 65
33236 6675 9196 18
33237 6675 56 21
33238 6675 1181 78
33239 6676 7458 14
33240 6676 3596 78
33241 6677 4518 89
33242 6677 2672 1
33243 6677 7139 91
33244 6677 8309 96
33245 6677 2885 90
33246 6677 9543 3
33247 6677 2332 76
33248 6677 3286 77
33249 6677 9231 83
33250 6678 2281 21
33251 6678 8743 29
33252 6678 4169 23
33253 6678 8227 17
33254 6678 6547 80
33255 6678 6009 18
33256 6678 903 40
33257 6678 8805 73
33258 6678 499 29
33259 6678 9441 2
33260 6678 8795 58
33261 6679 9989 56
33262 6679 1690 78
33263 6679 1365 90
33264 6680 7505 95
33265 6680 1368 81
33266 6680 697 7
33267 6680 872 74
33268 6680 3092 76
33269 6680 6356 99
33270 6681 1650 34
33271 6681 4060 46
33272 6681 7736 41
33273 6681 529 83
33274 6681 2826 7
33275 6682 8478 73
33276 6682 1037 29
33277 6682 4811 81
33278 6682 9122 63
33279 6683 7009 76
33280 6683 9322 84
33281 6684 7168 39
33282 6684 2291 12
33283 6684 4257 49
33284 6684 6047 65
33285 6684 2065 38
33286 6684 9779 68
33287 6684 7879 98
33288 6684 2578 39
33289 6685 4655 27
33290 6685 4510 41
33291 6685 5187 74
33292 6685 4928 24
33293 6685 6563 26
33294 6685 4960 84
33295 6686 844 40
33296 6686 3616 29
33297 6686 7828 15
33298 6686 7131 29
33299 6687 2127 44
33300 6687 2448 23
33301 6687 7943 6
33302 6687 7428 74
33303 6687 8449 55
33304 6688 8852 23
33305 6688 9438 52
33306 6688 722 44
33307 6688 3431 12
33308 6688 89 97
33309 6689 7355 11
33310 6689 8521 86
33311 6690 4824 14
33312 6690 1491 94
33313 6690 6354 37
33314 6690 5899 21
33315 6691 4294 18
33316 6691 4170 6
33317 6692 1483 97
33318 6692 2320 14
33319 6692 8118 58
33320 6692 2774 97
33321 6692 5101 67
33322 6692 5254 76
33323 6692 2763 85
33324 6693 7449 30
33325 6693 8985 83
33326 6693 3691 10
33327 6693 1929 53
33328 6693 3313 32
33329 6693 1200 97
33330 6693 4798 6
33331 6693 1332 69
33332 6693 8422 16
33333 6693 6069 86
33334 6694 2200 30
33335 6694 5442 39
33336 6694 1323 51
33337 6694 1205 39
33338 6694 6586 95
33339 6694 1775 32
33340 6694 2536 46
33341 6695 6009 10
33342 6695 4372 4
33343 6695 3203 21
33344 6695 1029 100
33345 6695 3936 66
33346 6695 4742 16
33347 6696 9489 83
33348 6696 90 85
33349 6697 5944 10
33350 6697 7486 50
33351 6697 1387 85
33352 6697 7640 35
33353 6697 5805 91
33354 6698 1351 93
33355 6698 1007 29
33356 6698 3072 14
33357 6698 5135 72
33358 6698 7497 84
33359 6698 1405 44
33360 6698 6438 77
33361 6699 8869 83
33362 6699 7951 18
33363 6699 407 92
33364 6699 3089 19
33365 6699 7906 6
33366 6699 2408 94
33367 6700 7650 83
33368 6700 3027 72
33369 6700 7495 16
33370 6700 4379 67
33371 6700 6406 55
33372 6701 9173 80
33373 6701 3377 49
33374 6701 6779 60
33375 6701 5517 62
33376 6701 3123 51
33377 6702 2696 2
33378 6702 1573 32
33379 6702 6689 13
33380 6702 3934 50
33381 6702 8641 71
33382 6703 8972 24
33383 6703 9988 97
33384 6703 2482 15
33385 6703 6739 3
33386 6703 193 88
33387 6703 6913 79
33388 6704 9625 84
33389 6704 9283 55
33390 6704 5711 69
33391 6704 5556 78
33392 6705 5255 25
33393 6705 252 76
33394 6705 1686 25
33395 6705 3947 56
33396 6706 6232 53
33397 6706 1311 26
33398 6706 9920 83
33399 6706 4373 44
33400 6706 9934 100
33401 6706 7885 11
33402 6707 7628 17
33403 6707 5901 90
33404 6707 3506 87
33405 6707 8008 84
33406 6707 5566 98
33407 6707 34 6
33408 6708 807 64
33409 6708 7120 83
33410 6708 6347 74
33411 6708 284 11
33412 6708 587 53
33413 6708 6291 94
33414 6708 2802 16
33415 6708 7918 67
33416 6709 3539 2
33417 6709 7956 31
33418 6709 9511 70
33419 6709 5355 97
33420 6709 9910 40
33421 6709 8417 33
33422 6709 2012 100
33423 6709 4272 24
33424 6710 6162 99
33425 6710 9720 82
33426 6710 5654 46
33427 6710 7485 33
33428 6710 4045 11
33429 6710 6101 33
33430 6711 2687 54
33431 6711 7508 13
33432 6711 1531 56
33433 6711 4182 9
33434 6711 7300 98
33435 6711 3257 93
33436 6712 2990 6
33437 6712 6413 25
33438 6712 1184 88
33439 6712 825 98
33440 6712 5465 19
33441 6712 1892 26
33442 6712 7899 62
33443 6713 8208 84
33444 6713 3897 94
33445 6713 9922 87
33446 6714 1781 28
33447 6715 2141 8
33448 6715 3720 34
33449 6715 1965 21
33450 6715 872 75
33451 6715 3432 54
33452 6715 9175 37
33453 6716 2855 32
33454 6716 1581 51
33455 6716 1516 74
33456 6716 4649 40
33457 6716 4006 14
33458 6716 7399 71
33459 6716 9696 13
33460 6716 8669 26
33461 6716 1227 84
33462 6717 1187 22
33463 6717 3759 45
33464 6717 4833 91
33465 6718 8825 50
33466 6718 2855 31
33467 6718 3601 39
33468 6718 6223 78
33469 6718 3562 13
33470 6718 3696 89
33471 6718 2776 20
33472 6719 397 90
33473 6719 4844 32
33474 6719 4 88
33475 6720 7287 72
33476 6720 4139 40
33477 6720 6544 95
33478 6720 3009 61
33479 6720 6984 94
33480 6720 2636 19
33481 6720 4500 56
33482 6721 292 53
33483 6721 6993 90
33484 6722 671 4
33485 6722 316 86
33486 6722 588 69
33487 6722 8461 79
33488 6722 1713 47
33489 6722 8522 49
33490 6722 9775 71
33491 6722 1406 52
33492 6722 3644 55
33493 6723 3602 39
33494 6723 4003 24
33495 6723 5346 67
33496 6723 9357 89
33497 6724 2251 6
33498 6724 1191 47
33499 6724 4747 20
33500 6724 7078 11
33501 6724 1757 54
33502 6724 712 98
33503 6724 9779 69
33504 6725 8057 58
33505 6725 3823 46
33506 6725 7829 24
33507 6725 5154 27
33508 6725 59 92
33509 6725 9267 70
33510 6725 9039 52
33511 6726 1505 51
33512 6726 5402 94
33513 6726 2529 66
33514 6726 5080 8
33515 6726 9950 32
33516 6726 6464 70
33517 6726 8542 16
33518 6726 6120 17
33519 6727 9024 10
33520 6727 4834 50
33521 6727 5230 84
33522 6727 2893 55
33523 6727 3566 92
33524 6727 2996 19
33525 6728 1538 42
33526 6728 4669 42
33527 6728 1218 6
33528 6728 4215 100
33529 6728 5414 9
33530 6728 5798 55
33531 6729 8307 13
33532 6729 3000 81
33533 6729 5449 52
33534 6729 4171 65
33535 6729 2537 8
33536 6729 8126 6
33537 6729 3633 36
33538 6729 880 78
33539 6729 1566 84
33540 6729 7492 27
33541 6729 24 41
33542 6730 5182 70
33543 6730 8604 74
33544 6730 197 27
33545 6731 8999 84
33546 6731 7755 8
33547 6731 9274 24
33548 6731 9262 31
33549 6731 4533 94
33550 6732 1891 59
33551 6732 1507 33
33552 6732 2195 49
33553 6732 4557 66
33554 6732 1224 5
33555 6733 5230 13
33556 6733 6170 96
33557 6733 5418 24
33558 6733 9088 78
33559 6733 3293 57
33560 6733 7115 30
33561 6733 3391 39
33562 6734 3828 86
33563 6735 4422 43
33564 6735 8861 50
33565 6735 4135 95
33566 6735 2324 74
33567 6735 3530 76
33568 6735 9169 3
33569 6736 312 2
33570 6736 581 56
33571 6736 6345 85
33572 6736 7725 97
33573 6736 1119 66
33574 6736 9776 67
33575 6737 8250 75
33576 6737 3839 85
33577 6737 3997 85
33578 6737 3751 50
33579 6737 1030 29
33580 6737 8797 17
33581 6737 7352 59
33582 6738 1455 32
33583 6738 3403 49
33584 6738 2538 35
33585 6739 7669 88
33586 6739 1557 28
33587 6739 8488 2
33588 6739 9498 24
33589 6739 3957 90
33590 6740 8249 98
33591 6740 5206 80
33592 6740 6579 73
33593 6740 7418 9
33594 6740 6273 38
33595 6740 5104 72
33596 6741 7716 69
33597 6742 4063 75
33598 6742 8250 94
33599 6742 7890 83
33600 6742 3671 61
33601 6742 8373 1
33602 6743 2772 89
33603 6743 964 55
33604 6744 4773 70
33605 6744 6655 54
33606 6744 3766 3
33607 6745 1635 68
33608 6745 2919 52
33609 6745 9159 39
33610 6745 3964 74
33611 6745 2816 69
33612 6745 5520 29
33613 6746 3709 93
33614 6746 8390 98
33615 6746 3049 88
33616 6746 4400 91
33617 6746 385 96
33618 6747 3555 61
33619 6747 5879 97
33620 6747 9184 45
33621 6748 6734 99
33622 6748 6962 56
33623 6748 5045 89
33624 6748 8395 26
33625 6748 8631 26
33626 6748 765 97
33627 6748 546 54
33628 6749 3384 47
33629 6749 2645 14
33630 6749 2548 71
33631 6749 660 27
33632 6749 2313 15
33633 6750 1681 89
33634 6750 7237 62
33635 6750 1435 58
33636 6750 5512 78
33637 6750 703 10
33638 6750 8382 35
33639 6750 3595 20
33640 6751 2715 46
33641 6751 3872 57
33642 6751 3745 15
33643 6752 7124 83
33644 6752 9049 34
33645 6752 6278 12
33646 6752 1948 98
33647 6752 339 97
33648 6753 1441 96
33649 6753 314 2
33650 6753 2977 91
33651 6753 3798 34
33652 6754 8766 34
33653 6754 1576 96
33654 6754 7296 8
33655 6754 4302 20
33656 6755 7099 3
33657 6755 7708 22
33658 6755 3597 100
33659 6755 6653 10
33660 6755 559 31
33661 6755 9689 75
33662 6756 2191 61
33663 6756 3502 49
33664 6757 3327 84
33665 6757 9099 35
33666 6757 142 67
33667 6757 1072 3
33668 6757 757 46
33669 6757 7622 35
33670 6757 6946 12
33671 6758 3414 92
33672 6758 5056 91
33673 6758 6697 59
33674 6758 3764 36
33675 6758 5379 93
33676 6759 8944 64
33677 6759 5921 12
33678 6759 8452 44
33679 6759 1242 8
33680 6759 2141 5
33681 6760 4433 68
33682 6760 4576 27
33683 6760 8204 50
33684 6760 4931 36
33685 6760 3915 99
33686 6761 4268 81
33687 6761 1104 45
33688 6761 9571 15
33689 6761 5979 32
33690 6761 6975 24
33691 6761 9660 76
33692 6762 5769 99
33693 6762 1925 26
33694 6762 9663 54
33695 6762 7625 41
33696 6762 8796 18
33697 6762 8820 83
33698 6762 1510 74
33699 6762 9465 82
33700 6763 8937 18
33701 6763 2647 79
33702 6763 3456 47
33703 6764 2785 96
33704 6764 7345 80
33705 6764 8007 81
33706 6764 8354 65
33707 6764 8631 18
33708 6765 4817 78
33709 6765 8283 36
33710 6765 947 51
33711 6766 2869 73
33712 6766 8973 38
33713 6766 8623 3
33714 6766 9575 33
33715 6766 8769 13
33716 6767 3110 4
33717 6767 6273 65
33718 6767 4753 90
33719 6767 1189 27
33720 6768 5711 86
33721 6768 5401 77
33722 6768 9213 65
33723 6768 4197 37
33724 6768 481 65
33725 6768 7956 55
33726 6768 5362 98
33727 6768 3868 90
33728 6769 4532 94
33729 6769 3256 58
33730 6769 8218 43
33731 6769 2316 90
33732 6769 964 98
33733 6769 8847 50
33734 6769 8989 71
33735 6770 338 29
33736 6770 4364 39
33737 6770 4244 14
33738 6770 614 26
33739 6770 3134 19
33740 6770 8960 54
33741 6771 9905 85
33742 6771 1616 16
33743 6771 4247 89
33744 6771 9116 67
33745 6771 5929 5
33746 6771 5122 27
33747 6771 9636 45
33748 6772 4363 2
33749 6772 3707 34
33750 6772 9210 10
33751 6772 5537 79
33752 6773 8346 45
33753 6773 6804 99
33754 6773 9748 40
33755 6773 3650 44
33756 6773 2205 2
33757 6773 4441 1
33758 6773 833 24
33759 6773 3898 84
33760 6774 5594 12
33761 6774 4223 18
33762 6774 1995 44
33763 6774 7859 84
33764 6774 5652 23
33765 6774 3110 35
33766 6775 3860 88
33767 6775 1574 56
33768 6775 8466 25
33769 6775 9897 62
33770 6776 2504 59
33771 6776 3204 26
33772 6776 2016 25
33773 6776 7159 34
33774 6777 5263 34
33775 6777 1019 38
33776 6777 2204 3
33777 6777 6776 52
33778 6777 6639 37
33779 6777 2890 36
33780 6777 102 41
33781 6778 9875 57
33782 6778 7682 87
33783 6778 7417 89
33784 6778 3005 68
33785 6778 9362 95
33786 6779 4653 72
33787 6779 8427 4
33788 6779 2638 98
33789 6779 7190 93
33790 6779 3819 27
33791 6780 5720 18
33792 6780 1986 41
33793 6780 8688 19
33794 6780 9177 13
33795 6780 3013 22
33796 6780 3532 80
33797 6781 3703 28
33798 6781 8807 55
33799 6781 3543 36
33800 6781 6286 51
33801 6781 7265 62
33802 6781 4023 8
33803 6781 5705 20
33804 6782 5395 21
33805 6782 7474 77
33806 6782 1822 24
33807 6782 6620 70
33808 6783 8115 95
33809 6783 1597 26
33810 6783 4704 23
33811 6783 7254 90
33812 6783 5388 3
33813 6784 3710 86
33814 6784 869 86
33815 6784 4592 3
33816 6784 7745 90
33817 6784 3679 49
33818 6785 6178 83
33819 6785 2258 35
33820 6785 1533 93
33821 6785 2165 37
33822 6785 417 10
33823 6785 9134 51
33824 6785 3967 59
33825 6785 2913 40
33826 6786 644 88
33827 6786 3873 97
33828 6786 41 27
33829 6786 3358 86
33830 6787 5289 39
33831 6787 2687 14
33832 6787 6236 81
33833 6788 9597 8
33834 6788 1351 7
33835 6788 5149 2
33836 6788 7665 8
33837 6788 4476 70
33838 6788 3338 12
33839 6789 3051 78
33840 6789 1869 37
33841 6789 9317 77
33842 6789 679 39
33843 6790 2511 34
33844 6790 9361 35
33845 6790 2695 95
33846 6790 4345 8
33847 6791 6400 96
33848 6791 5626 55
33849 6791 3438 90
33850 6791 1230 13
33851 6791 6428 48
33852 6791 9262 12
33853 6791 7472 35
33854 6791 6348 71
33855 6791 87 66
33856 6792 1504 91
33857 6792 1005 54
33858 6792 141 26
33859 6792 8886 95
33860 6792 3217 15
33861 6792 8933 39
33862 6792 7618 96
33863 6792 530 10
33864 6792 8053 58
33865 6792 9282 33
33866 6792 7363 51
33867 6792 1416 38
33868 6792 8877 85
33869 6793 479 22
33870 6793 504 41
33871 6793 3127 8
33872 6793 8472 24
33873 6793 3307 15
33874 6793 3546 24
33875 6794 9237 60
33876 6794 7785 61
33877 6794 5037 47
33878 6794 6454 20
33879 6795 3396 48
33880 6795 2104 56
33881 6795 2806 31
33882 6795 2570 84
33883 6795 641 53
33884 6795 7936 63
33885 6795 4314 64
33886 6796 586 37
33887 6796 7386 38
33888 6796 6088 4
33889 6797 1843 99
33890 6797 8590 100
33891 6797 9492 83
33892 6797 2720 23
33893 6797 6718 64
33894 6798 2141 64
33895 6798 3195 1
33896 6798 1102 13
33897 6798 4464 32
33898 6798 995 37
33899 6798 6080 100
33900 6798 3287 10
33901 6798 128 69
33902 6799 9973 14
33903 6799 6143 30
33904 6799 1062 19
33905 6799 7297 75
33906 6799 674 48
33907 6800 69 29
33908 6800 3033 1
33909 6800 3957 64
33910 6800 6965 34
33911 6800 7591 48
33912 6801 5873 21
33913 6801 3358 82
33914 6802 9057 42
33915 6802 7138 42
33916 6802 9789 8
33917 6802 765 36
33918 6802 8641 47
33919 6802 5987 64
33920 6802 2718 4
33921 6803 6972 58
33922 6803 2016 6
33923 6804 4069 10
33924 6804 6541 71
33925 6804 7194 42
33926 6805 926 25
33927 6805 4697 80
33928 6805 1087 87
33929 6805 3127 21
33930 6806 6654 93
33931 6807 8533 12
33932 6807 5452 4
33933 6807 4845 72
33934 6807 9660 87
33935 6807 4608 43
33936 6808 3380 99
33937 6808 1630 59
33938 6809 5606 37
33939 6809 2759 19
33940 6809 1535 91
33941 6809 6436 51
33942 6809 5235 53
33943 6809 6811 30
33944 6809 3801 40
33945 6810 3600 95
33946 6810 8237 91
33947 6810 1985 63
33948 6810 1653 11
33949 6810 4362 66
33950 6811 1314 7
33951 6811 8154 10
33952 6811 8999 91
33953 6812 5063 67
33954 6812 239 18
33955 6812 9444 77
33956 6812 8057 7
33957 6812 157 74
33958 6812 584 90
33959 6812 8030 71
33960 6813 4878 57
33961 6813 8821 31
33962 6813 5888 83
33963 6813 5880 48
33964 6813 5697 77
33965 6813 1539 82
33966 6814 2400 67
33967 6814 3990 2
33968 6814 5159 52
33969 6814 1033 71
33970 6815 9174 94
33971 6815 785 2
33972 6815 361 79
33973 6815 9828 81
33974 6815 1232 1
33975 6815 2931 54
33976 6815 4682 52
33977 6816 3193 79
33978 6816 5648 32
33979 6816 4434 46
33980 6816 895 34
33981 6816 9323 53
33982 6816 49 17
33983 6816 1683 23
33984 6816 1351 53
33985 6816 9613 55
33986 6816 8144 43
33987 6817 4180 17
33988 6817 6055 15
33989 6817 3714 84
33990 6818 6437 33
33991 6818 9543 77
33992 6818 6384 47
33993 6818 1746 78
33994 6818 7096 3
33995 6818 5615 17
33996 6819 2395 2
33997 6819 4249 46
33998 6820 2574 85
33999 6820 3529 73
34000 6821 5702 55
34001 6821 5927 83
34002 6822 3270 84
34003 6822 987 88
34004 6822 7196 80
34005 6823 1603 45
34006 6823 2864 30
34007 6823 9241 22
34008 6823 7169 78
34009 6823 6090 78
34010 6824 9205 4
34011 6824 6510 55
34012 6824 7784 15
34013 6824 4671 47
34014 6824 8991 3
34015 6824 4033 77
34016 6825 5193 39
34017 6825 6724 60
34018 6825 2439 79
34019 6826 1421 21
34020 6826 3727 5
34021 6826 4039 14
34022 6826 1926 23
34023 6826 4023 99
34024 6826 9479 76
34025 6826 8095 30
34026 6827 2429 52
34027 6827 3606 90
34028 6828 5216 2
34029 6828 1048 18
34030 6828 6859 44
34031 6829 1384 75
34032 6829 1703 72
34033 6829 3535 31
34034 6829 958 8
34035 6829 9439 1
34036 6829 7749 65
34037 6829 8162 40
34038 6830 8303 53
34039 6830 2848 8
34040 6830 7823 47
34041 6830 2965 17
34042 6830 3751 23
34043 6830 63 99
34044 6830 6797 29
34045 6831 2244 8
34046 6831 7287 13
34047 6831 9807 55
34048 6831 8362 11
34049 6831 6618 87
34050 6831 4900 62
34051 6831 7932 22
34052 6832 8616 85
34053 6832 8645 50
34054 6832 6889 68
34055 6832 348 85
34056 6833 1152 5
34057 6833 408 32
34058 6833 7505 48
34059 6833 5086 64
34060 6833 2832 23
34061 6833 2150 65
34062 6834 384 6
34063 6834 2615 87
34064 6834 5810 11
34065 6834 3666 38
34066 6835 9102 77
34067 6835 180 15
34068 6835 1124 50
34069 6835 6885 38
34070 6836 8545 18
34071 6836 21 25
34072 6837 9708 26
34073 6837 2707 99
34074 6837 2296 99
34075 6838 5788 50
34076 6838 1771 100
34077 6838 8607 100
34078 6838 752 7
34079 6838 8844 75
34080 6838 299 77
34081 6839 1135 78
34082 6839 8050 26
34083 6839 4718 74
34084 6839 1622 73
34085 6839 2552 89
34086 6840 5623 43
34087 6840 4633 26
34088 6841 9174 46
34089 6841 3669 33
34090 6842 4569 17
34091 6842 7583 41
34092 6842 4885 23
34093 6842 5505 69
34094 6842 5858 28
34095 6843 3391 31
34096 6843 2328 91
34097 6843 6624 76
34098 6843 3957 41
34099 6843 6447 39
34100 6843 771 95
34101 6844 8928 38
34102 6844 1964 81
34103 6844 3915 50
34104 6845 8922 32
34105 6845 5531 82
34106 6845 9431 17
34107 6846 2991 47
34108 6846 3095 22
34109 6846 8178 80
34110 6846 242 77
34111 6847 7741 32
34112 6847 5473 49
34113 6847 2929 78
34114 6847 9484 35
34115 6847 1258 45
34116 6847 7682 87
34117 6847 1862 45
34118 6848 3040 15
34119 6848 962 51
34120 6848 5135 60
34121 6848 3936 48
34122 6848 9058 79
34123 6848 9862 81
34124 6849 560 90
34125 6849 6651 50
34126 6849 6878 21
34127 6849 5603 72
34128 6849 780 22
34129 6849 7071 90
34130 6849 4921 80
34131 6849 734 17
34132 6850 3379 7
34133 6850 1667 79
34134 6850 898 30
34135 6850 8823 24
34136 6850 4801 92
34137 6850 868 65
34138 6851 5705 90
34139 6851 2373 21
34140 6851 4962 51
34141 6851 4387 59
34142 6851 5176 73
34143 6851 4818 64
34144 6851 6282 71
34145 6851 6581 5
34146 6851 7266 14
34147 6851 9025 7
34148 6852 4392 46
34149 6852 9057 95
34150 6852 4203 31
34151 6852 7464 46
34152 6852 579 69
34153 6853 6444 7
34154 6853 9771 24
34155 6853 980 80
34156 6853 4099 13
34157 6853 9177 63
34158 6853 1662 10
34159 6854 8175 100
34160 6854 6985 68
34161 6854 8769 83
34162 6854 1418 38
34163 6855 172 88
34164 6855 1878 49
34165 6855 6849 43
34166 6855 6965 69
34167 6855 5328 100
34168 6855 4149 13
34169 6855 8087 84
34170 6855 8764 46
34171 6855 4701 31
34172 6855 7069 90
34173 6855 3793 78
34174 6856 3922 86
34175 6856 9560 45
34176 6856 371 83
34177 6856 8725 4
34178 6857 8771 88
34179 6857 2958 8
34180 6857 9169 12
34181 6857 4702 72
34182 6857 3597 9
34183 6857 6087 71
34184 6857 6433 17
34185 6858 2701 58
34186 6858 9519 55
34187 6858 5566 23
34188 6858 2477 53
34189 6858 5308 36
34190 6858 876 35
34191 6858 9674 14
34192 6858 4896 5
34193 6858 3181 84
34194 6859 5116 63
34195 6859 1885 43
34196 6859 4706 8
34197 6859 4579 14
34198 6859 7695 17
34199 6859 4177 52
34200 6859 6902 52
34201 6859 5971 15
34202 6859 5119 79
34203 6860 9744 45
34204 6861 6871 21
34205 6861 2359 20
34206 6861 1359 20
34207 6861 8304 93
34208 6862 368 27
34209 6862 8331 42
34210 6862 8722 76
34211 6862 2572 14
34212 6862 2183 42
34213 6862 2465 21
34214 6863 9269 71
34215 6863 8128 27
34216 6863 9595 24
34217 6863 5338 97
34218 6863 1979 42
34219 6863 9076 27
34220 6864 5905 69
34221 6864 1790 41
34222 6865 2369 48
34223 6865 5501 73
34224 6866 1315 39
34225 6866 4976 43
34226 6866 4544 45
34227 6866 7595 66
34228 6867 7137 3
34229 6867 729 98
34230 6867 797 5
34231 6867 2645 18
34232 6867 6495 1
34233 6868 6438 38
34234 6869 419 63
34235 6869 6232 13
34236 6869 8513 47
34237 6870 4182 73
34238 6870 9606 12
34239 6870 9004 82
34240 6870 1275 27
34241 6870 9339 56
34242 6870 6675 20
34243 6870 6866 62
34244 6870 8888 98
34245 6870 9879 67
34246 6871 7026 58
34247 6871 4687 46
34248 6871 3806 7
34249 6871 2148 4
34250 6871 3457 70
34251 6871 3819 61
34252 6871 2439 59
34253 6871 2297 28
34254 6871 7910 95
34255 6871 9418 93
34256 6871 4305 69
34257 6871 1083 44
34258 6872 1073 86
34259 6872 11 20
34260 6872 8618 61
34261 6872 4665 15
34262 6872 6477 39
34263 6873 5990 53
34264 6873 8137 55
34265 6873 6771 25
34266 6873 428 62
34267 6874 4962 77
34268 6874 3198 81
34269 6874 7974 43
34270 6874 6835 98
34271 6874 7049 46
34272 6874 517 81
34273 6875 8458 8
34274 6875 2493 19
34275 6875 1959 30
34276 6875 8948 55
34277 6876 4626 6
34278 6876 5759 64
34279 6876 4814 69
34280 6876 799 32
34281 6876 1019 89
34282 6876 8105 41
34283 6877 7751 87
34284 6877 6804 43
34285 6877 4706 1
34286 6877 3776 20
34287 6878 8313 88
34288 6878 5351 77
34289 6878 6130 42
34290 6878 8637 41
34291 6879 9164 58
34292 6879 7848 13
34293 6879 5161 25
34294 6879 4754 87
34295 6879 5604 99
34296 6879 823 75
34297 6879 5122 23
34298 6879 6746 57
34299 6880 6035 9
34300 6880 4843 90
34301 6880 737 1
34302 6880 1175 62
34303 6881 5761 95
34304 6881 3200 48
34305 6881 9043 75
34306 6881 6568 72
34307 6881 9319 96
34308 6881 9505 56
34309 6881 6101 4
34310 6882 5923 92
34311 6882 279 36
34312 6882 1047 70
34313 6882 4119 53
34314 6882 2861 21
34315 6883 7974 70
34316 6883 7452 36
34317 6883 6844 44
34318 6883 2690 94
34319 6884 6743 78
34320 6884 7480 75
34321 6884 6898 70
34322 6884 6179 7
34323 6885 5407 90
34324 6885 6490 28
34325 6885 4419 34
34326 6885 9556 68
34327 6885 3310 72
34328 6885 7107 39
34329 6886 4614 68
34330 6886 818 88
34331 6887 2612 78
34332 6887 6500 69
34333 6887 1332 27
34334 6887 6107 62
34335 6887 3527 68
34336 6887 3347 96
34337 6887 1664 66
34338 6888 1221 92
34339 6888 1074 81
34340 6888 8097 49
34341 6888 3032 11
34342 6888 7897 45
34343 6888 2344 26
34344 6888 4278 32
34345 6888 6204 31
34346 6888 1015 65
34347 6889 5790 74
34348 6889 5528 31
34349 6889 9918 6
34350 6889 9875 78
34351 6890 8201 91
34352 6890 3539 24
34353 6890 5331 88
34354 6891 6100 35
34355 6891 3048 66
34356 6891 6183 29
34357 6891 2753 52
34358 6891 2824 97
34359 6891 4396 66
34360 6891 4124 24
34361 6892 7739 97
34362 6892 2031 8
34363 6892 3042 80
34364 6892 6693 67
34365 6892 3828 39
34366 6892 3193 50
34367 6893 6203 88
34368 6893 9240 83
34369 6893 1996 29
34370 6893 8481 4
34371 6893 8593 2
34372 6893 6273 43
34373 6893 5763 10
34374 6893 4012 24
34375 6893 2064 22
34376 6894 9032 17
34377 6894 8837 21
34378 6894 1615 34
34379 6894 4153 75
34380 6894 4352 19
34381 6894 5714 41
34382 6895 5840 13
34383 6895 6945 45
34384 6895 4805 96
34385 6896 3643 15
34386 6896 2251 59
34387 6896 1924 95
34388 6896 6935 5
34389 6896 4769 30
34390 6896 8961 49
34391 6896 4890 12
34392 6897 9602 85
34393 6897 6538 3
34394 6897 7209 94
34395 6897 4206 50
34396 6897 1544 22
34397 6897 3024 38
34398 6897 9056 24
34399 6899 5506 7
34400 6899 8035 34
34401 6899 6089 46
34402 6899 4767 29
34403 6899 5830 14
34404 6900 9436 17
34405 6900 8831 4
34406 6900 2701 83
34407 6900 3060 78
34408 6901 9753 54
34409 6901 3732 89
34410 6901 2377 58
34411 6901 4539 17
34412 6901 8229 52
34413 6901 4055 21
34414 6902 2090 50
34415 6902 8851 52
34416 6902 6389 51
34417 6902 8590 61
34418 6903 2738 73
34419 6903 9494 62
34420 6903 2373 8
34421 6903 5005 89
34422 6903 9430 57
34423 6904 394 91
34424 6904 9989 40
34425 6904 6956 97
34426 6904 2514 15
34427 6905 5528 92
34428 6905 1417 89
34429 6905 7142 49
34430 6905 6537 44
34431 6906 7402 11
34432 6906 8303 85
34433 6906 9316 89
34434 6906 7369 21
34435 6907 1126 85
34436 6907 2977 37
34437 6907 7295 76
34438 6907 9282 38
34439 6907 8306 77
34440 6907 3409 13
34441 6907 1997 99
34442 6907 9720 15
34443 6908 3766 92
34444 6909 3318 6
34445 6909 23 43
34446 6909 1638 30
34447 6909 385 63
34448 6909 6617 83
34449 6909 6910 50
34450 6909 2844 82
34451 6909 848 68
34452 6910 5547 47
34453 6910 9047 7
34454 6910 623 40
34455 6910 8211 6
34456 6910 6148 96
34457 6910 9557 38
34458 6910 2804 51
34459 6911 784 14
34460 6912 3529 43
34461 6913 2943 56
34462 6913 6680 65
34463 6913 2239 97
34464 6913 1937 83
34465 6913 5505 96
34466 6913 2873 33
34467 6913 8282 85
34468 6913 2850 63
34469 6913 5759 15
34470 6914 4428 42
34471 6914 7440 43
34472 6915 4958 8
34473 6915 9252 70
34474 6915 7586 46
34475 6915 4153 80
34476 6915 5006 49
34477 6916 6234 39
34478 6916 6110 30
34479 6916 5667 74
34480 6916 2346 90
34481 6916 4981 15
34482 6916 1308 12
34483 6916 7068 1
34484 6916 2803 1
34485 6916 7159 56
34486 6917 7573 99
34487 6917 7445 82
34488 6917 7408 62
34489 6917 3264 9
34490 6917 1093 4
34491 6917 354 100
34492 6918 3962 18
34493 6918 3523 71
34494 6918 3451 69
34495 6918 573 81
34496 6918 593 59
34497 6918 9972 86
34498 6919 3568 75
34499 6919 1570 52
34500 6919 819 100
34501 6919 5682 71
34502 6919 8925 62
34503 6920 4357 60
34504 6920 9258 77
34505 6920 6757 10
34506 6920 7524 76
34507 6920 3078 83
34508 6920 5731 68
34509 6920 7772 45
34510 6921 7281 18
34511 6921 8572 40
34512 6921 9258 12
34513 6921 3436 44
34514 6921 4512 32
34515 6921 1213 56
34516 6922 1883 80
34517 6922 2280 12
34518 6922 231 91
34519 6923 1963 77
34520 6923 9532 51
34521 6923 5860 68
34522 6924 500 82
34523 6924 7068 27
34524 6925 5835 88
34525 6925 1787 75
34526 6925 8444 19
34527 6925 8163 50
34528 6925 8525 92
34529 6926 3677 3
34530 6926 4165 13
34531 6926 5544 58
34532 6926 663 89
34533 6926 7131 61
34534 6926 4017 51
34535 6927 9756 5
34536 6927 3682 87
34537 6927 7436 3
34538 6927 8790 45
34539 6927 2963 49
34540 6928 2317 94
34541 6928 1975 3
34542 6928 1635 2
34543 6928 2525 76
34544 6928 3462 52
34545 6928 7052 95
34546 6928 119 10
34547 6929 445 78
34548 6929 1028 20
34549 6929 9618 100
34550 6929 5824 32
34551 6929 2240 59
34552 6929 1366 24
34553 6929 7377 54
34554 6929 4279 83
34555 6929 8733 83
34556 6929 6683 69
34557 6930 1863 75
34558 6930 3440 16
34559 6930 9143 7
34560 6930 1608 99
34561 6930 1658 86
34562 6930 2401 24
34563 6930 9247 43
34564 6930 1485 44
34565 6930 1266 36
34566 6931 7852 47
34567 6931 5276 67
34568 6931 457 55
34569 6931 1147 38
34570 6931 2725 46
34571 6931 6471 73
34572 6931 4436 22
34573 6932 4743 50
34574 6932 8497 23
34575 6932 6381 69
34576 6933 109 56
34577 6934 5559 65
34578 6934 2176 75
34579 6934 2248 58
34580 6934 1005 32
34581 6935 2459 66
34582 6935 5943 63
34583 6935 16 14
34584 6935 5509 80
34585 6935 7967 62
34586 6935 1543 73
34587 6935 2391 28
34588 6935 2284 11
34589 6935 8312 15
34590 6936 6598 93
34591 6936 8826 45
34592 6937 9933 46
34593 6937 5689 95
34594 6937 7619 80
34595 6938 4994 20
34596 6938 185 42
34597 6938 7888 83
34598 6939 2797 100
34599 6939 6641 82
34600 6939 6943 62
34601 6939 2282 12
34602 6939 8465 38
34603 6940 6658 54
34604 6940 6501 48
34605 6940 5607 31
34606 6940 2340 59
34607 6940 3792 100
34608 6940 4042 84
34609 6940 7624 8
34610 6940 3113 69
34611 6940 6280 27
34612 6941 5852 93
34613 6941 3935 82
34614 6941 4562 55
34615 6941 3407 56
34616 6941 3173 30
34617 6941 8195 52
34618 6941 4244 98
34619 6942 1305 55
34620 6942 9795 92
34621 6942 7994 27
34622 6943 3124 19
34623 6943 6906 91
34624 6943 3607 17
34625 6943 9196 87
34626 6944 8014 54
34627 6944 3396 38
34628 6944 254 5
34629 6944 9983 90
34630 6944 8126 21
34631 6945 8887 60
34632 6945 1770 72
34633 6945 5317 88
34634 6945 2017 91
34635 6945 28 43
34636 6945 325 31
34637 6946 766 28
34638 6946 5819 51
34639 6946 5180 32
34640 6946 4561 57
34641 6947 338 38
34642 6947 9199 27
34643 6947 1945 36
34644 6948 9180 4
34645 6948 9730 50
34646 6948 5456 41
34647 6948 5638 53
34648 6948 7892 36
34649 6948 6321 92
34650 6948 9162 89
34651 6949 1525 75
34652 6949 1238 47
34653 6950 6469 64
34654 6950 6697 85
34655 6950 4389 74
34656 6950 6272 59
34657 6951 4438 14
34658 6951 2376 19
34659 6951 6418 16
34660 6951 9088 81
34661 6951 8375 79
34662 6951 7413 13
34663 6952 5042 11
34664 6952 1325 52
34665 6952 1973 4
34666 6952 1103 68
34667 6952 5774 34
34668 6952 676 86
34669 6952 504 74
34670 6952 7306 46
34671 6952 1411 92
34672 6952 1514 95
34673 6953 766 41
34674 6953 2874 18
34675 6953 1179 47
34676 6953 7980 50
34677 6953 4498 32
34678 6953 5510 32
34679 6953 9934 39
34680 6954 2407 9
34681 6954 9891 90
34682 6954 2642 31
34683 6954 8007 72
34684 6954 81 58
34685 6954 7227 27
34686 6954 1465 15
34687 6955 4274 62
34688 6955 2331 23
34689 6955 2921 40
34690 6955 6543 13
34691 6955 6483 55
34692 6955 2844 8
34693 6955 8356 99
34694 6955 644 56
34695 6956 671 26
34696 6956 753 100
34697 6956 5910 55
34698 6956 1412 30
34699 6956 2478 39
34700 6956 5705 25
34701 6957 7880 10
34702 6957 4306 29
34703 6957 6828 54
34704 6957 7985 24
34705 6958 3348 32
34706 6959 3877 18
34707 6959 7900 78
34708 6959 9792 36
34709 6959 7688 47
34710 6959 1564 26
34711 6960 3499 86
34712 6960 386 98
34713 6960 8369 4
34714 6961 2975 19
34715 6961 4001 51
34716 6961 7325 36
34717 6961 1915 21
34718 6962 1672 43
34719 6962 7171 100
34720 6962 6382 88
34721 6962 3021 50
34722 6962 2073 24
34723 6963 3572 70
34724 6963 5654 28
34725 6963 6997 73
34726 6963 5013 77
34727 6964 6212 33
34728 6964 5386 32
34729 6965 9683 75
34730 6965 9888 48
34731 6965 8596 78
34732 6965 4826 9
34733 6965 2657 31
34734 6966 5190 62
34735 6966 2796 81
34736 6966 179 61
34737 6966 589 21
34738 6966 1003 56
34739 6967 395 89
34740 6967 6401 49
34741 6967 9271 15
34742 6967 83 31
34743 6967 3940 3
34744 6968 3430 34
34745 6968 951 71
34746 6968 6241 99
34747 6969 7994 57
34748 6970 7111 48
34749 6970 3196 56
34750 6970 2289 48
34751 6970 4130 88
34752 6970 2955 2
34753 6970 6476 85
34754 6970 6535 6
34755 6970 3654 63
34756 6971 4017 64
34757 6971 4872 55
34758 6971 4311 90
34759 6972 9668 94
34760 6972 2077 6
34761 6972 4983 45
34762 6972 8952 51
34763 6972 6245 7
34764 6972 6122 98
34765 6972 8501 92
34766 6972 8555 53
34767 6972 2528 81
34768 6973 5367 81
34769 6973 7441 96
34770 6973 9040 29
34771 6974 6952 67
34772 6974 5255 15
34773 6974 5934 23
34774 6974 9762 18
34775 6974 4868 44
34776 6974 9904 62
34777 6974 2323 55
34778 6974 3232 9
34779 6974 770 64
34780 6974 5846 57
34781 6974 5688 53
34782 6975 8043 30
34783 6975 388 70
34784 6975 3043 80
34785 6976 1585 67
34786 6976 5207 18
34787 6976 4613 13
34788 6977 7264 53
34789 6977 5044 44
34790 6977 3838 83
34791 6977 9667 1
34792 6977 3891 50
34793 6978 866 10
34794 6978 5798 13
34795 6978 4665 63
34796 6978 8127 79
34797 6979 3428 29
34798 6979 4099 73
34799 6979 3558 51
34800 6979 369 98
34801 6979 6014 89
34802 6979 2889 35
34803 6979 9506 77
34804 6979 595 6
34805 6979 5795 38
34806 6979 9720 48
34807 6979 3966 48
34808 6980 4289 86
34809 6980 7360 91
34810 6980 5083 91
34811 6980 6914 7
34812 6980 8129 5
34813 6980 9472 22
34814 6980 17 94
34815 6981 8210 76
34816 6981 9735 80
34817 6981 8093 31
34818 6981 641 66
34819 6981 5207 45
34820 6982 5547 15
34821 6982 9795 18
34822 6982 3790 58
34823 6982 6772 68
34824 6982 3277 65
34825 6982 1434 21
34826 6983 9254 100
34827 6983 1788 71
34828 6983 860 13
34829 6983 1740 29
34830 6983 2294 8
34831 6983 4684 92
34832 6984 5702 23
34833 6984 3686 47
34834 6984 7619 27
34835 6984 6432 50
34836 6984 9273 69
34837 6984 787 12
34838 6984 4910 32
34839 6985 7675 37
34840 6985 6489 16
34841 6985 1462 78
34842 6985 858 35
34843 6986 2622 84
34844 6986 1171 62
34845 6986 7108 87
34846 6986 8091 26
34847 6986 5476 57
34848 6986 7434 76
34849 6986 6011 64
34850 6986 4408 22
34851 6986 7778 98
34852 6986 1543 55
34853 6986 4812 93
34854 6986 6438 85
34855 6986 8615 20
34856 6987 1829 84
34857 6987 1164 50
34858 6987 965 96
34859 6987 9080 79
34860 6987 880 54
34861 6988 7891 61
34862 6988 4044 51
34863 6988 4317 35
34864 6988 7012 17
34865 6988 7480 24
34866 6988 4884 27
34867 6989 7729 94
34868 6989 2882 97
34869 6989 7917 4
34870 6989 6807 65
34871 6989 921 36
34872 6990 2848 28
34873 6991 6256 17
34874 6991 5424 22
34875 6991 1539 34
34876 6991 8494 60
34877 6991 6441 59
34878 6991 6709 61
34879 6992 6108 42
34880 6992 4525 81
34881 6992 5423 82
34882 6992 2311 74
34883 6992 7273 30
34884 6992 6075 27
34885 6993 6058 45
34886 6993 9308 53
34887 6993 8790 43
34888 6993 105 84
34889 6993 235 46
34890 6993 872 66
34891 6994 930 9
34892 6994 1060 11
34893 6994 438 52
34894 6994 7865 87
34895 6994 4808 35
34896 6994 2199 30
34897 6994 5568 9
34898 6994 7812 50
34899 6995 1914 90
34900 6995 1091 1
34901 6995 7847 59
34902 6995 1747 71
34903 6996 5462 7
34904 6996 5986 21
34905 6996 5011 90
34906 6996 4421 88
34907 6996 6383 84
34908 6996 5513 94
34909 6996 996 64
34910 6997 7359 22
34911 6997 8664 68
34912 6997 374 42
34913 6997 5764 1
34914 6998 7194 24
34915 6998 8796 44
34916 6998 643 18
34917 6998 4278 99
34918 6998 3012 23
34919 6998 8831 63
34920 6999 3466 18
34921 6999 847 97
34922 6999 6252 53
34923 6999 5849 51
34924 7000 8004 92
34925 7000 2677 14
34926 7001 5942 79
34927 7001 727 15
34928 7001 934 75
34929 7001 148 46
34930 7002 114 77
34931 7002 1485 7
34932 7002 8619 70
34933 7002 8095 42
34934 7002 1776 94
34935 7003 1809 46
34936 7003 8366 76
34937 7003 9265 92
34938 7004 2164 37
34939 7004 469 38
34940 7004 7563 40
34941 7005 7484 92
34942 7005 3722 16
34943 7005 5716 14
34944 7005 7977 37
34945 7006 267 48
34946 7006 1868 59
34947 7006 1481 12
34948 7006 9302 36
34949 7007 4111 40
34950 7007 3026 93
34951 7007 2231 17
34952 7007 5477 20
34953 7007 3002 75
34954 7008 734 9
34955 7008 6909 9
34956 7008 2597 19
34957 7008 2280 44
34958 7009 2736 9
34959 7009 9799 90
34960 7009 5854 23
34961 7009 4718 96
34962 7009 3266 47
34963 7010 5434 28
34964 7010 949 38
34965 7010 4777 85
34966 7010 1506 63
34967 7011 7253 86
34968 7011 1319 24
34969 7011 739 31
34970 7011 2114 34
34971 7011 4607 54
34972 7011 4716 39
34973 7011 519 38
34974 7011 9228 34
34975 7011 5811 22
34976 7012 4918 64
34977 7012 2643 35
34978 7012 2858 3
34979 7012 2056 31
34980 7012 3670 8
34981 7012 237 89
34982 7012 9414 58
34983 7012 3963 25
34984 7013 3901 76
34985 7013 4045 91
34986 7013 1066 98
34987 7013 1275 15
34988 7013 9904 19
34989 7013 8708 96
34990 7014 5485 63
34991 7014 6184 88
34992 7015 2091 39
34993 7015 590 71
34994 7015 5230 27
34995 7015 4019 55
34996 7015 4462 98
34997 7015 6861 28
34998 7015 9701 12
34999 7015 6798 2
35000 7015 4149 17
35001 7016 1626 79
35002 7016 4202 66
35003 7016 7861 84
35004 7016 9073 90
35005 7017 2957 30
35006 7017 171 50
35007 7017 9962 23
35008 7017 553 74
35009 7017 7668 26
35010 7018 4716 30
35011 7018 2824 4
35012 7018 2411 95
35013 7018 6830 62
35014 7018 597 3
35015 7018 5161 10
35016 7019 5352 3
35017 7019 2635 6
35018 7019 9566 75
35019 7020 3105 41
35020 7020 4665 61
35021 7020 8247 38
35022 7020 5023 15
35023 7020 2532 14
35024 7020 8371 29
35025 7021 553 61
35026 7021 771 44
35027 7022 7023 86
35028 7022 1986 86
35029 7022 4224 57
35030 7022 9762 31
35031 7022 9108 71
35032 7022 4245 82
35033 7022 834 82
35034 7023 2176 8
35035 7023 680 7
35036 7023 6089 59
35037 7023 8854 44
35038 7023 4397 84
35039 7023 6075 10
35040 7023 1460 69
35041 7024 159 94
35042 7024 9643 57
35043 7024 3437 28
35044 7024 9398 18
35045 7024 3596 39
35046 7024 6545 91
35047 7024 786 22
35048 7025 306 37
35049 7025 2358 76
35050 7025 3191 95
35051 7025 1942 55
35052 7026 7460 86
35053 7026 1165 20
35054 7026 4504 83
35055 7026 7951 41
35056 7027 4101 7
35057 7027 4866 80
35058 7027 9645 38
35059 7027 3651 82
35060 7027 7193 37
35061 7027 1217 99
35062 7027 2499 37
35063 7028 4149 89
35064 7028 1410 46
35065 7028 7501 42
35066 7028 6113 21
35067 7028 5197 72
35068 7028 1608 85
35069 7028 9989 86
35070 7028 7430 85
35071 7028 1053 61
35072 7028 3980 55
35073 7029 9071 85
35074 7029 8603 47
35075 7029 4591 53
35076 7030 2679 12
35077 7030 4877 38
35078 7030 6134 50
35079 7030 7422 52
35080 7031 1262 9
35081 7031 4676 82
35082 7031 1428 68
35083 7032 198 55
35084 7032 6213 49
35085 7032 9285 7
35086 7033 3066 65
35087 7034 1492 67
35088 7034 6349 40
35089 7034 4327 40
35090 7035 5589 10
35091 7035 1029 62
35092 7035 2978 64
35093 7035 3657 89
35094 7035 2917 85
35095 7036 7235 74
35096 7036 1244 22
35097 7036 3402 9
35098 7036 2447 94
35099 7036 9780 52
35100 7036 3191 62
35101 7036 8751 69
35102 7037 5722 57
35103 7038 7578 60
35104 7038 5599 46
35105 7038 4497 4
35106 7038 1645 97
35107 7038 1528 43
35108 7038 2015 12
35109 7038 3044 91
35110 7038 8265 22
35111 7038 181 58
35112 7038 5870 51
35113 7039 6392 19
35114 7040 2640 36
35115 7040 7659 89
35116 7040 2934 79
35117 7040 3403 6
35118 7040 9522 89
35119 7040 2431 79
35120 7041 1328 54
35121 7041 4638 99
35122 7041 9218 35
35123 7041 2704 33
35124 7042 7196 79
35125 7042 2768 19
35126 7042 5799 22
35127 7042 9139 32
35128 7042 7048 93
35129 7042 7371 96
35130 7042 5289 58
35131 7043 5065 66
35132 7043 4584 97
35133 7043 7395 30
35134 7043 4714 51
35135 7043 7662 41
35136 7043 5563 11
35137 7044 8015 44
35138 7044 9814 67
35139 7044 3255 46
35140 7045 2513 65
35141 7045 272 1
35142 7045 2777 35
35143 7045 3761 22
35144 7046 2766 70
35145 7046 2826 60
35146 7046 3289 72
35147 7046 4988 86
35148 7047 4393 13
35149 7047 6217 33
35150 7047 8847 10
35151 7047 2059 40
35152 7047 5875 90
35153 7047 4857 66
35154 7048 215 16
35155 7048 6359 23
35156 7048 5114 5
35157 7048 4976 16
35158 7048 9693 16
35159 7048 7593 36
35160 7048 4480 87
35161 7049 4987 32
35162 7049 1009 53
35163 7049 9623 54
35164 7050 8384 74
35165 7050 3299 53
35166 7050 7174 16
35167 7050 5778 79
35168 7050 9085 77
35169 7050 9119 10
35170 7052 4053 95
35171 7052 9730 64
35172 7052 710 8
35173 7052 9455 99
35174 7053 1651 37
35175 7053 5888 10
35176 7053 9630 45
35177 7053 6016 9
35178 7054 1341 53
35179 7054 9697 69
35180 7054 8197 2
35181 7054 12 13
35182 7054 3416 5
35183 7054 8242 89
35184 7054 5023 74
35185 7055 1416 65
35186 7055 2935 53
35187 7055 3489 91
35188 7055 6899 64
35189 7055 4226 94
35190 7056 5046 51
35191 7056 2997 50
35192 7057 6759 88
35193 7057 3593 11
35194 7057 2010 93
35195 7057 2973 33
35196 7057 7819 50
35197 7058 1287 12
35198 7058 1196 68
35199 7058 855 69
35200 7058 8804 72
35201 7058 6051 88
35202 7059 3520 55
35203 7059 574 33
35204 7059 9260 41
35205 7059 8177 54
35206 7059 5771 99
35207 7059 843 37
35208 7060 5722 24
35209 7060 2521 50
35210 7060 8524 90
35211 7060 1925 23
35212 7060 4400 16
35213 7060 4683 83
35214 7060 7250 63
35215 7061 898 57
35216 7061 8059 75
35217 7061 6372 64
35218 7061 3267 31
35219 7061 6645 68
35220 7062 7275 15
35221 7062 3987 16
35222 7062 4677 37
35223 7062 8682 36
35224 7062 5193 39
35225 7063 1727 17
35226 7063 1677 19
35227 7063 7692 77
35228 7063 2827 60
35229 7063 3001 85
35230 7064 8417 95
35231 7064 8357 51
35232 7064 1542 11
35233 7065 2811 98
35234 7065 835 4
35235 7066 3925 69
35236 7066 4630 85
35237 7066 9271 29
35238 7066 3494 20
35239 7067 8785 20
35240 7067 9065 45
35241 7067 1526 69
35242 7067 5894 94
35243 7067 4498 94
35244 7067 7279 85
35245 7068 9559 94
35246 7068 5439 37
35247 7069 1964 40
35248 7069 3951 30
35249 7069 2263 6
35250 7069 7780 76
35251 7069 535 95
35252 7069 6510 47
35253 7069 2578 44
35254 7069 9019 25
35255 7070 8605 16
35256 7070 5214 17
35257 7070 5573 81
35258 7070 9234 9
35259 7070 5881 46
35260 7070 7379 47
35261 7070 7378 57
35262 7071 7372 20
35263 7071 5258 72
35264 7071 628 86
35265 7071 4749 14
35266 7071 9829 23
35267 7071 7958 14
35268 7071 7809 34
35269 7072 7168 22
35270 7072 834 91
35271 7072 3073 12
35272 7072 3047 5
35273 7073 9622 8
35274 7073 8534 64
35275 7073 2535 5
35276 7073 167 47
35277 7073 2568 31
35278 7073 3045 32
35279 7074 2072 14
35280 7074 5878 6
35281 7074 3077 64
35282 7074 7550 36
35283 7075 492 4
35284 7075 354 12
35285 7076 1941 24
35286 7076 6343 84
35287 7076 4817 74
35288 7076 7433 64
35289 7076 1477 20
35290 7076 5375 32
35291 7077 5949 89
35292 7078 1075 29
35293 7078 1733 91
35294 7078 7859 26
35295 7078 4631 82
35296 7078 704 5
35297 7078 3035 62
35298 7079 1580 24
35299 7079 9972 6
35300 7079 4153 29
35301 7079 3042 41
35302 7079 8119 67
35303 7079 282 69
35304 7079 8002 61
35305 7079 4187 41
35306 7080 8674 68
35307 7080 6852 78
35308 7080 1962 43
35309 7081 101 83
35310 7081 8638 8
35311 7082 2478 10
35312 7082 155 95
35313 7082 2893 8
35314 7082 5452 20
35315 7082 2414 77
35316 7082 7977 52
35317 7082 8338 53
35318 7082 8395 97
35319 7082 4764 30
35320 7082 472 95
35321 7083 6096 26
35322 7083 4937 14
35323 7083 4521 91
35324 7083 4573 71
35325 7084 4248 30
35326 7084 8552 22
35327 7084 2033 8
35328 7084 4287 22
35329 7084 4141 35
35330 7084 8136 82
35331 7085 8862 35
35332 7085 6195 94
35333 7085 2493 99
35334 7085 4284 67
35335 7085 77 50
35336 7085 6567 92
35337 7086 8947 37
35338 7086 7387 10
35339 7086 7888 74
35340 7086 9919 56
35341 7086 4537 5
35342 7086 2648 97
35343 7086 7851 41
35344 7087 623 95
35345 7087 5388 16
35346 7087 6370 32
35347 7088 449 20
35348 7088 490 86
35349 7088 3027 57
35350 7088 8855 19
35351 7089 8848 82
35352 7089 7879 54
35353 7089 2623 3
35354 7089 4436 38
35355 7089 9548 28
35356 7089 2664 66
35357 7089 9439 54
35358 7089 6410 45
35359 7089 6685 56
35360 7089 4165 93
35361 7090 3754 1
35362 7090 2444 72
35363 7090 7982 6
35364 7090 3785 42
35365 7090 2508 99
35366 7090 537 52
35367 7091 8696 14
35368 7091 2492 69
35369 7091 3575 75
35370 7091 541 70
35371 7091 848 46
35372 7092 7019 10
35373 7092 9331 40
35374 7092 3123 79
35375 7093 4227 20
35376 7093 4167 36
35377 7094 2215 25
35378 7094 6168 24
35379 7094 7596 100
35380 7095 192 19
35381 7095 7636 12
35382 7095 4559 24
35383 7095 103 33
35384 7096 8851 97
35385 7096 6379 46
35386 7096 1189 10
35387 7096 6129 91
35388 7097 4897 3
35389 7097 3057 17
35390 7097 424 91
35391 7097 5179 20
35392 7097 660 53
35393 7097 1640 18
35394 7097 103 66
35395 7097 1998 54
35396 7098 8658 63
35397 7098 9547 47
35398 7099 5931 94
35399 7099 8998 25
35400 7099 8791 71
35401 7099 9256 79
35402 7099 1982 33
35403 7099 4756 18
35404 7099 6094 65
35405 7099 6637 9
35406 7099 3221 60
35407 7099 9251 80
35408 7100 7617 60
35409 7100 1770 81
35410 7100 2965 76
35411 7100 5975 31
35412 7101 8597 46
35413 7101 9188 29
35414 7101 2027 77
35415 7101 8848 97
35416 7101 4351 21
35417 7101 1486 67
35418 7101 7692 18
35419 7101 8744 7
35420 7101 8537 2
35421 7102 4244 25
35422 7102 9356 97
35423 7102 2989 13
35424 7102 9087 31
35425 7103 1076 22
35426 7103 9408 18
35427 7103 2325 66
35428 7103 4470 51
35429 7104 9576 85
35430 7104 1998 60
35431 7104 1142 59
35432 7105 6497 71
35433 7105 3428 42
35434 7105 4948 1
35435 7105 3939 72
35436 7105 5016 29
35437 7106 4752 37
35438 7106 3927 9
35439 7107 6783 99
35440 7108 4005 44
35441 7108 1530 56
35442 7108 634 20
35443 7108 4902 19
35444 7108 7444 68
35445 7108 3144 7
35446 7109 4923 5
35447 7109 8470 76
35448 7109 5391 62
35449 7109 9968 80
35450 7109 68 97
35451 7109 2468 81
35452 7110 3186 89
35453 7110 50 12
35454 7110 4431 63
35455 7110 2340 37
35456 7110 2266 54
35457 7110 6719 60
35458 7110 8045 53
35459 7111 8092 33
35460 7111 3901 90
35461 7111 2545 11
35462 7111 4066 57
35463 7112 8727 93
35464 7112 5231 35
35465 7112 3539 4
35466 7112 5283 59
35467 7113 1870 64
35468 7113 8465 90
35469 7113 5873 45
35470 7114 858 20
35471 7114 231 59
35472 7114 9585 76
35473 7115 2625 81
35474 7115 3631 8
35475 7115 1951 16
35476 7115 7161 45
35477 7115 2153 59
35478 7116 1733 26
35479 7116 3624 41
35480 7116 9940 30
35481 7116 3211 38
35482 7116 6795 67
35483 7116 3259 57
35484 7117 5733 18
35485 7117 9665 2
35486 7117 7969 6
35487 7117 2551 54
35488 7117 4294 12
35489 7118 5720 74
35490 7118 3350 38
35491 7118 551 97
35492 7119 3179 44
35493 7119 9457 55
35494 7119 3083 48
35495 7119 3844 80
35496 7119 1841 74
35497 7119 3706 7
35498 7120 7109 47
35499 7120 3373 65
35500 7120 584 23
35501 7120 8339 11
35502 7120 3830 92
35503 7120 2700 39
35504 7120 9757 42
35505 7120 4702 17
35506 7121 8327 41
35507 7121 9921 1
35508 7121 416 43
35509 7122 3075 64
35510 7122 983 7
35511 7122 4642 44
35512 7122 1469 77
35513 7122 9687 24
35514 7122 1709 21
35515 7123 61 47
35516 7123 4715 61
35517 7124 1968 37
35518 7124 5667 21
35519 7124 9339 14
35520 7124 4685 17
35521 7124 5865 69
35522 7125 8993 76
35523 7125 4068 98
35524 7125 7393 37
35525 7126 5704 36
35526 7126 8737 42
35527 7126 2350 57
35528 7126 6616 22
35529 7126 2278 9
35530 7126 2409 83
35531 7126 6672 24
35532 7127 530 13
35533 7127 4425 40
35534 7127 9413 29
35535 7127 2341 3
35536 7127 3656 79
35537 7127 8003 41
35538 7128 4259 33
35539 7128 5341 8
35540 7128 2572 19
35541 7128 8973 89
35542 7129 5706 76
35543 7129 2553 14
35544 7129 6480 16
35545 7129 6111 96
35546 7129 8692 5
35547 7129 9580 77
35548 7129 6450 57
35549 7130 4920 49
35550 7130 5905 17
35551 7130 7259 18
35552 7131 3140 60
35553 7131 6359 98
35554 7131 1597 10
35555 7131 6467 63
35556 7131 1514 13
35557 7131 4640 14
35558 7131 2098 23
35559 7131 8736 88
35560 7132 2257 74
35561 7132 4175 68
35562 7133 9004 97
35563 7133 9174 75
35564 7133 1391 16
35565 7133 3556 32
35566 7133 1981 4
35567 7133 1339 82
35568 7133 8953 27
35569 7133 1605 19
35570 7133 3584 54
35571 7134 8351 33
35572 7134 3252 95
35573 7134 9024 55
35574 7134 6466 98
35575 7135 7534 39
35576 7135 7968 26
35577 7135 3228 84
35578 7136 4428 39
35579 7136 4581 41
35580 7136 9256 40
35581 7136 3293 33
35582 7136 985 31
35583 7136 3911 33
35584 7137 1357 47
35585 7138 840 22
35586 7138 1888 87
35587 7138 8993 37
35588 7138 2494 48
35589 7138 6137 78
35590 7138 852 32
35591 7138 9104 22
35592 7138 7166 27
35593 7139 6614 31
35594 7139 1055 29
35595 7139 3265 44
35596 7139 7902 84
35597 7140 5880 58
35598 7140 4388 80
35599 7140 5815 64
35600 7140 2641 78
35601 7140 8547 90
35602 7140 9407 17
35603 7140 6813 26
35604 7141 5849 4
35605 7141 9007 53
35606 7141 9901 17
35607 7141 1627 27
35608 7142 1858 24
35609 7142 1552 35
35610 7142 2851 73
35611 7142 4583 93
35612 7142 5760 71
35613 7142 4618 15
35614 7143 8010 63
35615 7143 1074 44
35616 7143 3212 76
35617 7143 672 84
35618 7144 2810 54
35619 7144 4457 84
35620 7144 4811 31
35621 7145 8777 26
35622 7145 4520 15
35623 7145 9013 22
35624 7145 1214 74
35625 7146 2350 37
35626 7146 7540 56
35627 7146 1745 18
35628 7146 2523 68
35629 7146 891 1
35630 7146 696 19
35631 7146 5014 97
35632 7146 8890 2
35633 7147 6837 52
35634 7147 4025 11
35635 7147 1098 87
35636 7147 165 50
35637 7147 138 6
35638 7147 5582 41
35639 7147 9157 67
35640 7148 4014 84
35641 7148 2508 55
35642 7148 8688 38
35643 7148 6752 10
35644 7148 5186 69
35645 7148 8620 48
35646 7148 4201 76
35647 7148 3827 24
35648 7148 9648 63
35649 7148 5053 22
35650 7149 1789 52
35651 7149 7107 16
35652 7149 9122 31
35653 7149 834 65
35654 7149 6654 96
35655 7149 933 37
35656 7150 3473 32
35657 7150 8863 87
35658 7150 7908 97
35659 7150 1725 73
35660 7151 8812 45
35661 7151 9550 10
35662 7151 8140 71
35663 7151 8073 2
35664 7151 8448 100
35665 7151 6489 78
35666 7152 6275 54
35667 7152 1852 12
35668 7152 5344 83
35669 7153 1465 99
35670 7153 126 16
35671 7153 8391 4
35672 7153 6065 12
35673 7153 7862 74
35674 7153 7683 57
35675 7153 8756 61
35676 7154 5496 90
35677 7154 3478 46
35678 7154 9964 92
35679 7154 6361 19
35680 7155 8153 52
35681 7155 6434 71
35682 7155 9558 48
35683 7155 3690 53
35684 7155 5637 96
35685 7155 6510 28
35686 7155 6628 32
35687 7156 820 75
35688 7156 860 85
35689 7156 2111 24
35690 7156 8551 29
35691 7156 4290 64
35692 7156 6446 81
35693 7157 9871 71
35694 7157 7651 13
35695 7157 2999 4
35696 7157 4942 93
35697 7157 1798 75
35698 7158 8556 17
35699 7158 6297 71
35700 7158 4812 81
35701 7158 2310 37
35702 7158 7985 1
35703 7159 4071 23
35704 7159 8292 5
35705 7159 9726 38
35706 7160 3187 18
35707 7161 3294 22
35708 7161 1999 22
35709 7161 8550 81
35710 7161 7476 56
35711 7162 4988 45
35712 7162 314 68
35713 7162 1750 1
35714 7162 6657 68
35715 7163 2216 49
35716 7163 9111 99
35717 7163 9273 99
35718 7163 5378 84
35719 7164 4437 49
35720 7164 6071 83
35721 7164 463 76
35722 7164 238 8
35723 7165 5544 50
35724 7165 6581 17
35725 7166 7152 86
35726 7166 7637 2
35727 7166 4437 77
35728 7166 1627 17
35729 7166 2244 53
35730 7167 8871 67
35731 7167 7067 72
35732 7167 8028 95
35733 7167 7289 91
35734 7167 9680 50
35735 7168 6914 62
35736 7168 4622 16
35737 7169 8271 98
35738 7169 4241 31
35739 7169 51 74
35740 7169 4524 30
35741 7169 3574 20
35742 7169 4536 39
35743 7169 2288 53
35744 7170 1173 81
35745 7170 5444 35
35746 7170 2553 88
35747 7170 8211 54
35748 7170 9458 25
35749 7170 1056 27
35750 7171 3558 68
35751 7171 9658 91
35752 7171 1550 4
35753 7171 326 19
35754 7171 9012 43
35755 7171 7754 36
35756 7172 8134 88
35757 7172 2749 75
35758 7172 889 60
35759 7172 7088 96
35760 7172 6761 32
35761 7173 8302 55
35762 7173 5430 39
35763 7173 616 38
35764 7173 37 36
35765 7173 2272 58
35766 7173 3175 73
35767 7174 2297 25
35768 7174 7563 33
35769 7174 4867 99
35770 7174 4430 82
35771 7174 3613 53
35772 7174 7829 14
35773 7174 6545 88
35774 7174 3793 24
35775 7174 9455 3
35776 7175 6410 26
35777 7175 6067 49
35778 7176 2628 91
35779 7176 5155 42
35780 7176 3339 2
35781 7176 4775 63
35782 7176 2040 31
35783 7176 3874 72
35784 7177 2577 45
35785 7177 3456 57
35786 7177 1700 38
35787 7178 8000 34
35788 7178 5008 68
35789 7178 1767 24
35790 7179 9542 22
35791 7179 583 81
35792 7179 6519 75
35793 7180 4100 36
35794 7180 7282 5
35795 7180 4202 91
35796 7180 2843 25
35797 7180 4896 60
35798 7181 2068 72
35799 7181 5942 15
35800 7181 7084 69
35801 7181 9704 95
35802 7182 3466 97
35803 7182 6946 28
35804 7182 2682 99
35805 7182 8984 59
35806 7182 461 29
35807 7183 3040 90
35808 7183 9010 15
35809 7183 8552 21
35810 7183 6225 85
35811 7183 8599 85
35812 7183 840 11
35813 7184 5026 33
35814 7184 6479 85
35815 7184 9827 85
35816 7184 254 29
35817 7185 1947 52
35818 7185 2287 48
35819 7185 6248 35
35820 7185 8051 88
35821 7185 2054 31
35822 7186 3105 18
35823 7186 4927 81
35824 7186 7624 13
35825 7186 7970 22
35826 7187 7545 68
35827 7187 4038 84
35828 7187 7490 17
35829 7187 3169 60
35830 7187 3983 44
35831 7187 1202 88
35832 7187 9595 77
35833 7187 5971 48
35834 7187 4541 77
35835 7188 7720 17
35836 7188 9289 33
35837 7188 5336 22
35838 7188 6789 50
35839 7188 3456 45
35840 7189 6606 1
35841 7189 9249 71
35842 7189 6662 80
35843 7189 1733 89
35844 7190 3853 100
35845 7190 7463 24
35846 7191 5605 54
35847 7191 6054 47
35848 7191 1307 7
35849 7191 2473 51
35850 7191 4596 21
35851 7191 568 20
35852 7192 1855 23
35853 7192 3053 82
35854 7192 4309 25
35855 7192 7127 48
35856 7192 8978 12
35857 7192 1160 4
35858 7192 6771 89
35859 7192 4699 45
35860 7193 2060 31
35861 7193 3389 39
35862 7193 9757 16
35863 7193 7860 97
35864 7193 7132 51
35865 7193 175 71
35866 7194 9366 37
35867 7194 3699 59
35868 7195 963 59
35869 7195 873 32
35870 7195 7148 59
35871 7195 1039 43
35872 7195 9116 58
35873 7195 3248 55
35874 7195 7674 3
35875 7195 757 12
35876 7195 4650 94
35877 7196 6960 8
35878 7196 4864 53
35879 7196 2034 59
35880 7197 3525 45
35881 7197 5499 45
35882 7197 8312 79
35883 7197 6884 40
35884 7197 349 86
35885 7198 620 2
35886 7198 8035 56
35887 7198 1382 86
35888 7198 6610 37
35889 7198 4890 17
35890 7198 111 65
35891 7198 9911 10
35892 7199 7210 1
35893 7199 6849 14
35894 7199 9373 25
35895 7199 4375 5
35896 7199 5396 26
35897 7200 4532 43
35898 7200 7787 66
35899 7200 8689 58
35900 7200 5750 43
35901 7200 2485 86
35902 7200 329 23
35903 7201 7578 93
35904 7201 1009 20
35905 7201 3878 32
35906 7201 9630 85
35907 7202 3858 91
35908 7202 9893 22
35909 7202 5733 79
35910 7203 8390 84
35911 7203 4700 83
35912 7203 242 53
35913 7204 6172 71
35914 7204 7161 10
35915 7204 851 98
35916 7205 8408 45
35917 7205 5982 23
35918 7206 5823 7
35919 7206 5221 36
35920 7206 6351 37
35921 7206 6668 65
35922 7206 5593 15
35923 7207 547 69
35924 7207 7847 64
35925 7207 8184 1
35926 7208 4641 42
35927 7208 8274 97
35928 7208 7270 76
35929 7208 8530 27
35930 7209 8008 20
35931 7209 630 53
35932 7209 9396 59
35933 7209 694 69
35934 7209 6665 34
35935 7209 6865 95
35936 7209 1968 67
35937 7209 2627 93
35938 7209 5125 11
35939 7210 3765 63
35940 7210 7236 87
35941 7210 6827 60
35942 7210 4242 12
35943 7210 6109 43
35944 7211 8602 48
35945 7211 215 43
35946 7211 5776 20
35947 7211 7352 84
35948 7211 6526 88
35949 7211 5467 74
35950 7211 2941 92
35951 7211 4911 65
35952 7212 9228 2
35953 7212 7936 59
35954 7212 4922 13
35955 7212 7319 10
35956 7212 8634 25
35957 7213 3455 65
35958 7213 8779 32
35959 7214 2391 38
35960 7214 3497 70
35961 7214 1296 1
35962 7214 7691 50
35963 7214 2217 62
35964 7215 5342 52
35965 7215 6405 45
35966 7215 5954 23
35967 7216 8737 6
35968 7216 2323 48
35969 7216 7721 31
35970 7216 815 37
35971 7216 5103 32
35972 7216 1977 81
35973 7216 1477 21
35974 7216 4097 77
35975 7216 8247 4
35976 7216 5817 7
35977 7216 6756 8
35978 7217 3891 32
35979 7218 10 7
35980 7218 3057 23
35981 7218 3545 94
35982 7218 6159 72
35983 7218 3208 96
35984 7218 8237 63
35985 7218 7219 71
35986 7218 4805 55
35987 7219 222 25
35988 7219 895 69
35989 7219 1385 45
35990 7219 8469 16
35991 7220 6220 93
35992 7220 6434 40
35993 7220 5980 86
35994 7221 5918 41
35995 7221 3139 84
35996 7221 391 65
35997 7221 4740 8
35998 7221 5492 85
35999 7221 2623 13
36000 7222 2819 59
36001 7222 4367 98
36002 7222 7792 97
36003 7222 9464 93
36004 7222 2381 22
36005 7222 2118 10
36006 7223 8589 27
36007 7223 2409 64
36008 7223 1898 94
36009 7223 3892 89
36010 7223 962 28
36011 7223 126 98
36012 7223 8675 79
36013 7223 1067 94
36014 7223 2231 73
36015 7223 9078 78
36016 7223 4248 58
36017 7224 350 7
36018 7224 2723 43
36019 7224 5485 92
36020 7224 8810 90
36021 7225 6740 43
36022 7225 7480 31
36023 7225 530 3
36024 7225 6084 87
36025 7225 2262 16
36026 7226 5869 60
36027 7226 9779 62
36028 7226 2486 7
36029 7226 4051 6
36030 7226 2691 11
36031 7227 1145 43
36032 7227 7874 11
36033 7227 4791 7
36034 7228 1505 68
36035 7228 9097 64
36036 7228 4830 35
36037 7228 7519 45
36038 7229 7558 78
36039 7229 7296 36
36040 7229 5543 78
36041 7229 1315 79
36042 7229 6044 97
36043 7229 4646 85
36044 7229 4574 81
36045 7230 4343 12
36046 7230 3332 73
36047 7230 8780 70
36048 7230 1644 75
36049 7230 4357 9
36050 7230 4180 26
36051 7230 6830 16
36052 7231 3860 60
36053 7231 6629 42
36054 7231 4173 95
36055 7231 9672 68
36056 7231 3328 32
36057 7231 1636 42
36058 7231 110 73
36059 7231 60 77
36060 7232 3207 19
36061 7232 9777 67
36062 7232 210 31
36063 7232 9905 69
36064 7232 400 1
36065 7233 1686 31
36066 7233 5569 61
36067 7233 5043 35
36068 7233 9017 14
36069 7233 1321 66
36070 7234 9544 96
36071 7234 8048 19
36072 7234 2369 36
36073 7234 6539 9
36074 7234 5471 63
36075 7234 5900 92
36076 7235 5777 2
36077 7235 341 17
36078 7235 7376 86
36079 7235 8920 55
36080 7235 1356 90
36081 7236 945 63
36082 7237 7814 28
36083 7237 2595 34
36084 7237 6520 43
36085 7237 8349 11
36086 7238 8469 77
36087 7238 2894 23
36088 7238 4192 65
36089 7238 3765 10
36090 7239 1833 5
36091 7239 8842 24
36092 7239 1827 64
36093 7239 2146 51
36094 7239 8208 6
36095 7240 7167 67
36096 7240 2751 34
36097 7240 5679 54
36098 7240 7364 32
36099 7241 4 96
36100 7241 1625 21
36101 7241 6239 98
36102 7241 9992 98
36103 7241 6089 96
36104 7241 4201 38
36105 7241 6627 3
36106 7241 7089 25
36107 7242 217 49
36108 7242 1104 36
36109 7242 2802 53
36110 7242 4146 6
36111 7243 4495 11
36112 7243 4048 98
36113 7243 1237 12
36114 7243 3651 69
36115 7244 4731 90
36116 7244 5872 71
36117 7244 2050 54
36118 7244 4618 78
36119 7244 6514 98
36120 7244 1167 31
36121 7245 9498 27
36122 7245 3745 32
36123 7245 3601 91
36124 7245 9002 23
36125 7245 7859 43
36126 7245 6274 92
36127 7246 4813 66
36128 7246 5444 8
36129 7246 9623 17
36130 7246 5834 7
36131 7247 6932 67
36132 7247 3811 80
36133 7247 8919 79
36134 7247 6335 52
36135 7247 4871 87
36136 7247 4449 57
36137 7247 3411 91
36138 7247 9076 88
36139 7248 2027 61
36140 7248 2811 77
36141 7248 5790 92
36142 7248 6414 3
36143 7248 4948 32
36144 7249 7097 63
36145 7250 8780 85
36146 7250 6255 34
36147 7250 9657 9
36148 7250 4535 54
36149 7250 370 98
36150 7250 8221 65
36151 7251 2788 32
36152 7251 1575 3
36153 7251 5764 25
36154 7251 9820 81
36155 7252 7270 52
36156 7252 6759 60
36157 7252 2519 46
36158 7253 4682 17
36159 7253 8753 100
36160 7253 9386 15
36161 7253 7867 97
36162 7253 1294 4
36163 7253 9015 16
36164 7253 9608 59
36165 7254 5714 2
36166 7254 658 23
36167 7254 6584 68
36168 7254 419 46
36169 7254 7739 45
36170 7254 5444 71
36171 7254 7477 30
36172 7254 3204 88
36173 7254 6230 17
36174 7255 7980 65
36175 7255 5252 72
36176 7255 9830 85
36177 7255 9639 52
36178 7256 8072 71
36179 7256 8163 74
36180 7256 6654 99
36181 7256 7111 10
36182 7256 1427 37
36183 7256 8098 64
36184 7256 4291 10
36185 7257 7897 60
36186 7257 4769 18
36187 7257 2932 82
36188 7258 4230 72
36189 7258 7393 67
36190 7259 217 77
36191 7259 4352 96
36192 7259 6920 66
36193 7259 9105 44
36194 7259 9976 53
36195 7259 8416 89
36196 7259 2861 16
36197 7259 3633 49
36198 7259 3101 61
36199 7260 1031 84
36200 7260 9943 91
36201 7260 9442 73
36202 7260 8610 80
36203 7260 1803 64
36204 7260 9009 32
36205 7260 8456 68
36206 7260 7830 18
36207 7260 4036 50
36208 7261 8204 53
36209 7261 7681 58
36210 7261 8740 55
36211 7261 1292 38
36212 7261 6052 91
36213 7262 6030 62
36214 7262 6139 69
36215 7262 6463 47
36216 7262 5711 97
36217 7263 9191 72
36218 7263 5674 30
36219 7263 3785 97
36220 7263 9663 89
36221 7264 2569 10
36222 7264 1969 8
36223 7264 1240 10
36224 7264 5470 17
36225 7264 6763 84
36226 7265 7717 100
36227 7265 5781 37
36228 7265 1201 50
36229 7265 4323 10
36230 7266 370 9
36231 7266 6115 69
36232 7266 4707 9
36233 7266 554 100
36234 7267 4169 10
36235 7267 9496 100
36236 7267 1583 70
36237 7267 1342 63
36238 7268 1880 89
36239 7268 2063 49
36240 7268 8111 70
36241 7269 5138 45
36242 7269 9058 74
36243 7269 4637 1
36244 7269 4156 8
36245 7269 486 78
36246 7270 3975 35
36247 7270 1121 3
36248 7270 9235 79
36249 7270 2047 85
36250 7270 7064 80
36251 7270 5791 20
36252 7270 1347 65
36253 7271 7860 59
36254 7271 4080 80
36255 7271 6 38
36256 7271 6946 89
36257 7271 7058 41
36258 7271 8985 86
36259 7272 2393 57
36260 7272 3907 1
36261 7272 2941 77
36262 7272 8088 6
36263 7272 4878 37
36264 7273 3355 83
36265 7273 8393 64
36266 7273 2868 77
36267 7273 9528 38
36268 7273 5714 95
36269 7274 7309 52
36270 7274 9308 12
36271 7274 6636 73
36272 7274 5401 38
36273 7274 7337 77
36274 7275 3863 84
36275 7275 2004 4
36276 7275 2030 75
36277 7276 8105 52
36278 7276 1224 83
36279 7276 5856 95
36280 7276 6704 100
36281 7276 2968 42
36282 7277 3046 89
36283 7277 1270 51
36284 7277 9936 70
36285 7277 1737 96
36286 7277 8313 50
36287 7278 7108 29
36288 7279 4990 94
36289 7279 7669 4
36290 7279 5584 12
36291 7279 7039 77
36292 7279 3035 27
36293 7280 319 75
36294 7280 2313 64
36295 7280 7936 69
36296 7280 3014 49
36297 7280 4029 91
36298 7280 2640 57
36299 7281 1060 61
36300 7281 1870 1
36301 7281 4338 56
36302 7281 2187 79
36303 7281 9797 5
36304 7281 4589 79
36305 7282 7351 91
36306 7282 4203 42
36307 7282 5298 88
36308 7282 5580 39
36309 7282 8996 23
36310 7283 2461 43
36311 7284 5828 5
36312 7284 3474 6
36313 7284 8616 97
36314 7284 4183 58
36315 7284 3852 68
36316 7284 1031 86
36317 7284 6558 79
36318 7286 836 9
36319 7286 7914 45
36320 7287 631 85
36321 7287 463 50
36322 7287 2228 20
36323 7288 7353 20
36324 7288 1343 28
36325 7288 2648 92
36326 7288 3080 82
36327 7288 9212 57
36328 7289 27 29
36329 7289 8381 96
36330 7289 8964 12
36331 7290 3824 62
36332 7290 4890 80
36333 7290 44 97
36334 7290 2369 54
36335 7290 1350 5
36336 7290 6157 30
36337 7290 6375 37
36338 7291 9374 39
36339 7291 7591 44
36340 7291 8707 51
36341 7291 1287 57
36342 7291 2475 56
36343 7291 79 21
36344 7291 8588 15
36345 7291 1779 24
36346 7291 4819 78
36347 7291 2496 100
36348 7292 740 27
36349 7292 6501 10
36350 7292 7817 69
36351 7292 2293 32
36352 7292 682 11
36353 7292 4759 75
36354 7293 5764 88
36355 7293 7350 72
36356 7293 8475 84
36357 7295 3621 30
36358 7296 8280 15
36359 7296 8926 15
36360 7296 1130 10
36361 7296 1056 49
36362 7297 805 70
36363 7297 8697 77
36364 7297 64 13
36365 7297 1746 19
36366 7297 7553 26
36367 7297 8810 64
36368 7297 7539 41
36369 7297 179 15
36370 7297 5948 71
36371 7298 5532 77
36372 7298 5535 59
36373 7299 9478 52
36374 7299 4392 19
36375 7299 2458 47
36376 7300 1125 57
36377 7300 9324 25
36378 7300 2073 52
36379 7301 1322 74
36380 7301 2658 36
36381 7301 1467 46
36382 7302 4353 35
36383 7302 1172 89
36384 7302 7393 64
36385 7302 2582 42
36386 7302 4425 66
36387 7302 518 29
36388 7302 6114 8
36389 7302 9486 83
36390 7302 1859 36
36391 7303 6526 23
36392 7303 1070 80
36393 7303 8385 44
36394 7304 3119 77
36395 7304 8557 52
36396 7305 594 16
36397 7306 2470 63
36398 7306 2320 46
36399 7307 7982 28
36400 7307 4260 90
36401 7307 2461 11
36402 7307 5202 35
36403 7307 225 18
36404 7307 2648 4
36405 7307 5999 74
36406 7308 8395 47
36407 7308 3368 21
36408 7308 7890 70
36409 7308 710 74
36410 7308 4937 36
36411 7308 925 28
36412 7309 6963 14
36413 7309 3747 75
36414 7309 8748 55
36415 7309 192 13
36416 7310 2127 99
36417 7310 3958 33
36418 7310 4966 82
36419 7310 9404 36
36420 7310 6046 99
36421 7311 7163 34
36422 7311 7914 62
36423 7311 7210 36
36424 7311 4195 81
36425 7311 5534 93
36426 7311 175 5
36427 7311 2010 77
36428 7312 7993 21
36429 7312 9137 60
36430 7312 9621 55
36431 7312 9666 17
36432 7313 6491 45
36433 7313 3864 17
36434 7313 5752 95
36435 7313 7557 2
36436 7313 5961 77
36437 7314 6733 87
36438 7314 7366 33
36439 7314 8409 80
36440 7314 1550 24
36441 7315 1528 61
36442 7315 9455 79
36443 7315 2042 79
36444 7315 8057 100
36445 7316 9347 2
36446 7316 9182 79
36447 7316 7163 68
36448 7316 2731 76
36449 7316 7866 14
36450 7316 4482 62
36451 7316 5296 59
36452 7317 6242 87
36453 7317 4168 72
36454 7317 6597 58
36455 7318 8197 15
36456 7318 2735 56
36457 7318 3904 54
36458 7318 2337 61
36459 7319 2713 86
36460 7319 3681 39
36461 7319 4678 10
36462 7319 2438 61
36463 7319 2631 9
36464 7319 5712 26
36465 7320 2118 92
36466 7321 150 23
36467 7321 4453 19
36468 7321 2189 99
36469 7321 6297 29
36470 7321 58 14
36471 7321 9992 45
36472 7322 6728 92
36473 7322 516 74
36474 7322 1500 40
36475 7322 7127 81
36476 7323 2847 25
36477 7323 9093 99
36478 7323 7348 7
36479 7323 1099 23
36480 7324 3646 80
36481 7324 4562 1
36482 7324 5374 66
36483 7325 1532 32
36484 7325 5576 2
36485 7325 4054 18
36486 7325 3765 34
36487 7325 4832 17
36488 7326 9417 2
36489 7326 6564 32
36490 7326 3601 47
36491 7326 5301 59
36492 7326 6902 62
36493 7327 2904 9
36494 7327 6376 62
36495 7327 5532 46
36496 7327 1288 3
36497 7327 132 2
36498 7327 3166 51
36499 7327 5771 56
36500 7327 7431 17
36501 7328 4047 85
36502 7328 2490 38
36503 7328 841 33
36504 7328 6057 99
36505 7328 7007 49
36506 7328 4522 49
36507 7329 3082 65
36508 7329 5739 60
36509 7329 1282 23
36510 7329 1802 45
36511 7329 92 48
36512 7329 5591 32
36513 7330 3677 54
36514 7330 7442 66
36515 7330 4514 84
36516 7330 1630 98
36517 7331 7344 15
36518 7331 1781 78
36519 7331 9357 49
36520 7332 9661 31
36521 7332 1680 31
36522 7332 1229 90
36523 7332 6543 100
36524 7333 8004 97
36525 7333 2308 74
36526 7333 4752 65
36527 7333 206 57
36528 7334 8677 26
36529 7334 7253 88
36530 7334 8020 30
36531 7334 9403 28
36532 7334 7324 33
36533 7335 4921 8
36534 7335 3408 15
36535 7335 2587 6
36536 7335 2052 42
36537 7335 4287 90
36538 7335 5642 10
36539 7335 3369 92
36540 7336 119 20
36541 7336 6225 61
36542 7336 207 14
36543 7336 3238 28
36544 7336 3603 23
36545 7336 384 61
36546 7336 9118 81
36547 7337 1426 96
36548 7337 5997 86
36549 7337 3628 100
36550 7338 3694 62
36551 7338 3591 62
36552 7338 2648 43
36553 7338 9832 40
36554 7338 2919 54
36555 7338 7713 60
36556 7338 4535 31
36557 7338 9226 90
36558 7339 6334 2
36559 7339 875 8
36560 7340 1803 40
36561 7340 1352 82
36562 7340 2824 98
36563 7340 9629 34
36564 7341 1669 4
36565 7341 5527 60
36566 7342 8553 98
36567 7342 1736 80
36568 7342 5419 78
36569 7343 8031 79
36570 7343 7490 14
36571 7343 2666 25
36572 7343 3313 74
36573 7343 6639 17
36574 7344 9266 59
36575 7344 842 91
36576 7344 5171 16
36577 7344 1722 9
36578 7344 6208 56
36579 7345 201 90
36580 7345 6957 27
36581 7345 9827 76
36582 7345 6205 29
36583 7345 1285 52
36584 7345 5567 25
36585 7345 7530 88
36586 7345 7758 22
36587 7345 3528 63
36588 7345 7791 64
36589 7346 5703 66
36590 7346 4305 88
36591 7346 5471 29
36592 7346 3387 45
36593 7347 6443 48
36594 7347 5684 60
36595 7347 3049 92
36596 7347 9560 20
36597 7347 2134 22
36598 7348 3312 30
36599 7348 7342 40
36600 7348 8439 91
36601 7349 5340 4
36602 7349 6013 84
36603 7349 6568 14
36604 7349 8433 35
36605 7349 7782 5
36606 7349 3248 66
36607 7350 480 22
36608 7350 9497 17
36609 7351 503 67
36610 7351 219 90
36611 7351 4786 12
36612 7351 963 82
36613 7351 6261 47
36614 7352 5402 63
36615 7352 9370 88
36616 7352 4095 63
36617 7352 2469 48
36618 7353 538 71
36619 7353 8396 40
36620 7353 6014 35
36621 7353 9450 84
36622 7353 348 22
36623 7353 7910 92
36624 7354 4790 96
36625 7354 5616 94
36626 7354 5815 69
36627 7354 6978 95
36628 7354 8844 100
36629 7354 5257 11
36630 7354 1194 20
36631 7355 7809 43
36632 7355 6706 69
36633 7355 672 81
36634 7355 4483 88
36635 7355 8704 70
36636 7355 3008 73
36637 7355 8123 44
36638 7356 8645 63
36639 7356 783 63
36640 7356 4805 89
36641 7356 7338 89
36642 7357 4769 89
36643 7357 7004 36
36644 7357 8982 61
36645 7358 5650 63
36646 7358 3881 12
36647 7358 3300 24
36648 7358 6506 96
36649 7359 920 36
36650 7359 2957 28
36651 7359 7675 30
36652 7359 268 10
36653 7359 3903 15
36654 7359 3040 39
36655 7359 1214 19
36656 7360 2091 39
36657 7360 2435 30
36658 7360 4216 12
36659 7360 2951 89
36660 7360 5753 54
36661 7360 5495 62
36662 7360 5953 42
36663 7360 6014 65
36664 7361 7306 100
36665 7361 8203 39
36666 7361 7650 24
36667 7361 6762 88
36668 7361 992 46
36669 7361 4821 87
36670 7361 1228 90
36671 7361 4933 24
36672 7361 4890 56
36673 7362 1474 61
36674 7362 2759 80
36675 7362 4176 100
36676 7362 2213 52
36677 7362 1400 88
36678 7362 9575 83
36679 7362 6848 57
36680 7362 8866 78
36681 7362 1645 57
36682 7362 5966 5
36683 7362 1886 76
36684 7363 3072 37
36685 7363 9405 11
36686 7363 2305 93
36687 7363 6758 81
36688 7364 5699 74
36689 7364 3706 37
36690 7364 6803 29
36691 7364 7280 68
36692 7364 8271 32
36693 7365 8205 96
36694 7365 402 76
36695 7365 6503 34
36696 7366 6400 17
36697 7366 7210 51
36698 7366 4685 83
36699 7366 7145 48
36700 7366 2991 72
36701 7366 6048 71
36702 7366 5433 16
36703 7366 8202 51
36704 7367 6314 96
36705 7367 3202 70
36706 7367 9986 8
36707 7367 378 50
36708 7368 4294 96
36709 7368 2491 34
36710 7368 6226 28
36711 7368 7597 20
36712 7368 176 71
36713 7369 5026 5
36714 7370 8060 38
36715 7370 8040 11
36716 7370 7750 23
36717 7370 5538 6
36718 7370 164 15
36719 7370 7154 91
36720 7371 3159 29
36721 7371 94 95
36722 7371 4469 100
36723 7371 7739 86
36724 7371 9785 94
36725 7371 411 44
36726 7371 7522 9
36727 7372 9515 43
36728 7372 7554 60
36729 7372 1501 4
36730 7372 5209 92
36731 7372 1280 11
36732 7372 2068 13
36733 7372 7411 88
36734 7373 7972 27
36735 7373 7990 9
36736 7373 6585 96
36737 7373 6419 81
36738 7374 3703 34
36739 7374 9661 79
36740 7374 3728 13
36741 7374 240 95
36742 7375 5914 84
36743 7375 5816 56
36744 7375 8867 24
36745 7375 5343 8
36746 7375 5216 32
36747 7375 116 32
36748 7376 6259 21
36749 7376 830 44
36750 7376 4524 50
36751 7376 5743 10
36752 7377 7065 74
36753 7377 7812 23
36754 7377 9691 98
36755 7377 6379 32
36756 7378 8160 92
36757 7378 9707 56
36758 7378 5932 82
36759 7378 8309 79
36760 7378 4293 93
36761 7379 2835 16
36762 7379 160 37
36763 7379 7862 46
36764 7379 3743 96
36765 7379 5408 3
36766 7379 1019 25
36767 7379 408 77
36768 7379 6506 47
36769 7380 1761 62
36770 7380 5801 37
36771 7380 5868 6
36772 7380 292 39
36773 7381 6788 94
36774 7381 3927 50
36775 7381 8334 30
36776 7381 364 18
36777 7381 4843 82
36778 7382 7666 89
36779 7382 675 70
36780 7382 3405 68
36781 7382 5089 87
36782 7382 7535 35
36783 7382 9035 53
36784 7383 3042 18
36785 7383 4010 12
36786 7383 8587 72
36787 7383 7651 37
36788 7384 876 12
36789 7384 4638 94
36790 7384 9165 21
36791 7384 6788 80
36792 7384 8546 20
36793 7385 8267 81
36794 7385 4835 22
36795 7385 2996 77
36796 7385 8625 19
36797 7385 295 82
36798 7385 8053 63
36799 7386 2157 49
36800 7386 7149 41
36801 7386 4488 35
36802 7386 7522 58
36803 7386 7845 99
36804 7387 3628 88
36805 7387 2610 92
36806 7388 1678 61
36807 7388 3001 24
36808 7388 5143 57
36809 7388 6755 53
36810 7388 8966 26
36811 7388 1279 68
36812 7388 8381 31
36813 7388 8589 50
36814 7388 9731 41
36815 7389 7814 20
36816 7389 3509 92
36817 7389 53 41
36818 7389 4008 70
36819 7389 2905 81
36820 7389 5774 61
36821 7389 6123 55
36822 7389 6604 22
36823 7389 1553 84
36824 7389 7964 69
36825 7390 4759 28
36826 7390 6245 25
36827 7391 6963 48
36828 7391 1080 5
36829 7391 7038 43
36830 7391 9038 51
36831 7391 10 82
36832 7391 6633 13
36833 7391 1461 81
36834 7392 6639 100
36835 7393 5154 11
36836 7393 5334 2
36837 7393 2514 62
36838 7393 3342 2
36839 7393 4693 58
36840 7394 5515 77
36841 7394 8935 28
36842 7394 5386 36
36843 7395 1431 90
36844 7395 1607 15
36845 7395 570 7
36846 7395 7367 57
36847 7396 1638 22
36848 7396 1643 26
36849 7396 2417 39
36850 7396 3991 77
36851 7396 7629 7
36852 7397 7287 92
36853 7397 4673 66
36854 7397 7138 53
36855 7397 7393 80
36856 7398 8933 57
36857 7398 8626 12
36858 7398 4760 46
36859 7399 7656 16
36860 7399 6042 84
36861 7399 8634 88
36862 7399 3342 23
36863 7400 7350 48
36864 7400 9834 6
36865 7400 4330 28
36866 7401 1609 81
36867 7401 8016 28
36868 7401 7776 91
36869 7401 2896 73
36870 7401 1227 13
36871 7401 3026 74
36872 7401 6950 1
36873 7402 5461 20
36874 7402 2661 13
36875 7402 6029 83
36876 7402 2334 19
36877 7402 7829 72
36878 7402 8054 82
36879 7402 5084 83
36880 7403 9194 61
36881 7403 5732 68
36882 7403 7674 8
36883 7404 6448 74
36884 7404 4826 24
36885 7404 1401 70
36886 7405 9132 7
36887 7405 9043 33
36888 7405 7771 9
36889 7405 625 96
36890 7406 7681 33
36891 7406 1953 36
36892 7406 2571 21
36893 7407 526 66
36894 7407 7295 63
36895 7407 6442 68
36896 7407 1146 34
36897 7407 3702 73
36898 7408 1676 2
36899 7408 7001 82
36900 7408 4489 34
36901 7408 887 40
36902 7408 1793 6
36903 7408 1596 81
36904 7408 4996 59
36905 7408 4763 57
36906 7409 8149 36
36907 7409 7674 84
36908 7409 3638 32
36909 7409 2122 96
36910 7409 6113 79
36911 7410 666 28
36912 7410 4175 33
36913 7410 6503 26
36914 7410 4574 51
36915 7410 1041 87
36916 7410 7300 75
36917 7411 3447 86
36918 7411 5625 19
36919 7411 9043 33
36920 7411 3502 17
36921 7411 4017 82
36922 7411 1091 72
36923 7412 5001 1
36924 7412 335 49
36925 7412 8878 41
36926 7412 6972 66
36927 7412 1023 80
36928 7412 7602 93
36929 7412 5026 14
36930 7413 4380 60
36931 7413 2748 48
36932 7413 8021 24
36933 7413 3792 52
36934 7413 5562 8
36935 7414 1550 11
36936 7414 8714 25
36937 7414 4728 59
36938 7414 4056 20
36939 7414 8512 78
36940 7414 1149 85
36941 7414 5619 92
36942 7414 9084 34
36943 7414 9859 57
36944 7415 9672 81
36945 7415 4290 38
36946 7415 3429 56
36947 7415 3053 4
36948 7415 1714 74
36949 7415 1011 67
36950 7415 9870 4
36951 7415 523 62
36952 7416 4114 78
36953 7416 7801 64
36954 7416 4050 45
36955 7416 4348 83
36956 7416 7523 85
36957 7417 1670 47
36958 7417 4966 83
36959 7417 4571 6
36960 7417 7042 13
36961 7417 6190 11
36962 7417 6133 12
36963 7417 814 98
36964 7417 1513 46
36965 7418 8721 44
36966 7418 1410 81
36967 7418 4094 53
36968 7418 1774 2
36969 7418 8457 31
36970 7419 2151 37
36971 7419 3053 51
36972 7419 8665 4
36973 7419 4125 57
36974 7419 350 57
36975 7419 177 75
36976 7420 217 100
36977 7420 3304 10
36978 7420 4598 90
36979 7420 5388 48
36980 7420 324 59
36981 7421 5428 1
36982 7421 2382 72
36983 7421 4138 14
36984 7421 7438 33
36985 7422 8487 71
36986 7422 9145 34
36987 7422 4426 32
36988 7422 6009 61
36989 7422 6787 22
36990 7422 3104 31
36991 7422 1456 22
36992 7422 5877 82
36993 7423 8250 66
36994 7423 7598 58
36995 7423 589 39
36996 7423 7671 75
36997 7424 4942 42
36998 7424 5052 38
36999 7424 7774 32
37000 7424 873 80
37001 7425 6314 6
37002 7425 888 29
37003 7425 3348 6
37004 7425 2786 39
37005 7425 4175 98
37006 7426 9365 55
37007 7426 2522 84
37008 7426 5974 36
37009 7426 438 97
37010 7427 4134 41
37011 7427 6854 57
37012 7427 2661 33
37013 7428 7792 57
37014 7428 8070 4
37015 7429 5780 47
37016 7429 9243 36
37017 7429 3843 78
37018 7429 3093 43
37019 7429 7120 9
37020 7429 3286 77
37021 7429 7756 20
37022 7430 3647 61
37023 7430 6964 75
37024 7430 4958 87
37025 7430 5977 95
37026 7430 2969 65
37027 7430 3788 80
37028 7430 4161 90
37029 7430 6612 80
37030 7430 5093 7
37031 7431 3731 84
37032 7431 539 94
37033 7431 3264 86
37034 7431 626 91
37035 7432 5993 66
37036 7432 3032 96
37037 7432 1885 10
37038 7432 2935 55
37039 7432 421 56
37040 7432 9924 68
37041 7433 7889 49
37042 7433 4305 99
37043 7433 4234 92
37044 7433 7048 92
37045 7433 6903 52
37046 7433 4690 95
37047 7433 9837 50
37048 7433 3798 33
37049 7434 7288 36
37050 7434 9493 97
37051 7434 6690 70
37052 7434 5949 83
37053 7434 7010 35
37054 7434 1354 31
37055 7435 4865 66
37056 7435 1645 44
37057 7435 2640 80
37058 7435 5874 15
37059 7436 3014 46
37060 7436 9610 85
37061 7436 1806 1
37062 7437 9287 64
37063 7437 8511 9
37064 7437 141 68
37065 7437 9352 77
37066 7437 3344 27
37067 7437 9114 80
37068 7437 6056 85
37069 7437 2812 34
37070 7438 6875 81
37071 7438 6651 71
37072 7438 8687 36
37073 7438 3180 95
37074 7439 6955 26
37075 7439 1371 11
37076 7439 8183 66
37077 7439 9520 14
37078 7439 4113 58
37079 7439 5193 62
37080 7439 8121 73
37081 7440 517 84
37082 7440 7703 20
37083 7440 1369 46
37084 7441 9988 29
37085 7441 2295 87
37086 7441 1897 62
37087 7442 7758 48
37088 7442 824 54
37089 7442 1056 11
37090 7443 9390 30
37091 7443 9817 5
37092 7443 1101 2
37093 7444 5903 13
37094 7444 1213 43
37095 7444 8753 86
37096 7444 2457 77
37097 7445 7851 60
37098 7445 7118 44
37099 7445 2285 53
37100 7445 8515 39
37101 7445 1905 51
37102 7446 3018 93
37103 7446 2245 100
37104 7447 569 6
37105 7447 397 6
37106 7447 9571 65
37107 7447 4817 14
37108 7447 8787 56
37109 7447 3804 96
37110 7447 2312 52
37111 7448 9180 100
37112 7448 2889 52
37113 7449 6014 66
37114 7449 4559 48
37115 7450 5541 47
37116 7450 9714 44
37117 7451 3318 39
37118 7451 2454 73
37119 7451 9296 14
37120 7451 3151 48
37121 7451 4359 67
37122 7451 9284 31
37123 7452 2747 48
37124 7452 1395 96
37125 7452 9794 38
37126 7453 654 95
37127 7453 7981 77
37128 7453 7 60
37129 7453 9040 5
37130 7453 1303 52
37131 7453 4520 97
37132 7453 2440 35
37133 7454 2309 18
37134 7454 8671 67
37135 7454 5841 50
37136 7454 381 48
37137 7454 9936 86
37138 7454 4607 95
37139 7454 7841 20
37140 7454 9639 88
37141 7455 3692 27
37142 7455 9266 82
37143 7455 4232 57
37144 7455 2351 39
37145 7455 3248 54
37146 7455 5698 100
37147 7456 4360 42
37148 7456 7316 41
37149 7456 7259 95
37150 7456 6022 67
37151 7457 8594 18
37152 7457 1551 49
37153 7457 6952 80
37154 7457 5807 15
37155 7457 5907 64
37156 7458 9486 52
37157 7458 8995 25
37158 7458 2853 69
37159 7458 7602 96
37160 7458 8275 89
37161 7458 2673 30
37162 7459 924 59
37163 7459 9369 19
37164 7459 5456 60
37165 7459 5151 30
37166 7459 4456 19
37167 7459 4388 59
37168 7459 7446 12
37169 7460 5009 53
37170 7461 3621 35
37171 7461 6938 84
37172 7461 9740 17
37173 7461 6095 32
37174 7461 9164 62
37175 7461 1216 3
37176 7461 2616 2
37177 7461 3084 23
37178 7461 406 21
37179 7461 4450 83
37180 7461 1233 67
37181 7461 7718 47
37182 7462 5125 10
37183 7462 7063 28
37184 7462 7349 68
37185 7462 2844 54
37186 7462 8400 78
37187 7462 3046 10
37188 7463 2882 73
37189 7463 504 91
37190 7463 6821 68
37191 7463 1274 33
37192 7463 5146 62
37193 7464 971 60
37194 7464 4952 19
37195 7465 66 51
37196 7465 5880 80
37197 7465 7586 58
37198 7465 4972 4
37199 7465 1909 90
37200 7465 1950 59
37201 7466 5755 14
37202 7466 3270 3
37203 7466 51 71
37204 7466 4538 1
37205 7467 1003 44
37206 7467 5999 47
37207 7467 6627 25
37208 7467 8300 86
37209 7467 3567 83
37210 7468 6104 77
37211 7468 6901 91
37212 7468 5029 45
37213 7468 1557 54
37214 7468 1329 55
37215 7468 3513 64
37216 7468 4054 39
37217 7469 2560 36
37218 7469 1922 94
37219 7469 6526 93
37220 7470 6301 94
37221 7470 3281 20
37222 7470 4970 66
37223 7470 7513 13
37224 7470 4250 29
37225 7470 9229 69
37226 7471 6162 5
37227 7471 2868 85
37228 7471 4590 39
37229 7471 5037 1
37230 7471 2129 13
37231 7471 2927 80
37232 7472 191 91
37233 7472 8549 58
37234 7473 9370 99
37235 7473 1587 46
37236 7473 8824 91
37237 7473 6303 16
37238 7473 4277 65
37239 7473 6430 13
37240 7474 3620 15
37241 7474 6947 53
37242 7474 5608 74
37243 7474 3772 89
37244 7474 5049 71
37245 7474 7807 92
37246 7474 4344 14
37247 7474 8653 90
37248 7475 6647 61
37249 7475 4510 30
37250 7476 5644 59
37251 7476 1615 38
37252 7477 8383 71
37253 7477 4306 93
37254 7478 3581 24
37255 7478 2844 88
37256 7478 4652 34
37257 7478 2920 53
37258 7478 2307 89
37259 7478 4721 8
37260 7479 6948 10
37261 7479 8856 54
37262 7480 5073 34
37263 7480 5408 47
37264 7480 2566 59
37265 7481 2621 83
37266 7481 6102 4
37267 7481 8657 61
37268 7481 5026 95
37269 7481 5897 38
37270 7481 192 31
37271 7481 2358 54
37272 7482 1918 85
37273 7483 8794 10
37274 7483 7032 89
37275 7483 9291 82
37276 7484 3095 41
37277 7484 532 60
37278 7484 8534 34
37279 7484 8458 96
37280 7484 8589 72
37281 7484 6768 99
37282 7484 9149 81
37283 7485 7071 65
37284 7485 9412 80
37285 7486 1547 1
37286 7486 8765 96
37287 7486 2515 63
37288 7486 8757 77
37289 7486 281 93
37290 7487 8082 40
37291 7487 2167 63
37292 7487 8108 42
37293 7487 4800 78
37294 7488 5722 18
37295 7488 1774 9
37296 7488 9171 99
37297 7488 2331 98
37298 7488 3059 62
37299 7488 5044 84
37300 7488 4953 61
37301 7488 6122 65
37302 7489 1845 50
37303 7489 3750 67
37304 7489 2250 17
37305 7489 1131 4
37306 7489 4600 47
37307 7489 3957 27
37308 7490 8930 63
37309 7490 5778 93
37310 7490 3502 75
37311 7490 9460 63
37312 7490 5693 51
37313 7491 241 36
37314 7491 2934 67
37315 7491 7588 48
37316 7491 8762 75
37317 7491 1617 33
37318 7492 367 3
37319 7492 8595 55
37320 7492 6473 44
37321 7492 9338 73
37322 7493 8228 87
37323 7493 490 29
37324 7493 1740 63
37325 7493 7763 93
37326 7493 8971 68
37327 7493 5856 45
37328 7494 357 100
37329 7494 8906 19
37330 7494 4360 87
37331 7494 9225 62
37332 7494 1017 14
37333 7494 387 72
37334 7495 925 54
37335 7495 8783 36
37336 7495 4283 100
37337 7495 2770 1
37338 7495 8634 5
37339 7495 5358 91
37340 7496 2567 87
37341 7496 2405 38
37342 7496 9862 57
37343 7497 548 67
37344 7497 6572 87
37345 7497 4093 79
37346 7497 8704 58
37347 7497 8654 16
37348 7497 1270 66
37349 7497 656 85
37350 7498 7914 46
37351 7498 7887 5
37352 7498 1574 9
37353 7498 878 58
37354 7499 5015 39
37355 7499 7258 88
37356 7499 3226 32
37357 7499 5631 57
37358 7499 9006 20
37359 7499 1106 85
37360 7499 6063 52
37361 7500 1564 37
37362 7500 2532 36
37363 7500 1036 18
37364 7500 4727 98
37365 7500 3751 98
37366 7500 530 44
37367 7500 7859 9
37368 7501 5361 88
37369 7501 5464 3
37370 7501 5279 29
37371 7501 6323 32
37372 7501 4262 32
37373 7501 30 17
37374 7502 30 28
37375 7502 7053 4
37376 7503 4211 53
37377 7503 8592 10
37378 7503 8681 92
37379 7503 8373 21
37380 7503 5692 35
37381 7503 8615 17
37382 7503 2274 8
37383 7503 8613 49
37384 7504 3491 73
37385 7504 2282 33
37386 7504 4417 88
37387 7505 5213 51
37388 7505 981 81
37389 7505 13 69
37390 7505 4792 91
37391 7505 1871 23
37392 7506 2851 34
37393 7506 9599 47
37394 7506 1516 82
37395 7506 9548 39
37396 7506 4267 56
37397 7506 5766 49
37398 7506 7297 43
37399 7506 3527 25
37400 7507 2758 86
37401 7507 9271 92
37402 7507 5858 30
37403 7507 6718 29
37404 7507 9114 86
37405 7507 1458 43
37406 7507 7600 97
37407 7507 4786 2
37408 7508 4125 31
37409 7508 9753 95
37410 7508 484 65
37411 7508 7686 27
37412 7508 4683 56
37413 7508 8226 85
37414 7508 4384 100
37415 7509 7305 32
37416 7509 4806 30
37417 7509 2277 43
37418 7510 3610 87
37419 7510 6724 71
37420 7510 3579 9
37421 7510 8452 42
37422 7510 389 85
37423 7510 613 91
37424 7510 4989 34
37425 7511 467 30
37426 7511 7714 68
37427 7511 9325 1
37428 7511 4044 75
37429 7511 7008 66
37430 7511 4766 13
37431 7511 6574 33
37432 7511 9038 32
37433 7512 9680 56
37434 7512 4735 58
37435 7512 1433 20
37436 7512 5481 1
37437 7512 8696 29
37438 7512 6149 71
37439 7512 5287 86
37440 7513 7694 91
37441 7513 1732 34
37442 7513 9660 77
37443 7513 4758 14
37444 7514 9364 53
37445 7514 292 40
37446 7514 1766 39
37447 7515 8411 14
37448 7515 6199 80
37449 7515 2984 88
37450 7516 6982 55
37451 7516 9976 63
37452 7516 9382 71
37453 7516 9907 94
37454 7516 4788 49
37455 7516 4660 75
37456 7517 3284 49
37457 7518 9083 59
37458 7518 2351 36
37459 7518 8040 74
37460 7518 7835 30
37461 7518 4998 7
37462 7519 9255 77
37463 7519 2553 91
37464 7519 206 15
37465 7519 7817 80
37466 7519 5433 24
37467 7519 9231 38
37468 7520 4886 78
37469 7520 8736 8
37470 7520 322 25
37471 7520 5519 39
37472 7521 635 90
37473 7521 7458 33
37474 7521 5272 94
37475 7521 461 41
37476 7522 387 31
37477 7522 3939 33
37478 7523 6896 90
37479 7523 4493 49
37480 7523 6451 4
37481 7523 3719 8
37482 7523 5390 16
37483 7523 6501 79
37484 7524 5876 6
37485 7524 4518 44
37486 7524 3946 33
37487 7524 615 26
37488 7524 6510 32
37489 7524 7652 29
37490 7525 2403 1
37491 7525 6342 55
37492 7525 3750 52
37493 7525 9414 55
37494 7525 8127 8
37495 7525 8137 97
37496 7525 5677 72
37497 7525 2777 71
37498 7525 2580 88
37499 7526 8375 2
37500 7527 742 63
37501 7527 3791 84
37502 7528 7064 92
37503 7528 811 39
37504 7529 5026 10
37505 7529 443 56
37506 7530 4708 4
37507 7530 4668 85
37508 7530 4280 96
37509 7530 9287 10
37510 7530 3029 64
37511 7530 1956 51
37512 7531 4000 50
37513 7531 8773 62
37514 7532 8326 29
37515 7532 6901 37
37516 7532 3936 62
37517 7532 2103 59
37518 7532 7621 53
37519 7533 772 33
37520 7533 7400 30
37521 7533 8576 99
37522 7533 194 20
37523 7534 5711 83
37524 7534 1678 73
37525 7534 5099 22
37526 7534 7989 72
37527 7534 2878 60
37528 7534 7957 75
37529 7535 7510 6
37530 7535 9502 100
37531 7535 8566 29
37532 7535 5484 68
37533 7536 4593 84
37534 7536 7618 19
37535 7536 9823 61
37536 7536 5479 98
37537 7536 8091 25
37538 7536 4080 80
37539 7536 5907 62
37540 7536 3623 58
37541 7536 5105 24
37542 7536 3829 70
37543 7536 4321 80
37544 7536 3 60
37545 7536 9509 90
37546 7537 7837 38
37547 7537 1997 99
37548 7538 8340 49
37549 7538 2315 69
37550 7538 1261 100
37551 7538 510 90
37552 7540 8079 38
37553 7540 8975 82
37554 7540 7104 3
37555 7540 3217 1
37556 7541 377 87
37557 7541 3484 45
37558 7541 8902 35
37559 7542 9532 33
37560 7542 9737 97
37561 7542 6718 58
37562 7542 4794 61
37563 7542 6890 30
37564 7542 9632 96
37565 7542 6249 94
37566 7542 5340 26
37567 7542 1836 77
37568 7542 9022 25
37569 7542 6179 63
37570 7543 9332 23
37571 7543 2675 88
37572 7543 1051 4
37573 7543 8751 44
37574 7543 2828 53
37575 7543 9662 44
37576 7544 2616 17
37577 7544 4021 86
37578 7544 8133 59
37579 7545 7321 68
37580 7545 5071 5
37581 7545 2310 1
37582 7545 780 21
37583 7546 4709 90
37584 7546 3428 98
37585 7546 1574 87
37586 7547 8971 51
37587 7547 8083 36
37588 7547 3532 25
37589 7547 592 30
37590 7548 4083 58
37591 7548 7797 96
37592 7548 4176 23
37593 7548 4258 81
37594 7549 555 40
37595 7549 7824 7
37596 7549 4883 42
37597 7549 8657 82
37598 7549 3617 24
37599 7550 7700 71
37600 7550 8597 93
37601 7550 9077 54
37602 7550 2944 73
37603 7551 3628 91
37604 7551 5577 43
37605 7551 2527 15
37606 7551 843 100
37607 7551 3424 60
37608 7551 1214 90
37609 7551 9062 5
37610 7551 5177 10
37611 7551 136 67
37612 7552 3592 35
37613 7552 8505 20
37614 7552 9908 85
37615 7552 9979 98
37616 7552 1819 19
37617 7553 4353 60
37618 7553 9920 85
37619 7553 3197 74
37620 7553 6859 76
37621 7553 2958 49
37622 7553 3327 77
37623 7553 3762 93
37624 7554 7147 14
37625 7554 3267 19
37626 7554 9856 14
37627 7555 9509 47
37628 7555 3182 54
37629 7555 4487 34
37630 7555 7604 66
37631 7556 5061 79
37632 7556 4085 24
37633 7556 9036 5
37634 7556 5042 3
37635 7556 2772 6
37636 7556 4563 65
37637 7556 964 29
37638 7557 3146 43
37639 7557 3865 55
37640 7557 7271 53
37641 7557 4205 39
37642 7557 1448 84
37643 7557 6445 47
37644 7557 2262 8
37645 7558 9221 21
37646 7559 8758 32
37647 7559 7616 24
37648 7559 5435 30
37649 7559 7782 11
37650 7559 4652 74
37651 7559 4542 1
37652 7559 1515 96
37653 7560 4007 70
37654 7560 460 57
37655 7560 3399 21
37656 7560 5323 60
37657 7560 8256 15
37658 7560 6096 85
37659 7560 9610 70
37660 7561 2206 12
37661 7561 8311 64
37662 7561 9420 16
37663 7561 8531 60
37664 7561 7663 75
37665 7561 6561 16
37666 7562 6224 4
37667 7562 9665 64
37668 7562 8526 40
37669 7562 235 58
37670 7562 9792 44
37671 7563 7246 49
37672 7563 7150 81
37673 7563 5416 32
37674 7563 55 96
37675 7563 9624 34
37676 7563 6386 13
37677 7563 279 27
37678 7563 4919 43
37679 7563 1944 41
37680 7563 5079 61
37681 7564 8613 76
37682 7565 3587 55
37683 7565 8125 41
37684 7565 2495 46
37685 7566 1428 17
37686 7566 5716 77
37687 7566 1389 17
37688 7566 8626 34
37689 7566 3919 24
37690 7567 808 73
37691 7567 8833 7
37692 7567 6041 33
37693 7567 8911 79
37694 7567 4233 36
37695 7567 1619 7
37696 7567 3009 88
37697 7568 3329 54
37698 7568 213 79
37699 7568 5873 61
37700 7568 3257 63
37701 7568 1670 47
37702 7569 8831 37
37703 7569 7580 43
37704 7569 4427 18
37705 7569 1479 87
37706 7570 544 72
37707 7570 1078 15
37708 7570 3011 5
37709 7570 8013 57
37710 7570 6600 18
37711 7570 4259 5
37712 7570 2404 52
37713 7571 6465 36
37714 7571 8238 80
37715 7571 2345 26
37716 7571 4503 71
37717 7571 9625 90
37718 7571 2162 60
37719 7571 9825 68
37720 7572 1825 66
37721 7572 1856 5
37722 7572 6287 41
37723 7572 8845 94
37724 7572 8781 30
37725 7572 3322 30
37726 7573 1777 71
37727 7573 808 67
37728 7573 9586 53
37729 7573 1162 22
37730 7574 2898 71
37731 7574 1571 53
37732 7574 1956 63
37733 7574 2765 87
37734 7574 5637 22
37735 7575 1165 38
37736 7575 2394 18
37737 7575 8301 63
37738 7575 7887 48
37739 7575 8090 36
37740 7576 3310 90
37741 7576 3522 1
37742 7576 4934 48
37743 7576 8911 94
37744 7576 1028 24
37745 7577 774 72
37746 7577 5357 39
37747 7577 4332 48
37748 7578 1272 76
37749 7578 8993 14
37750 7578 8028 37
37751 7578 3672 60
37752 7578 9926 64
37753 7578 7612 55
37754 7578 1310 2
37755 7578 5422 65
37756 7579 7182 95
37757 7579 436 67
37758 7579 4583 20
37759 7579 9717 94
37760 7579 5302 84
37761 7579 653 78
37762 7580 9053 15
37763 7580 333 84
37764 7580 7530 32
37765 7580 7029 65
37766 7581 8649 41
37767 7581 5665 55
37768 7582 270 58
37769 7582 1888 55
37770 7582 5621 86
37771 7582 4738 11
37772 7582 6007 15
37773 7582 5787 51
37774 7582 8663 88
37775 7583 8753 4
37776 7583 9343 68
37777 7583 1127 99
37778 7583 1122 16
37779 7583 7995 82
37780 7584 5415 33
37781 7584 2592 83
37782 7584 1053 29
37783 7584 1308 90
37784 7584 7614 18
37785 7584 192 95
37786 7584 4764 100
37787 7585 3789 28
37788 7585 2126 2
37789 7585 8698 18
37790 7585 4479 54
37791 7585 8403 12
37792 7585 1678 10
37793 7585 1771 33
37794 7585 3889 44
37795 7585 1346 37
37796 7585 8283 45
37797 7586 7011 7
37798 7586 4649 73
37799 7586 9562 62
37800 7586 3377 27
37801 7586 5831 57
37802 7586 2421 33
37803 7586 2772 80
37804 7586 4504 79
37805 7586 184 69
37806 7586 373 39
37807 7587 7992 25
37808 7587 829 32
37809 7587 2086 62
37810 7588 4064 26
37811 7588 6584 79
37812 7588 4220 57
37813 7588 7224 19
37814 7589 4580 17
37815 7589 2931 54
37816 7589 5105 36
37817 7589 2441 87
37818 7590 6703 42
37819 7590 1972 51
37820 7590 829 26
37821 7590 8070 88
37822 7590 3197 41
37823 7591 7790 26
37824 7591 6694 25
37825 7591 3958 44
37826 7591 9039 2
37827 7591 326 69
37828 7591 5204 12
37829 7592 7094 97
37830 7592 3828 75
37831 7592 8113 63
37832 7593 2096 97
37833 7593 7869 56
37834 7593 1575 48
37835 7593 9602 51
37836 7593 2848 74
37837 7593 1376 49
37838 7594 8267 66
37839 7594 1001 38
37840 7594 2164 47
37841 7594 1957 16
37842 7594 9969 54
37843 7594 7748 41
37844 7594 9164 26
37845 7594 7737 47
37846 7595 4859 100
37847 7595 4252 74
37848 7595 8541 96
37849 7595 2341 28
37850 7595 2192 64
37851 7596 4554 34
37852 7596 3488 83
37853 7596 1191 60
37854 7596 2863 83
37855 7596 7928 85
37856 7597 8511 97
37857 7597 9268 65
37858 7597 9598 70
37859 7597 8381 8
37860 7597 154 22
37861 7598 1759 35
37862 7598 6210 100
37863 7598 2125 83
37864 7599 2770 69
37865 7599 3817 11
37866 7599 3449 23
37867 7599 8782 92
37868 7600 2909 78
37869 7600 2536 66
37870 7600 2446 92
37871 7600 6237 89
37872 7600 1896 67
37873 7601 6026 19
37874 7601 6252 70
37875 7601 6298 37
37876 7601 3435 78
37877 7601 5749 30
37878 7601 6188 83
37879 7601 175 54
37880 7602 442 39
37881 7602 3126 14
37882 7602 3793 91
37883 7602 3827 64
37884 7602 1136 75
37885 7603 9437 76
37886 7603 5219 41
37887 7603 1160 57
37888 7603 4480 39
37889 7603 2577 41
37890 7603 1853 89
37891 7604 8026 20
37892 7604 7185 53
37893 7605 4474 44
37894 7605 3907 87
37895 7605 3630 19
37896 7605 3933 78
37897 7605 4401 89
37898 7606 6048 6
37899 7606 9405 55
37900 7606 7336 81
37901 7606 6204 37
37902 7606 2220 79
37903 7606 9317 2
37904 7607 6077 83
37905 7607 499 30
37906 7608 173 22
37907 7608 7247 55
37908 7608 4045 10
37909 7608 3202 82
37910 7609 9561 98
37911 7609 4831 42
37912 7609 2066 33
37913 7610 5358 4
37914 7610 4033 6
37915 7610 4999 68
37916 7610 5365 7
37917 7610 7473 5
37918 7610 9401 44
37919 7611 8209 90
37920 7611 1039 74
37921 7611 4229 30
37922 7611 6847 72
37923 7611 4428 41
37924 7611 9217 97
37925 7611 6685 95
37926 7611 9682 26
37927 7612 8556 44
37928 7612 634 91
37929 7612 51 51
37930 7612 7320 77
37931 7612 6831 54
37932 7612 3059 27
37933 7612 4603 1
37934 7613 8765 35
37935 7613 6720 49
37936 7613 6417 60
37937 7613 3375 52
37938 7613 425 71
37939 7613 948 83
37940 7614 9367 67
37941 7614 8656 92
37942 7614 1227 79
37943 7614 1359 60
37944 7614 2125 12
37945 7614 1971 43
37946 7614 7348 18
37947 7615 1732 14
37948 7615 6603 3
37949 7615 8696 32
37950 7615 756 94
37951 7615 102 45
37952 7615 7525 92
37953 7615 3973 90
37954 7616 9465 89
37955 7616 5126 28
37956 7616 8561 25
37957 7616 1019 57
37958 7616 698 33
37959 7616 4476 99
37960 7617 2132 34
37961 7617 2707 23
37962 7617 4380 5
37963 7617 4227 28
37964 7617 5732 13
37965 7617 9723 92
37966 7618 8792 77
37967 7618 8242 11
37968 7618 3298 76
37969 7618 6626 9
37970 7618 1691 41
37971 7619 6928 54
37972 7619 3688 31
37973 7619 8907 54
37974 7619 6035 65
37975 7619 3860 60
37976 7619 404 56
37977 7619 2185 22
37978 7619 9317 38
37979 7619 5239 7
37980 7620 7271 23
37981 7620 7452 88
37982 7620 3329 36
37983 7620 5871 35
37984 7620 4937 39
37985 7620 5258 25
37986 7621 2798 92
37987 7622 9511 75
37988 7622 4801 56
37989 7622 5416 46
37990 7622 7265 35
37991 7622 3984 33
37992 7623 8770 22
37993 7623 9594 54
37994 7623 8203 64
37995 7623 63 15
37996 7623 4780 38
37997 7623 4918 39
37998 7623 6892 43
37999 7623 7918 99
38000 7623 3283 89
38001 7623 5647 73
38002 7624 5243 29
38003 7624 1567 37
38004 7624 4733 89
38005 7624 8190 91
38006 7625 4289 22
38007 7625 6349 11
38008 7625 2082 67
38009 7625 2011 58
38010 7625 2069 91
38011 7625 3519 22
38012 7625 6378 30
38013 7625 5198 65
38014 7626 5552 31
38015 7626 1786 79
38016 7626 7852 54
38017 7626 6051 47
38018 7627 5567 92
38019 7627 4189 7
38020 7627 8201 57
38021 7627 1254 68
38022 7627 2726 16
38023 7627 1290 91
38024 7628 8286 66
38025 7628 5473 80
38026 7628 8321 50
38027 7628 7393 77
38028 7628 6401 75
38029 7629 3389 82
38030 7629 3484 72
38031 7629 7352 8
38032 7630 200 26
38033 7630 5458 39
38034 7630 4347 53
38035 7630 1229 98
38036 7630 2421 70
38037 7631 2620 40
38038 7631 6824 90
38039 7631 4575 85
38040 7631 7516 9
38041 7631 849 95
38042 7632 6157 50
38043 7633 8544 57
38044 7633 6717 80
38045 7633 4926 2
38046 7634 1637 64
38047 7634 1199 68
38048 7634 3740 88
38049 7635 6674 30
38050 7635 1911 31
38051 7635 5693 49
38052 7636 7003 99
38053 7636 8199 40
38054 7636 4810 44
38055 7636 4873 13
38056 7637 2831 91
38057 7637 3309 17
38058 7637 9454 63
38059 7637 5396 61
38060 7637 9946 89
38061 7638 2057 58
38062 7638 8291 11
38063 7638 491 39
38064 7638 485 39
38065 7638 8561 93
38066 7639 3927 7
38067 7639 7893 15
38068 7639 4291 90
38069 7639 6495 91
38070 7640 8146 72
38071 7640 794 51
38072 7640 9721 76
38073 7640 7147 89
38074 7640 5656 48
38075 7640 3352 1
38076 7640 8598 44
38077 7640 7729 74
38078 7640 4341 10
38079 7640 4487 25
38080 7640 8223 32
38081 7641 8203 32
38082 7641 9372 64
38083 7641 2024 95
38084 7641 5301 39
38085 7641 8097 44
38086 7641 4315 97
38087 7641 8663 39
38088 7642 2829 20
38089 7642 9748 55
38090 7642 5385 27
38091 7642 5833 66
38092 7642 5676 9
38093 7643 5593 67
38094 7643 9632 20
38095 7643 190 96
38096 7643 4701 21
38097 7643 5767 41
38098 7643 8318 12
38099 7644 9826 19
38100 7644 4985 85
38101 7644 3885 80
38102 7644 2436 88
38103 7644 8892 47
38104 7644 4907 40
38105 7644 3996 75
38106 7644 334 5
38107 7644 2500 33
38108 7645 184 87
38109 7645 6958 48
38110 7645 8740 48
38111 7645 259 48
38112 7645 3023 61
38113 7645 7395 53
38114 7645 7732 22
38115 7645 7884 58
38116 7646 9465 34
38117 7646 138 31
38118 7646 6923 30
38119 7646 9295 83
38120 7646 4799 57
38121 7647 8859 64
38122 7647 3525 75
38123 7647 944 23
38124 7647 2267 32
38125 7647 8627 53
38126 7647 1871 67
38127 7647 1256 77
38128 7647 3823 34
38129 7648 728 14
38130 7648 2217 100
38131 7648 5864 68
38132 7648 4161 22
38133 7648 2767 43
38134 7648 2192 4
38135 7649 3230 17
38136 7649 8266 37
38137 7649 6 5
38138 7649 2798 66
38139 7649 3009 97
38140 7650 695 98
38141 7650 5861 77
38142 7650 2086 42
38143 7650 3940 17
38144 7650 7145 21
38145 7651 5055 48
38146 7651 5554 64
38147 7652 2465 19
38148 7652 8691 66
38149 7652 7041 89
38150 7652 3266 15
38151 7652 8490 68
38152 7653 6412 55
38153 7653 5067 44
38154 7654 4323 44
38155 7654 5157 76
38156 7654 8874 33
38157 7654 3545 52
38158 7654 9500 72
38159 7654 4301 75
38160 7654 1698 5
38161 7655 5715 36
38162 7655 6268 82
38163 7655 9119 81
38164 7655 3093 64
38165 7655 1658 23
38166 7655 6264 61
38167 7656 5411 33
38168 7656 8895 53
38169 7656 6407 61
38170 7656 9978 36
38171 7656 9821 38
38172 7656 8089 30
38173 7656 4191 31
38174 7656 5164 35
38175 7656 4035 67
38176 7657 401 19
38177 7657 4621 96
38178 7657 1749 84
38179 7657 4329 83
38180 7657 1369 3
38181 7657 3809 98
38182 7657 5965 78
38183 7657 121 55
38184 7658 4402 43
38185 7658 1644 9
38186 7658 3059 30
38187 7658 5979 16
38188 7659 9614 3
38189 7659 8911 46
38190 7659 1685 16
38191 7660 8248 69
38192 7660 3543 6
38193 7660 4527 34
38194 7661 8289 29
38195 7661 9406 73
38196 7661 4746 93
38197 7661 8460 32
38198 7661 166 88
38199 7661 5785 17
38200 7662 2863 21
38201 7662 6247 43
38202 7662 2418 28
38203 7662 5452 23
38204 7662 9830 63
38205 7662 8769 10
38206 7663 9966 94
38207 7663 2575 3
38208 7664 5096 8
38209 7664 297 81
38210 7664 9254 47
38211 7665 2414 57
38212 7666 5049 41
38213 7666 9345 93
38214 7666 2422 18
38215 7666 3403 44
38216 7666 8830 88
38217 7666 9175 28
38218 7667 3801 32
38219 7667 2018 7
38220 7667 5386 34
38221 7667 7321 93
38222 7667 2758 4
38223 7668 3075 1
38224 7668 3081 21
38225 7668 8688 84
38226 7668 9836 71
38227 7668 206 11
38228 7668 5894 55
38229 7668 9669 41
38230 7668 7293 54
38231 7669 8953 81
38232 7669 7273 7
38233 7669 6885 29
38234 7670 6239 26
38235 7670 3458 19
38236 7670 5353 62
38237 7670 4176 58
38238 7671 8873 29
38239 7671 9783 2
38240 7671 8601 51
38241 7671 6267 46
38242 7672 1835 53
38243 7672 3981 13
38244 7672 3328 76
38245 7672 4652 91
38246 7672 7762 68
38247 7672 4646 15
38248 7672 2270 17
38249 7672 3909 48
38250 7672 8279 1
38251 7672 7471 7
38252 7672 2139 84
38253 7673 649 84
38254 7673 8105 21
38255 7673 9379 60
38256 7674 1816 86
38257 7674 449 90
38258 7674 5094 100
38259 7674 985 46
38260 7674 8549 22
38261 7674 5291 18
38262 7675 401 94
38263 7675 4384 39
38264 7675 5036 67
38265 7675 9646 18
38266 7675 4224 39
38267 7676 3396 60
38268 7676 1702 83
38269 7676 4210 8
38270 7676 5620 20
38271 7677 8303 66
38272 7677 1777 95
38273 7677 5621 36
38274 7677 6263 9
38275 7678 7866 20
38276 7678 375 84
38277 7678 3411 75
38278 7678 9170 79
38279 7679 2405 68
38280 7679 492 60
38281 7680 6717 42
38282 7680 2888 91
38283 7680 6931 75
38284 7680 217 86
38285 7681 5128 82
38286 7681 6837 75
38287 7681 1678 51
38288 7681 7388 8
38289 7681 6392 94
38290 7681 8903 80
38291 7681 5447 86
38292 7681 8995 64
38293 7681 5298 49
38294 7681 958 50
38295 7682 2399 54
38296 7682 768 84
38297 7682 6776 100
38298 7683 1590 88
38299 7683 5751 74
38300 7683 3785 25
38301 7683 1572 2
38302 7683 5757 79
38303 7683 8178 78
38304 7683 6035 93
38305 7683 6668 21
38306 7683 3962 38
38307 7684 6193 8
38308 7684 3495 43
38309 7684 25 91
38310 7684 1690 6
38311 7685 3458 45
38312 7685 4543 10
38313 7685 9223 55
38314 7685 198 66
38315 7685 2291 19
38316 7685 9582 39
38317 7685 3936 69
38318 7685 4717 74
38319 7686 4382 6
38320 7686 3025 44
38321 7686 2904 35
38322 7686 4042 38
38323 7686 4176 94
38324 7686 6561 37
38325 7686 9521 26
38326 7686 3677 8
38327 7687 5349 63
38328 7687 7957 86
38329 7687 9635 37
38330 7687 8804 33
38331 7688 5691 1
38332 7688 8880 37
38333 7688 9274 72
38334 7688 1039 59
38335 7688 6067 29
38336 7689 4681 95
38337 7689 3644 84
38338 7689 3510 35
38339 7689 3317 35
38340 7689 2136 51
38341 7690 5578 40
38342 7690 5911 25
38343 7690 5793 92
38344 7690 5878 64
38345 7690 6758 10
38346 7690 4425 6
38347 7690 8565 87
38348 7690 7930 76
38349 7691 8106 21
38350 7691 2726 89
38351 7691 4723 86
38352 7692 2633 38
38353 7692 868 44
38354 7693 1560 50
38355 7693 1522 29
38356 7693 5675 65
38357 7693 9135 94
38358 7693 3168 69
38359 7693 6115 76
38360 7693 8705 61
38361 7693 6907 23
38362 7693 4704 18
38363 7694 5333 46
38364 7694 6458 80
38365 7695 8960 75
38366 7695 5940 86
38367 7695 7000 38
38368 7696 3224 28
38369 7696 7293 6
38370 7696 9205 27
38371 7696 569 19
38372 7696 5608 3
38373 7696 8998 68
38374 7696 3250 88
38375 7696 776 39
38376 7697 3828 6
38377 7697 472 1
38378 7697 7735 42
38379 7697 1748 49
38380 7697 1670 64
38381 7698 6264 49
38382 7698 2093 65
38383 7698 6047 83
38384 7698 6704 59
38385 7698 1161 68
38386 7699 1331 49
38387 7699 9968 71
38388 7699 7013 92
38389 7699 3411 84
38390 7699 4638 47
38391 7700 8852 68
38392 7700 8631 93
38393 7700 918 27
38394 7700 5233 95
38395 7700 8681 83
38396 7700 1638 47
38397 7701 7279 60
38398 7701 9657 52
38399 7701 2794 76
38400 7701 8226 93
38401 7701 2458 34
38402 7701 2634 62
38403 7701 5588 5
38404 7702 5205 44
38405 7702 1936 17
38406 7702 8773 26
38407 7702 2105 63
38408 7702 420 7
38409 7702 6117 83
38410 7702 2568 43
38411 7702 1571 52
38412 7702 810 12
38413 7703 8870 42
38414 7703 4378 13
38415 7704 4593 22
38416 7704 2098 61
38417 7704 6942 32
38418 7704 5647 18
38419 7705 4325 7
38420 7705 8273 83
38421 7705 7335 66
38422 7705 9827 63
38423 7706 1146 95
38424 7706 2182 15
38425 7706 2136 32
38426 7706 757 35
38427 7706 8482 37
38428 7707 2007 26
38429 7707 469 14
38430 7707 7424 85
38431 7707 8209 16
38432 7708 2535 27
38433 7708 8271 77
38434 7708 5009 78
38435 7708 5638 78
38436 7708 5312 16
38437 7708 7840 66
38438 7708 6880 4
38439 7709 6976 67
38440 7709 4568 5
38441 7709 418 3
38442 7709 180 39
38443 7710 5404 87
38444 7710 3317 32
38445 7710 7626 41
38446 7710 1131 40
38447 7711 3568 13
38448 7711 4372 8
38449 7712 8316 91
38450 7712 5593 79
38451 7712 7696 65
38452 7712 683 12
38453 7712 7564 85
38454 7712 7045 47
38455 7712 4141 33
38456 7712 8267 9
38457 7712 6692 41
38458 7712 1836 72
38459 7713 2795 31
38460 7713 5686 14
38461 7713 749 7
38462 7713 3061 11
38463 7713 8798 82
38464 7714 5885 34
38465 7714 5271 23
38466 7714 9829 94
38467 7714 333 59
38468 7714 2394 80
38469 7715 8762 19
38470 7715 1316 87
38471 7715 8803 41
38472 7715 1178 13
38473 7715 984 43
38474 7716 6911 85
38475 7716 1950 100
38476 7716 1915 52
38477 7716 5980 19
38478 7716 1865 50
38479 7716 8081 55
38480 7717 8960 60
38481 7717 4722 71
38482 7717 9588 40
38483 7718 4479 71
38484 7718 6743 16
38485 7718 1576 23
38486 7719 921 74
38487 7719 8516 26
38488 7719 7423 76
38489 7719 8345 79
38490 7720 4650 64
38491 7720 1955 44
38492 7720 4712 36
38493 7720 3370 19
38494 7720 7344 27
38495 7720 6261 25
38496 7720 931 58
38497 7721 7756 97
38498 7721 9767 29
38499 7721 9178 100
38500 7721 9695 73
38501 7721 6027 9
38502 7722 8944 68
38503 7722 7521 14
38504 7722 6384 89
38505 7723 4438 90
38506 7723 2835 84
38507 7723 8445 95
38508 7724 8412 69
38509 7724 4158 52
38510 7724 5761 30
38511 7725 4125 40
38512 7725 858 54
38513 7725 3201 79
38514 7726 3174 90
38515 7726 1388 2
38516 7727 3232 41
38517 7727 1493 12
38518 7728 4514 9
38519 7728 9444 27
38520 7728 9614 47
38521 7729 9737 22
38522 7729 6405 66
38523 7729 2124 80
38524 7729 1749 21
38525 7729 6566 37
38526 7729 20 97
38527 7729 699 53
38528 7729 9262 34
38529 7730 7520 95
38530 7730 9998 93
38531 7730 6048 69
38532 7730 6177 75
38533 7730 5129 36
38534 7730 6889 43
38535 7730 4282 33
38536 7730 9379 35
38537 7730 5330 40
38538 7730 8281 69
38539 7731 720 36
38540 7731 9224 30
38541 7731 1700 75
38542 7731 9455 33
38543 7731 9657 85
38544 7731 5758 59
38545 7731 7220 64
38546 7731 2745 82
38547 7732 2851 29
38548 7732 3680 49
38549 7732 5887 19
38550 7732 2448 22
38551 7732 2732 15
38552 7732 1180 26
38553 7732 452 1
38554 7733 4877 1
38555 7733 6302 2
38556 7733 3379 15
38557 7733 9951 100
38558 7733 134 25
38559 7734 9298 58
38560 7734 4404 24
38561 7734 1493 63
38562 7734 8116 10
38563 7734 63 8
38564 7734 9929 33
38565 7734 5857 62
38566 7735 8506 16
38567 7735 4075 95
38568 7735 7136 9
38569 7735 1219 73
38570 7735 7689 71
38571 7735 2760 63
38572 7735 4597 28
38573 7735 1629 68
38574 7735 5491 59
38575 7736 9441 17
38576 7736 6006 52
38577 7736 1435 18
38578 7736 5074 3
38579 7736 6390 99
38580 7736 5841 83
38581 7736 2344 67
38582 7736 8899 97
38583 7737 4085 71
38584 7737 4950 15
38585 7738 6791 55
38586 7738 5370 94
38587 7738 4544 62
38588 7738 5828 45
38589 7738 3838 52
38590 7739 7433 52
38591 7739 1689 51
38592 7739 1528 82
38593 7739 1211 44
38594 7739 7226 84
38595 7739 3080 50
38596 7739 727 36
38597 7739 921 55
38598 7740 8452 88
38599 7740 9988 1
38600 7740 1737 8
38601 7740 9202 88
38602 7741 3135 24
38603 7741 9499 25
38604 7741 9044 28
38605 7741 3275 70
38606 7741 2335 90
38607 7742 7257 9
38608 7743 7159 13
38609 7743 7510 31
38610 7743 3562 39
38611 7743 9165 56
38612 7744 4055 93
38613 7744 5117 49
38614 7744 8266 63
38615 7744 9431 15
38616 7744 1602 76
38617 7745 3024 19
38618 7745 9812 95
38619 7745 5613 35
38620 7745 295 64
38621 7746 3954 72
38622 7747 3703 2
38623 7747 5835 23
38624 7747 4439 28
38625 7747 1305 32
38626 7747 3112 28
38627 7747 3136 24
38628 7748 9941 29
38629 7748 7001 96
38630 7748 4999 57
38631 7749 2477 91
38632 7749 8061 56
38633 7749 9141 77
38634 7749 4618 43
38635 7749 1896 99
38636 7750 5994 72
38637 7750 8432 63
38638 7750 1509 34
38639 7750 5633 4
38640 7750 913 85
38641 7750 1714 56
38642 7751 4648 37
38643 7751 3902 77
38644 7751 5770 93
38645 7751 5817 80
38646 7751 12 13
38647 7751 9006 34
38648 7751 3883 34
38649 7751 6713 25
38650 7751 9749 4
38651 7751 9908 57
38652 7752 5060 25
38653 7752 2395 38
38654 7752 2949 45
38655 7752 4173 44
38656 7752 8764 46
38657 7752 2391 84
38658 7752 5880 85
38659 7753 633 61
38660 7753 7230 58
38661 7753 1294 70
38662 7753 621 84
38663 7753 5254 87
38664 7753 1803 46
38665 7753 117 52
38666 7753 7437 71
38667 7754 2554 40
38668 7754 4336 94
38669 7754 9819 96
38670 7754 5371 18
38671 7754 6551 54
38672 7754 4411 96
38673 7754 3262 57
38674 7754 8091 99
38675 7755 7912 90
38676 7755 9589 63
38677 7755 2169 56
38678 7755 4592 40
38679 7755 8842 74
38680 7756 4047 92
38681 7756 2438 16
38682 7756 8179 65
38683 7756 9083 95
38684 7756 7934 66
38685 7757 5169 76
38686 7757 6818 25
38687 7758 7934 32
38688 7758 6391 2
38689 7758 4010 34
38690 7758 5310 25
38691 7758 8492 95
38692 7759 8314 67
38693 7759 1986 46
38694 7759 603 58
38695 7759 4517 68
38696 7759 2729 74
38697 7760 2012 35
38698 7760 4902 1
38699 7760 3089 50
38700 7760 4845 83
38701 7760 7087 36
38702 7760 3775 10
38703 7761 7006 69
38704 7761 7882 5
38705 7761 4011 95
38706 7761 2135 6
38707 7761 3902 15
38708 7761 3099 36
38709 7761 8745 20
38710 7762 2907 24
38711 7762 7887 95
38712 7763 4799 48
38713 7763 6836 27
38714 7763 3478 97
38715 7763 9274 64
38716 7764 6358 14
38717 7764 381 15
38718 7764 3113 98
38719 7764 5357 95
38720 7764 6152 6
38721 7765 1056 61
38722 7765 4528 14
38723 7765 9221 34
38724 7765 403 80
38725 7766 2590 16
38726 7766 4107 100
38727 7767 5153 52
38728 7767 7136 30
38729 7767 6468 6
38730 7767 5074 63
38731 7767 8978 93
38732 7767 7603 80
38733 7767 609 73
38734 7768 6292 50
38735 7768 255 30
38736 7768 2143 100
38737 7768 8430 66
38738 7768 3309 78
38739 7769 9993 55
38740 7769 2417 100
38741 7769 9899 1
38742 7769 2954 85
38743 7769 5504 64
38744 7770 4828 88
38745 7770 9810 42
38746 7770 2040 80
38747 7770 7218 95
38748 7771 4897 15
38749 7771 878 53
38750 7771 2725 39
38751 7771 7097 37
38752 7771 6584 92
38753 7771 8067 100
38754 7772 5655 49
38755 7772 1438 71
38756 7772 208 44
38757 7772 1258 44
38758 7772 5903 5
38759 7772 1932 54
38760 7773 3888 50
38761 7773 4449 72
38762 7773 1919 96
38763 7773 254 30
38764 7773 4553 88
38765 7774 6072 81
38766 7774 9993 23
38767 7774 7281 18
38768 7775 3084 37
38769 7775 9167 40
38770 7776 4923 3
38771 7776 2247 30
38772 7776 8436 12
38773 7777 687 47
38774 7777 7181 44
38775 7777 5791 29
38776 7777 7328 98
38777 7777 5037 30
38778 7777 27 58
38779 7777 2625 88
38780 7778 9699 48
38781 7778 7205 38
38782 7778 1941 34
38783 7778 1981 93
38784 7778 988 32
38785 7778 7967 3
38786 7778 1519 47
38787 7778 243 35
38788 7779 8751 18
38789 7779 7191 100
38790 7779 8175 15
38791 7779 6700 9
38792 7779 7516 20
38793 7779 5358 64
38794 7780 2632 23
38795 7780 2563 79
38796 7780 6149 52
38797 7780 9702 16
38798 7780 5916 26
38799 7780 5513 5
38800 7781 4226 49
38801 7781 8625 90
38802 7781 5802 83
38803 7781 7906 41
38804 7782 7120 37
38805 7782 1355 78
38806 7782 5736 82
38807 7782 1242 15
38808 7783 6436 38
38809 7783 5199 82
38810 7783 8965 6
38811 7784 1058 7
38812 7784 4794 9
38813 7784 4968 96
38814 7784 9258 76
38815 7785 864 42
38816 7785 7093 43
38817 7785 8623 56
38818 7785 16 38
38819 7785 8459 54
38820 7785 5950 73
38821 7785 4949 86
38822 7786 8415 30
38823 7786 5892 22
38824 7786 3119 37
38825 7786 4507 27
38826 7786 2820 36
38827 7787 6878 70
38828 7787 6113 27
38829 7788 6704 2
38830 7788 6079 23
38831 7788 1305 82
38832 7789 8094 12
38833 7789 5245 84
38834 7789 1435 94
38835 7789 7748 76
38836 7789 6608 40
38837 7789 8184 29
38838 7789 7084 7
38839 7790 677 50
38840 7790 4323 42
38841 7790 6469 44
38842 7790 4569 82
38843 7790 1097 88
38844 7790 7982 55
38845 7791 7642 33
38846 7791 4702 81
38847 7792 4704 51
38848 7792 7150 16
38849 7793 7207 88
38850 7793 631 96
38851 7793 9603 20
38852 7793 4068 49
38853 7793 2970 63
38854 7794 3431 8
38855 7794 2135 69
38856 7794 4842 36
38857 7795 3921 95
38858 7795 7167 8
38859 7795 7949 38
38860 7795 4347 17
38861 7796 3391 29
38862 7796 3146 15
38863 7796 3829 50
38864 7796 1498 53
38865 7797 793 100
38866 7797 7031 17
38867 7797 8669 96
38868 7798 7738 15
38869 7798 5301 1
38870 7798 4388 3
38871 7798 8482 80
38872 7798 7692 29
38873 7799 8426 85
38874 7799 6635 71
38875 7799 5335 53
38876 7799 1151 81
38877 7799 9688 56
38878 7799 7902 98
38879 7799 5929 64
38880 7800 534 68
38881 7800 4693 16
38882 7800 5015 17
38883 7800 4228 62
38884 7800 3455 10
38885 7800 2737 89
38886 7800 8267 61
38887 7800 4608 58
38888 7800 2825 70
38889 7801 3563 77
38890 7801 9184 47
38891 7801 151 30
38892 7801 7233 18
38893 7801 2238 16
38894 7801 7946 25
38895 7801 7535 25
38896 7802 5649 79
38897 7802 433 12
38898 7802 6415 95
38899 7802 9191 30
38900 7802 768 29
38901 7802 4237 65
38902 7802 1368 10
38903 7803 6230 3
38904 7803 4609 71
38905 7803 7121 86
38906 7803 687 50
38907 7804 3649 97
38908 7804 8356 28
38909 7804 1353 15
38910 7804 5962 58
38911 7804 9669 88
38912 7804 290 42
38913 7805 541 26
38914 7805 4539 96
38915 7805 4185 43
38916 7805 1809 55
38917 7805 3704 99
38918 7805 9724 39
38919 7805 8218 6
38920 7805 1927 28
38921 7805 1861 73
38922 7806 4750 90
38923 7806 7635 51
38924 7806 6653 11
38925 7807 9207 91
38926 7807 7487 27
38927 7808 4720 73
38928 7808 8905 70
38929 7808 2744 84
38930 7808 513 49
38931 7808 2787 13
38932 7808 2692 60
38933 7809 8263 74
38934 7809 5897 28
38935 7809 4259 9
38936 7809 4885 1
38937 7810 6664 58
38938 7810 974 98
38939 7810 777 73
38940 7810 4982 25
38941 7810 703 29
38942 7811 1974 98
38943 7811 2952 3
38944 7811 5620 37
38945 7811 87 67
38946 7811 6584 35
38947 7811 5671 61
38948 7811 8452 7
38949 7811 7056 16
38950 7811 3063 79
38951 7812 1189 65
38952 7812 7118 14
38953 7812 5855 45
38954 7812 6180 12
38955 7812 3743 32
38956 7812 2650 35
38957 7812 6324 31
38958 7813 4172 82
38959 7813 9616 29
38960 7813 4944 13
38961 7813 7461 92
38962 7814 8204 94
38963 7814 6336 35
38964 7814 6841 99
38965 7814 5160 37
38966 7814 4299 14
38967 7814 817 17
38968 7815 3720 81
38969 7815 2920 93
38970 7815 9674 71
38971 7815 4298 6
38972 7815 6676 54
38973 7816 1040 53
38974 7816 1299 80
38975 7816 5989 12
38976 7816 4066 73
38977 7816 1483 11
38978 7817 9278 4
38979 7817 4184 15
38980 7817 3921 98
38981 7817 5788 15
38982 7817 9245 37
38983 7817 6625 16
38984 7817 897 100
38985 7818 824 37
38986 7818 542 46
38987 7818 3071 71
38988 7819 9846 17
38989 7819 626 58
38990 7819 8003 86
38991 7820 1209 98
38992 7820 2500 13
38993 7820 5043 75
38994 7820 7591 99
38995 7820 1125 30
38996 7820 61 90
38997 7820 7842 14
38998 7821 3815 76
38999 7821 2981 2
39000 7821 3720 46
39001 7821 9652 49
39002 7821 2565 91
39003 7821 3242 3
39004 7821 9578 71
39005 7822 4036 33
39006 7822 6318 53
39007 7822 6260 86
39008 7822 1177 71
39009 7822 9262 86
39010 7822 8565 23
39011 7822 4024 74
39012 7823 2782 86
39013 7823 3928 41
39014 7823 7789 14
39015 7823 6750 55
39016 7823 760 52
39017 7824 104 12
39018 7824 9145 85
39019 7824 5832 39
39020 7824 7288 96
39021 7825 6759 22
39022 7825 8752 42
39023 7826 5371 48
39024 7826 6704 48
39025 7826 4255 86
39026 7826 9049 87
39027 7827 6289 40
39028 7827 3406 4
39029 7827 5338 78
39030 7827 5386 26
39031 7828 731 4
39032 7828 7460 16
39033 7828 2518 19
39034 7828 1759 4
39035 7828 8859 57
39036 7829 5683 33
39037 7829 8071 90
39038 7829 1584 11
39039 7829 9848 4
39040 7830 4145 50
39041 7830 6339 60
39042 7830 971 30
39043 7830 2421 87
39044 7830 4082 44
39045 7830 4388 67
39046 7830 4409 24
39047 7830 2244 27
39048 7831 1998 96
39049 7832 3314 54
39050 7832 2423 99
39051 7832 6225 37
39052 7832 2488 25
39053 7832 4331 90
39054 7832 5607 23
39055 7832 1503 78
39056 7833 584 52
39057 7833 6680 54
39058 7833 937 90
39059 7833 2981 57
39060 7833 3542 16
39061 7833 8131 99
39062 7833 2593 31
39063 7833 8801 63
39064 7834 3495 26
39065 7834 2443 89
39066 7834 9295 77
39067 7834 8089 40
39068 7834 6880 69
39069 7835 7671 34
39070 7835 5125 15
39071 7835 1003 3
39072 7835 3321 81
39073 7835 5974 93
39074 7836 6789 56
39075 7836 2990 78
39076 7836 8719 47
39077 7836 2246 6
39078 7836 5277 70
39079 7837 8796 15
39080 7837 9325 85
39081 7838 8972 36
39082 7838 3973 78
39083 7839 2449 64
39084 7839 598 57
39085 7839 5414 77
39086 7839 6782 41
39087 7839 2963 81
39088 7839 9886 22
39089 7839 244 36
39090 7840 1117 95
39091 7840 2772 46
39092 7840 710 96
39093 7840 4495 92
39094 7840 2456 50
39095 7841 125 48
39096 7841 8943 17
39097 7841 4051 70
39098 7841 3553 18
39099 7841 257 93
39100 7841 7963 19
39101 7841 822 59
39102 7841 9012 70
39103 7842 6634 37
39104 7842 7471 27
39105 7842 1307 16
39106 7842 7886 60
39107 7842 4427 99
39108 7842 7671 23
39109 7843 3681 90
39110 7843 700 23
39111 7843 4389 93
39112 7843 8847 9
39113 7843 786 11
39114 7844 8053 84
39115 7844 7385 76
39116 7844 5063 24
39117 7844 8191 11
39118 7845 7295 75
39119 7845 3052 27
39120 7845 9360 25
39121 7845 14 22
39122 7846 4737 50
39123 7846 6762 67
39124 7847 690 92
39125 7847 335 54
39126 7847 9437 97
39127 7848 1278 78
39128 7848 8947 19
39129 7848 8768 44
39130 7848 8315 86
39131 7849 8665 42
39132 7849 9298 69
39133 7850 8522 17
39134 7850 5343 96
39135 7850 3331 67
39136 7851 1468 13
39137 7851 2436 61
39138 7851 7692 5
39139 7851 3044 73
39140 7851 5314 58
39141 7852 9829 88
39142 7852 5303 10
39143 7852 9 71
39144 7852 8923 53
39145 7852 2567 31
39146 7853 6978 53
39147 7853 6876 38
39148 7854 4383 90
39149 7854 6524 64
39150 7854 8158 69
39151 7854 4097 26
39152 7854 8725 84
39153 7854 4928 72
39154 7854 6980 80
39155 7855 426 27
39156 7855 936 69
39157 7855 2213 38
39158 7855 2557 62
39159 7855 856 93
39160 7856 9145 57
39161 7856 6040 59
39162 7856 2923 25
39163 7856 2825 42
39164 7856 4834 81
39165 7856 660 37
39166 7856 5860 59
39167 7856 3357 46
39168 7857 4625 73
39169 7857 5874 80
39170 7857 2932 18
39171 7858 4729 65
39172 7858 9871 41
39173 7858 1396 85
39174 7858 2813 92
39175 7858 3457 67
39176 7858 4638 27
39177 7858 8024 47
39178 7858 1941 10
39179 7858 2320 62
39180 7858 9718 29
39181 7859 6349 18
39182 7859 9452 8
39183 7859 1096 78
39184 7860 1424 24
39185 7860 5874 100
39186 7860 9024 21
39187 7860 3998 58
39188 7860 3641 12
39189 7860 7537 23
39190 7860 1530 32
39191 7861 6253 50
39192 7861 2126 69
39193 7861 2367 26
39194 7861 5989 88
39195 7861 4235 56
39196 7861 5802 39
39197 7861 8342 89
39198 7861 168 62
39199 7861 2826 35
39200 7862 6741 85
39201 7863 7596 2
39202 7863 6344 20
39203 7863 9980 30
39204 7863 5658 11
39205 7864 2503 17
39206 7864 3118 71
39207 7864 2323 61
39208 7864 8007 18
39209 7864 6199 10
39210 7864 1023 43
39211 7864 4564 1
39212 7864 7771 80
39213 7864 8802 20
39214 7865 5952 27
39215 7865 6256 49
39216 7865 1833 93
39217 7865 4315 42
39218 7865 2143 91
39219 7865 2106 33
39220 7866 3596 4
39221 7866 164 28
39222 7866 6832 37
39223 7866 5201 12
39224 7866 2533 30
39225 7866 5895 47
39226 7868 1865 27
39227 7868 6238 85
39228 7868 3603 5
39229 7868 3265 83
39230 7868 5017 15
39231 7869 3899 1
39232 7869 3206 5
39233 7869 4515 54
39234 7869 1420 33
39235 7869 5234 99
39236 7869 2727 76
39237 7870 905 4
39238 7870 3636 14
39239 7871 3912 47
39240 7871 969 36
39241 7871 4036 18
39242 7871 9879 50
39243 7871 3115 17
39244 7872 7801 74
39245 7872 8423 88
39246 7872 2435 19
39247 7873 2168 75
39248 7873 7084 84
39249 7873 875 24
39250 7873 7751 82
39251 7874 8302 79
39252 7874 1565 70
39253 7874 6581 40
39254 7874 6249 5
39255 7874 2724 98
39256 7874 3811 93
39257 7874 608 35
39258 7874 7470 41
39259 7875 2566 12
39260 7875 7824 68
39261 7875 8733 48
39262 7875 5528 67
39263 7876 6091 24
39264 7876 3048 36
39265 7876 8778 65
39266 7876 3870 68
39267 7876 3793 53
39268 7876 4287 42
39269 7877 616 2
39270 7877 7873 54
39271 7877 8463 98
39272 7877 3933 81
39273 7877 9681 78
39274 7877 9551 98
39275 7877 2773 80
39276 7877 5206 51
39277 7877 6024 66
39278 7878 1526 40
39279 7878 8408 3
39280 7878 2599 68
39281 7878 4954 37
39282 7879 1396 51
39283 7879 1009 90
39284 7879 2685 18
39285 7879 6154 86
39286 7879 151 12
39287 7880 2130 74
39288 7880 2059 9
39289 7880 3517 4
39290 7880 30 80
39291 7881 7725 71
39292 7881 7640 11
39293 7881 497 19
39294 7881 1383 39
39295 7881 4422 64
39296 7881 667 36
39297 7881 2657 49
39298 7881 2363 31
39299 7882 1262 44
39300 7882 7 97
39301 7882 3513 96
39302 7883 6348 57
39303 7883 6192 94
39304 7883 6133 6
39305 7883 9943 76
39306 7883 3937 27
39307 7883 3354 76
39308 7884 5862 10
39309 7884 8727 23
39310 7885 6278 92
39311 7885 6782 21
39312 7885 573 73
39313 7885 5312 99
39314 7885 1178 4
39315 7885 7507 20
39316 7885 2858 17
39317 7885 2373 99
39318 7885 1098 82
39319 7885 3024 74
39320 7886 4474 60
39321 7886 9776 83
39322 7886 8299 54
39323 7886 8274 49
39324 7886 2541 95
39325 7886 6666 14
39326 7887 3571 87
39327 7887 1510 15
39328 7887 3674 74
39329 7887 8397 1
39330 7888 7486 70
39331 7888 4353 28
39332 7888 9908 81
39333 7888 5410 29
39334 7888 2030 45
39335 7888 5049 92
39336 7888 523 37
39337 7888 577 20
39338 7889 2577 43
39339 7889 8762 48
39340 7889 172 50
39341 7890 4415 64
39342 7890 5049 60
39343 7890 8784 47
39344 7890 7116 18
39345 7890 4329 64
39346 7890 3985 5
39347 7890 1978 58
39348 7890 9351 2
39349 7890 9297 6
39350 7890 5268 25
39351 7890 2528 7
39352 7890 2716 32
39353 7891 6956 99
39354 7891 9813 40
39355 7891 5722 82
39356 7891 4979 81
39357 7891 3149 90
39358 7891 3223 54
39359 7892 1396 93
39360 7892 9012 66
39361 7892 6005 2
39362 7892 2633 16
39363 7892 2846 64
39364 7893 5825 60
39365 7893 3834 9
39366 7893 6095 48
39367 7893 4120 49
39368 7893 2509 51
39369 7894 449 45
39370 7894 5764 48
39371 7894 7192 58
39372 7894 9792 28
39373 7895 1387 12
39374 7895 3324 54
39375 7895 6733 64
39376 7895 2810 75
39377 7895 7128 90
39378 7896 8751 92
39379 7896 9031 18
39380 7897 9318 94
39381 7897 4734 34
39382 7897 3147 45
39383 7897 6263 87
39384 7897 9182 56
39385 7897 6987 42
39386 7898 2122 26
39387 7898 5937 77
39388 7898 8438 52
39389 7898 343 24
39390 7898 2916 29
39391 7899 2297 82
39392 7899 4632 59
39393 7899 3460 99
39394 7899 9874 25
39395 7899 4017 16
39396 7900 4126 34
39397 7900 3615 97
39398 7900 3110 81
39399 7900 5420 24
39400 7900 1321 26
39401 7901 9192 74
39402 7901 8446 58
39403 7901 2378 86
39404 7901 2815 31
39405 7901 2919 80
39406 7901 5830 14
39407 7901 3113 78
39408 7901 9178 23
39409 7902 2852 52
39410 7902 9768 27
39411 7902 3740 99
39412 7902 6438 64
39413 7902 4772 82
39414 7902 5927 17
39415 7902 2856 25
39416 7903 2701 19
39417 7903 8643 24
39418 7903 5374 35
39419 7903 559 70
39420 7903 2485 63
39421 7903 7004 6
39422 7903 7473 57
39423 7903 724 3
39424 7904 2234 29
39425 7904 5458 18
39426 7904 5811 91
39427 7904 4855 36
39428 7904 3614 26
39429 7905 4746 18
39430 7905 846 81
39431 7905 510 39
39432 7905 7478 76
39433 7905 1265 56
39434 7905 7560 17
39435 7905 5771 20
39436 7905 9594 69
39437 7905 6572 48
39438 7905 2579 18
39439 7905 7296 84
39440 7905 1056 31
39441 7906 1652 96
39442 7906 148 21
39443 7907 9779 58
39444 7907 5082 43
39445 7907 5164 53
39446 7907 4170 58
39447 7908 3758 62
39448 7908 6529 88
39449 7908 3529 93
39450 7908 8391 8
39451 7909 8384 15
39452 7909 9812 94
39453 7909 3861 55
39454 7909 575 80
39455 7909 674 68
39456 7909 517 54
39457 7909 9911 13
39458 7910 8060 84
39459 7910 9466 49
39460 7910 7693 10
39461 7911 7142 68
39462 7911 6086 36
39463 7911 7676 88
39464 7911 2962 49
39465 7912 9610 11
39466 7912 4693 97
39467 7913 3560 19
39468 7913 421 17
39469 7913 2390 79
39470 7913 3672 81
39471 7913 6150 96
39472 7913 7899 18
39473 7913 138 21
39474 7913 325 14
39475 7914 4556 46
39476 7914 5587 30
39477 7914 8672 29
39478 7914 454 30
39479 7914 488 35
39480 7915 1475 57
39481 7915 3891 33
39482 7915 5180 26
39483 7916 6785 62
39484 7916 6468 12
39485 7916 6191 24
39486 7917 8838 74
39487 7917 1722 26
39488 7917 8535 4
39489 7918 4731 27
39490 7918 3414 31
39491 7918 1037 49
39492 7918 8642 26
39493 7918 9082 78
39494 7919 3964 18
39495 7919 4776 65
39496 7919 6204 29
39497 7919 6797 19
39498 7919 9529 82
39499 7919 1759 17
39500 7920 5742 30
39501 7920 616 13
39502 7920 5866 44
39503 7920 2901 71
39504 7920 1976 82
39505 7921 7922 40
39506 7921 8033 90
39507 7921 6373 8
39508 7921 8984 50
39509 7921 2890 63
39510 7921 1685 14
39511 7922 1730 71
39512 7922 9181 26
39513 7922 1051 47
39514 7922 5797 51
39515 7922 4920 83
39516 7922 203 74
39517 7922 8148 75
39518 7922 7615 88
39519 7923 7519 36
39520 7923 9423 47
39521 7923 714 9
39522 7924 7934 96
39523 7924 4859 15
39524 7924 8126 41
39525 7924 111 33
39526 7925 4819 55
39527 7925 3093 21
39528 7925 4072 97
39529 7925 672 11
39530 7925 6986 3
39531 7926 5769 87
39532 7926 4810 90
39533 7926 5971 22
39534 7926 5533 83
39535 7926 2551 90
39536 7926 4523 41
39537 7926 2329 10
39538 7926 7705 32
39539 7926 6717 65
39540 7926 4219 39
39541 7927 109 35
39542 7927 8329 92
39543 7927 7950 92
39544 7927 9550 58
39545 7927 4473 14
39546 7928 961 74
39547 7928 8779 53
39548 7928 7539 94
39549 7928 2210 10
39550 7928 2911 13
39551 7928 3540 9
39552 7928 8190 57
39553 7928 2063 49
39554 7928 9996 23
39555 7929 8150 82
39556 7929 4839 67
39557 7929 954 15
39558 7929 7927 37
39559 7929 8509 38
39560 7929 3032 31
39561 7930 2008 40
39562 7930 8056 93
39563 7930 969 96
39564 7930 5938 72
39565 7930 8366 60
39566 7931 566 92
39567 7931 8983 63
39568 7931 6550 80
39569 7932 2216 55
39570 7932 9678 40
39571 7932 7374 64
39572 7932 2639 75
39573 7933 6163 67
39574 7933 2737 3
39575 7933 7229 76
39576 7933 5522 38
39577 7933 7509 17
39578 7934 1548 89
39579 7934 4071 28
39580 7934 6848 26
39581 7934 4603 55
39582 7934 9839 2
39583 7935 7777 28
39584 7935 9346 78
39585 7935 5615 93
39586 7935 6860 33
39587 7935 5053 5
39588 7936 4099 40
39589 7936 1113 60
39590 7936 234 56
39591 7936 9939 42
39592 7936 2428 32
39593 7936 7302 59
39594 7936 3282 17
39595 7937 2126 19
39596 7937 2540 25
39597 7937 6117 10
39598 7937 8381 61
39599 7937 8145 15
39600 7938 4549 78
39601 7938 4409 43
39602 7939 4867 61
39603 7939 4615 44
39604 7939 6392 19
39605 7939 18 54
39606 7939 3224 15
39607 7939 9089 39
39608 7940 1434 14
39609 7940 5080 66
39610 7940 8080 75
39611 7940 9555 59
39612 7940 5804 32
39613 7940 4939 95
39614 7940 9732 39
39615 7941 9454 64
39616 7941 3488 55
39617 7941 1717 21
39618 7941 5702 87
39619 7942 3115 37
39620 7942 361 96
39621 7942 7739 24
39622 7942 3371 21
39623 7943 405 20
39624 7943 2967 93
39625 7943 6329 88
39626 7943 7931 41
39627 7943 4246 46
39628 7943 8193 73
39629 7944 4711 20
39630 7944 1750 48
39631 7944 5468 99
39632 7944 465 77
39633 7944 7071 46
39634 7945 5658 86
39635 7945 2278 46
39636 7945 2503 99
39637 7945 904 69
39638 7945 2779 68
39639 7946 3877 40
39640 7946 7934 30
39641 7946 1402 59
39642 7946 1834 1
39643 7946 5130 43
39644 7947 719 74
39645 7947 805 61
39646 7947 2527 97
39647 7947 7722 66
39648 7947 2860 67
39649 7947 5576 45
39650 7947 2915 71
39651 7947 1882 85
39652 7948 2311 35
39653 7948 496 86
39654 7948 3006 97
39655 7948 8647 60
39656 7949 9651 23
39657 7949 6689 3
39658 7949 596 84
39659 7949 9181 98
39660 7949 9390 4
39661 7950 6802 41
39662 7950 101 1
39663 7950 4603 80
39664 7951 3940 18
39665 7951 4035 38
39666 7951 3591 54
39667 7951 1404 73
39668 7951 3664 79
39669 7951 3729 41
39670 7951 1843 25
39671 7951 6267 99
39672 7951 9472 27
39673 7951 2724 2
39674 7951 2413 90
39675 7952 4926 96
39676 7952 5679 88
39677 7952 5689 26
39678 7952 2118 54
39679 7952 4089 3
39680 7952 9791 3
39681 7952 3943 83
39682 7952 2736 69
39683 7953 4499 100
39684 7953 284 6
39685 7953 2623 88
39686 7953 2030 65
39687 7953 3300 36
39688 7953 8969 23
39689 7953 9457 8
39690 7954 7672 7
39691 7954 7856 31
39692 7954 5238 75
39693 7954 5021 99
39694 7954 7308 27
39695 7954 7859 69
39696 7955 5517 72
39697 7955 8305 74
39698 7955 9316 84
39699 7955 3907 12
39700 7955 766 71
39701 7956 5667 10
39702 7956 1011 90
39703 7956 2601 26
39704 7957 6916 1
39705 7957 6328 97
39706 7957 2289 82
39707 7957 4814 2
39708 7957 3020 98
39709 7957 5538 41
39710 7957 2575 45
39711 7958 463 36
39712 7958 6168 37
39713 7958 2147 46
39714 7958 428 92
39715 7958 1556 37
39716 7959 2402 49
39717 7959 3188 99
39718 7959 6345 53
39719 7959 3375 76
39720 7959 6322 56
39721 7959 3211 71
39722 7959 1220 46
39723 7960 8026 77
39724 7960 8281 87
39725 7960 28 24
39726 7960 1157 88
39727 7960 5868 72
39728 7960 8189 20
39729 7961 4583 7
39730 7961 6005 97
39731 7962 6827 80
39732 7962 3555 60
39733 7962 9078 72
39734 7962 4390 64
39735 7962 667 32
39736 7962 7162 100
39737 7962 809 73
39738 7962 3156 94
39739 7962 4666 88
39740 7963 8463 93
39741 7963 8876 30
39742 7963 3546 44
39743 7963 1369 11
39744 7964 5992 44
39745 7964 7577 59
39746 7964 4539 88
39747 7964 920 7
39748 7964 1553 61
39749 7964 5337 27
39750 7964 7687 14
39751 7964 2093 39
39752 7965 8895 47
39753 7966 9583 87
39754 7966 7241 61
39755 7966 7591 57
39756 7966 1043 2
39757 7966 2344 81
39758 7966 3835 34
39759 7966 5545 37
39760 7966 5330 75
39761 7966 3879 60
39762 7966 4200 51
39763 7966 9062 2
39764 7967 6795 21
39765 7967 7270 28
39766 7967 6174 27
39767 7967 2732 79
39768 7967 8690 74
39769 7968 9133 77
39770 7968 5931 9
39771 7968 2919 88
39772 7969 959 79
39773 7969 7539 95
39774 7969 9607 4
39775 7969 2556 1
39776 7970 4159 36
39777 7970 1209 48
39778 7970 1915 5
39779 7970 4761 35
39780 7970 8079 1
39781 7971 4765 33
39782 7971 2967 31
39783 7971 6478 70
39784 7971 2468 1
39785 7972 6898 4
39786 7972 7335 51
39787 7973 9978 5
39788 7973 3369 67
39789 7973 8623 74
39790 7973 8163 96
39791 7974 5898 20
39792 7974 7840 31
39793 7974 593 24
39794 7974 9426 24
39795 7975 2020 73
39796 7975 4127 87
39797 7975 431 74
39798 7975 2683 3
39799 7975 8985 94
39800 7975 5927 45
39801 7975 6474 99
39802 7975 3364 29
39803 7975 567 97
39804 7976 784 81
39805 7976 9910 24
39806 7976 1728 21
39807 7976 5731 86
39808 7976 5869 64
39809 7976 2515 22
39810 7977 9307 95
39811 7977 9866 27
39812 7977 818 35
39813 7977 1483 92
39814 7977 489 3
39815 7978 4402 25
39816 7978 2259 51
39817 7978 9970 99
39818 7978 1099 96
39819 7978 9746 15
39820 7979 2186 23
39821 7979 1216 80
39822 7979 3919 20
39823 7980 6667 63
39824 7980 1459 20
39825 7980 2589 86
39826 7980 5439 28
39827 7981 3133 35
39828 7981 2996 22
39829 7981 3315 38
39830 7981 5675 49
39831 7981 9414 11
39832 7981 5637 34
39833 7981 5286 98
39834 7981 8595 91
39835 7982 3659 98
39836 7982 721 7
39837 7982 6751 84
39838 7982 6955 23
39839 7982 6495 48
39840 7982 6284 41
39841 7983 2299 96
39842 7983 6049 34
39843 7983 2376 21
39844 7984 8562 52
39845 7984 721 36
39846 7984 4653 53
39847 7984 3037 26
39848 7984 4034 99
39849 7985 3546 21
39850 7985 5911 56
39851 7985 5104 4
39852 7985 5827 94
39853 7985 5458 54
39854 7985 1818 44
39855 7986 4027 60
39856 7986 2298 9
39857 7987 4313 86
39858 7987 7429 69
39859 7987 6835 6
39860 7987 9598 42
39861 7987 3149 79
39862 7987 3333 55
39863 7988 9777 10
39864 7988 5454 67
39865 7988 7045 32
39866 7988 3297 19
39867 7988 1689 48
39868 7989 5426 62
39869 7989 6819 70
39870 7989 8511 50
39871 7989 9301 47
39872 7989 5318 35
39873 7989 5261 14
39874 7990 7358 28
39875 7990 4653 71
39876 7990 973 64
39877 7990 2314 42
39878 7990 7246 92
39879 7990 7456 79
39880 7990 8721 13
39881 7990 1713 60
39882 7991 8990 91
39883 7991 4246 21
39884 7991 2692 32
39885 7991 7085 18
39886 7992 8401 50
39887 7992 2714 88
39888 7992 3290 77
39889 7993 3508 32
39890 7993 3912 18
39891 7993 7210 78
39892 7993 8800 36
39893 7994 5088 46
39894 7994 8942 63
39895 7994 1749 86
39896 7995 9756 48
39897 7995 544 73
39898 7995 1697 45
39899 7995 1933 93
39900 7995 752 84
39901 7996 795 89
39902 7996 3988 11
39903 7996 6887 5
39904 7997 9186 19
39905 7997 7055 15
39906 7997 4514 50
39907 7997 7236 45
39908 7997 3497 48
39909 7998 4509 48
39910 7998 6964 49
39911 7998 5418 3
39912 7998 7112 81
39913 7999 5387 59
39914 8000 2056 4
39915 8000 2873 14
39916 8000 3468 33
39917 8000 9515 53
39918 8000 5044 38
39919 8001 6973 48
39920 8001 541 18
39921 8001 2413 65
39922 8002 8954 57
39923 8002 5481 39
39924 8002 7634 90
39925 8002 3808 88
39926 8003 3077 86
39927 8003 6536 84
39928 8003 4613 96
39929 8003 5622 96
39930 8003 3716 81
39931 8004 1129 29
39932 8004 4923 40
39933 8004 3247 90
39934 8004 874 81
39935 8004 8658 62
39936 8004 8246 21
39937 8004 6386 73
39938 8005 6772 1
39939 8005 7217 5
39940 8005 8478 7
39941 8005 5880 89
39942 8005 6209 56
39943 8005 1680 85
39944 8005 4735 2
39945 8005 8800 52
39946 8005 9148 28
39947 8006 4943 66
39948 8006 6259 16
39949 8006 3795 52
39950 8007 7383 96
39951 8007 6427 62
39952 8007 4037 44
39953 8007 8689 98
39954 8007 5885 62
39955 8007 8371 1
39956 8008 1753 67
39957 8008 8970 10
39958 8008 6993 3
39959 8009 1156 17
39960 8009 6490 8
39961 8009 8767 49
39962 8009 4912 33
39963 8009 3621 41
39964 8010 1600 84
39965 8010 6880 10
39966 8010 44 16
39967 8010 3576 71
39968 8010 1636 29
39969 8010 4602 90
39970 8010 9927 32
39971 8010 1635 74
39972 8011 8815 70
39973 8011 3775 62
39974 8011 2584 7
39975 8011 979 66
39976 8011 1297 16
39977 8012 6819 71
39978 8012 8852 59
39979 8012 5957 85
39980 8012 8684 91
39981 8013 2208 90
39982 8013 7901 43
39983 8013 3568 20
39984 8013 5935 41
39985 8013 9256 94
39986 8014 5830 64
39987 8015 9321 39
39988 8015 4753 10
39989 8015 2783 2
39990 8015 2147 50
39991 8015 2798 68
39992 8015 7093 1
39993 8015 3368 28
39994 8016 3345 86
39995 8016 4162 69
39996 8017 8813 38
39997 8017 1514 11
39998 8017 7829 50
39999 8017 9238 88
40000 8017 567 29
40001 8017 5596 74
40002 8017 7263 95
40003 8017 6127 17
40004 8018 4789 76
40005 8019 8930 23
40006 8019 6631 62
40007 8019 307 39
40008 8019 7249 55
40009 8019 7974 27
40010 8019 3423 77
40011 8020 6616 38
40012 8020 6675 100
40013 8020 11 24
40014 8021 9594 63
40015 8021 6878 92
40016 8021 6666 4
40017 8021 3436 99
40018 8021 6186 97
40019 8021 3398 58
40020 8022 2148 6
40021 8022 5164 47
40022 8022 1159 32
40023 8022 9046 17
40024 8023 9598 54
40025 8023 2355 100
40026 8023 6632 59
40027 8023 9883 56
40028 8023 907 76
40029 8023 1231 78
40030 8024 6976 100
40031 8024 7844 40
40032 8024 3515 48
40033 8024 6137 23
40034 8025 5915 1
40035 8025 6067 67
40036 8025 4900 76
40037 8025 3139 73
40038 8025 552 95
40039 8025 7861 45
40040 8025 4564 91
40041 8026 6954 39
40042 8026 8280 53
40043 8026 2684 55
40044 8026 7622 93
40045 8026 2717 30
40046 8026 8633 80
40047 8027 7656 55
40048 8027 5899 48
40049 8027 3922 59
40050 8027 5570 89
40051 8027 7912 86
40052 8027 1787 64
40053 8028 6415 46
40054 8028 5569 86
40055 8028 8104 72
40056 8028 5468 82
40057 8029 3778 72
40058 8029 994 34
40059 8029 3148 38
40060 8029 8807 55
40061 8029 669 1
40062 8029 7279 48
40063 8029 3711 30
40064 8029 5996 17
40065 8029 4640 9
40066 8030 9836 72
40067 8030 5802 62
40068 8030 3595 93
40069 8031 5659 1
40070 8031 8745 28
40071 8031 6041 41
40072 8032 4995 42
40073 8032 7904 92
40074 8032 8307 59
40075 8032 2074 63
40076 8032 3750 10
40077 8033 9130 76
40078 8033 193 88
40079 8033 1119 3
40080 8034 731 22
40081 8034 1408 11
40082 8034 547 92
40083 8034 3498 67
40084 8034 9088 60
40085 8035 5820 90
40086 8035 7717 12
40087 8035 172 85
40088 8035 4809 4
40089 8035 5044 15
40090 8035 266 78
40091 8035 7326 11
40092 8035 3379 68
40093 8036 9372 67
40094 8036 73 29
40095 8036 3284 34
40096 8036 8397 74
40097 8036 1007 73
40098 8036 1408 100
40099 8037 7819 15
40100 8037 2504 19
40101 8037 4136 56
40102 8037 5566 56
40103 8038 6806 43
40104 8038 5085 19
40105 8038 7745 82
40106 8038 8687 79
40107 8039 135 72
40108 8039 2629 14
40109 8039 1607 50
40110 8039 824 70
40111 8039 8069 62
40112 8039 2702 55
40113 8039 1919 28
40114 8039 1205 52
40115 8040 8459 23
40116 8040 8494 32
40117 8040 5369 76
40118 8040 3372 81
40119 8040 1671 81
40120 8041 8722 80
40121 8041 4128 21
40122 8041 238 33
40123 8041 6349 26
40124 8041 9272 18
40125 8041 8316 8
40126 8042 6839 70
40127 8042 6012 11
40128 8042 813 13
40129 8042 9648 87
40130 8042 1955 3
40131 8042 4970 39
40132 8043 7016 14
40133 8043 1482 22
40134 8043 6979 6
40135 8043 2804 8
40136 8044 5441 73
40137 8044 4782 4
40138 8044 3625 44
40139 8044 1121 92
40140 8044 1465 46
40141 8044 5018 36
40142 8044 9102 52
40143 8045 8204 29
40144 8046 8293 56
40145 8046 1388 43
40146 8046 6482 50
40147 8046 3686 95
40148 8047 7898 46
40149 8047 989 6
40150 8047 895 23
40151 8047 3457 89
40152 8048 133 91
40153 8048 303 77
40154 8048 5939 24
40155 8049 8753 10
40156 8049 2560 80
40157 8050 1103 66
40158 8050 5477 95
40159 8050 4504 39
40160 8050 6055 26
40161 8050 651 41
40162 8050 8826 39
40163 8051 7160 25
40164 8051 5766 11
40165 8051 7559 44
40166 8051 9512 25
40167 8052 5182 54
40168 8052 4516 7
40169 8052 6107 71
40170 8053 8918 79
40171 8053 3237 48
40172 8053 2146 71
40173 8053 8809 25
40174 8053 6415 72
40175 8053 4419 96
40176 8054 740 99
40177 8054 4356 4
40178 8054 434 10
40179 8054 4213 8
40180 8056 8685 37
40181 8056 3960 19
40182 8056 9812 71
40183 8056 9699 32
40184 8057 3836 80
40185 8057 3250 87
40186 8057 4708 53
40187 8057 5676 74
40188 8058 9916 95
40189 8058 2704 77
40190 8058 9987 28
40191 8058 1104 84
40192 8058 9100 45
40193 8058 6868 52
40194 8058 8787 100
40195 8059 7612 43
40196 8059 8411 60
40197 8059 8004 40
40198 8059 9129 12
40199 8059 1127 54
40200 8059 7653 99
40201 8059 7162 38
40202 8060 6926 78
40203 8060 3887 42
40204 8060 4650 30
40205 8061 3116 56
40206 8061 6984 50
40207 8061 7402 20
40208 8061 3632 92
40209 8062 5235 30
40210 8062 3324 48
40211 8063 6109 9
40212 8063 7462 40
40213 8063 1540 44
40214 8063 5956 39
40215 8064 1681 54
40216 8064 9078 71
40217 8064 6189 8
40218 8064 3928 45
40219 8064 8766 63
40220 8065 4042 53
40221 8065 7915 52
40222 8065 6256 92
40223 8065 1998 49
40224 8066 994 17
40225 8066 7690 36
40226 8066 5731 97
40227 8067 7704 10
40228 8067 7076 81
40229 8067 8794 8
40230 8067 4074 90
40231 8068 6705 89
40232 8068 2536 57
40233 8068 9342 35
40234 8068 4090 51
40235 8068 7634 26
40236 8068 5608 10
40237 8068 4034 60
40238 8068 494 87
40239 8069 8952 88
40240 8069 9579 85
40241 8069 9311 8
40242 8069 9604 80
40243 8069 9041 52
40244 8069 4675 32
40245 8069 3261 38
40246 8070 2463 28
40247 8070 7412 74
40248 8070 2774 70
40249 8070 9791 10
40250 8070 4356 71
40251 8070 535 32
40252 8071 5030 55
40253 8071 3168 10
40254 8071 8717 13
40255 8072 4370 28
40256 8072 3733 55
40257 8072 656 45
40258 8072 2600 3
40259 8072 7365 36
40260 8073 9471 89
40261 8073 5660 63
40262 8073 1676 56
40263 8074 1746 60
40264 8074 9329 79
40265 8074 9392 75
40266 8074 449 45
40267 8074 1172 69
40268 8074 564 41
40269 8075 7721 35
40270 8075 7110 84
40271 8075 6964 69
40272 8075 4453 81
40273 8075 3469 13
40274 8076 2468 52
40275 8076 2366 74
40276 8076 8670 68
40277 8076 397 64
40278 8076 6867 38
40279 8076 2173 73
40280 8076 1618 31
40281 8076 6905 26
40282 8077 6317 51
40283 8077 3390 26
40284 8077 3861 8
40285 8077 3236 88
40286 8077 1939 32
40287 8077 1436 43
40288 8078 5242 24
40289 8078 9711 47
40290 8079 5461 71
40291 8079 4566 8
40292 8079 6638 7
40293 8079 3574 2
40294 8079 1476 9
40295 8079 6798 59
40296 8080 3087 64
40297 8081 2288 1
40298 8081 2245 9
40299 8081 5921 25
40300 8081 9847 9
40301 8081 254 43
40302 8082 6176 18
40303 8082 6603 81
40304 8082 6204 43
40305 8082 8591 19
40306 8082 1463 36
40307 8082 3080 58
40308 8082 229 40
40309 8082 8913 37
40310 8082 5390 69
40311 8083 6837 38
40312 8083 6718 21
40313 8083 2352 77
40314 8084 9128 48
40315 8084 7267 27
40316 8085 2049 39
40317 8085 5942 87
40318 8085 9786 40
40319 8085 5847 55
40320 8085 5758 80
40321 8085 5501 34
40322 8086 3610 14
40323 8086 8284 81
40324 8086 4007 68
40325 8086 4371 17
40326 8086 4275 44
40327 8086 8259 29
40328 8087 5572 23
40329 8087 8114 89
40330 8087 7531 47
40331 8087 3816 39
40332 8087 350 57
40333 8087 1736 6
40334 8087 2880 8
40335 8088 5766 76
40336 8088 2269 18
40337 8088 523 100
40338 8088 8286 85
40339 8088 7483 93
40340 8088 8260 33
40341 8089 8622 70
40342 8089 6257 81
40343 8089 6969 27
40344 8089 2248 90
40345 8090 8645 5
40346 8090 1066 63
40347 8090 753 23
40348 8090 7882 94
40349 8091 6266 6
40350 8091 5602 60
40351 8091 171 41
40352 8091 7533 32
40353 8091 4895 49
40354 8091 4474 46
40355 8091 9967 79
40356 8092 3486 86
40357 8092 9847 15
40358 8092 3307 5
40359 8092 7075 18
40360 8092 4273 21
40361 8092 3818 79
40362 8092 6215 69
40363 8092 7137 7
40364 8092 6476 43
40365 8092 3970 83
40366 8093 1375 85
40367 8093 8037 35
40368 8093 2157 52
40369 8093 6802 62
40370 8093 3051 63
40371 8093 1388 20
40372 8093 1997 23
40373 8094 2220 91
40374 8094 5506 89
40375 8094 6580 89
40376 8094 2395 74
40377 8094 5017 3
40378 8094 5401 60
40379 8094 6525 6
40380 8094 6272 92
40381 8095 3160 85
40382 8095 3649 22
40383 8095 2719 34
40384 8095 8883 11
40385 8095 8378 51
40386 8095 6390 86
40387 8095 1871 58
40388 8095 6952 53
40389 8095 4978 33
40390 8096 7422 88
40391 8096 2139 45
40392 8096 9705 26
40393 8096 2123 34
40394 8096 1521 56
40395 8096 9025 17
40396 8096 480 84
40397 8096 7924 98
40398 8097 7383 9
40399 8097 2180 61
40400 8097 8478 70
40401 8097 8926 12
40402 8097 1827 73
40403 8097 5626 60
40404 8097 9632 80
40405 8098 2909 23
40406 8098 1380 53
40407 8099 5631 80
40408 8099 3091 23
40409 8099 1977 47
40410 8099 1812 31
40411 8099 8800 26
40412 8099 7709 63
40413 8099 4826 37
40414 8100 2068 6
40415 8100 7491 19
40416 8100 3911 55
40417 8100 8208 29
40418 8100 3023 98
40419 8100 4314 48
40420 8100 2850 97
40421 8101 5930 27
40422 8101 1287 74
40423 8101 4238 93
40424 8101 7324 82
40425 8102 7192 74
40426 8102 8335 25
40427 8102 817 96
40428 8102 2401 81
40429 8102 4184 70
40430 8102 1593 97
40431 8103 980 98
40432 8103 836 43
40433 8103 6720 40
40434 8103 8466 70
40435 8103 244 54
40436 8103 2052 88
40437 8103 3186 23
40438 8103 814 4
40439 8103 1109 4
40440 8104 5061 40
40441 8104 8538 66
40442 8104 3609 87
40443 8104 8415 30
40444 8104 8690 18
40445 8105 7437 58
40446 8106 6246 99
40447 8106 7420 2
40448 8106 6770 38
40449 8106 1923 36
40450 8106 314 38
40451 8107 2074 55
40452 8107 6864 83
40453 8107 2596 69
40454 8107 4664 75
40455 8107 8533 43
40456 8107 2037 36
40457 8107 1166 42
40458 8107 7308 41
40459 8108 7357 22
40460 8108 7678 55
40461 8108 1811 71
40462 8108 7108 27
40463 8108 4895 1
40464 8108 8668 19
40465 8108 1234 71
40466 8109 8057 22
40467 8109 4837 47
40468 8109 7008 72
40469 8109 2336 80
40470 8109 5624 33
40471 8109 293 47
40472 8110 8320 95
40473 8110 438 18
40474 8111 8263 25
40475 8111 4 78
40476 8111 7835 46
40477 8111 8386 75
40478 8112 9301 70
40479 8112 2634 33
40480 8112 1795 75
40481 8113 419 52
40482 8113 6208 92
40483 8113 4220 82
40484 8113 7071 15
40485 8114 1653 17
40486 8114 6450 75
40487 8114 1166 41
40488 8114 5684 40
40489 8114 9091 32
40490 8114 3204 42
40491 8115 3555 67
40492 8115 7751 4
40493 8116 7140 14
40494 8116 5379 91
40495 8116 154 64
40496 8116 3576 30
40497 8116 1903 21
40498 8117 2923 83
40499 8117 8606 93
40500 8117 6265 95
40501 8117 6602 70
40502 8117 5489 74
40503 8117 8481 85
40504 8117 1875 68
40505 8117 141 55
40506 8117 5004 37
40507 8117 7160 93
40508 8118 531 2
40509 8118 1076 35
40510 8118 694 34
40511 8118 4009 20
40512 8118 1790 51
40513 8118 5009 82
40514 8118 7229 86
40515 8119 4159 41
40516 8119 325 94
40517 8119 3920 9
40518 8119 1216 37
40519 8119 1104 18
40520 8120 6606 31
40521 8120 7715 70
40522 8120 6079 43
40523 8120 8887 48
40524 8120 7624 69
40525 8120 6458 91
40526 8120 5467 50
40527 8120 7714 96
40528 8121 9058 70
40529 8121 4303 81
40530 8121 8531 53
40531 8121 3244 73
40532 8121 887 41
40533 8121 4330 40
40534 8122 6210 92
40535 8123 6170 95
40536 8124 921 99
40537 8124 8464 81
40538 8124 7794 74
40539 8125 1435 2
40540 8125 2548 75
40541 8125 3984 79
40542 8125 3468 36
40543 8125 9793 76
40544 8125 975 25
40545 8126 934 50
40546 8126 7844 90
40547 8126 9513 50
40548 8126 6763 32
40549 8126 6380 30
40550 8126 7946 90
40551 8127 2572 35
40552 8127 9065 79
40553 8127 3791 22
40554 8127 1285 37
40555 8127 7542 9
40556 8127 4331 28
40557 8128 7226 39
40558 8128 144 73
40559 8129 4133 51
40560 8129 4254 92
40561 8129 5685 68
40562 8129 7192 81
40563 8129 744 70
40564 8129 607 98
40565 8130 1172 41
40566 8130 2924 27
40567 8130 59 60
40568 8130 1220 74
40569 8130 6626 62
40570 8130 4891 56
40571 8130 9878 82
40572 8130 3315 13
40573 8131 9035 18
40574 8131 2429 31
40575 8131 3489 77
40576 8131 734 15
40577 8132 4608 80
40578 8132 451 88
40579 8132 9876 21
40580 8132 956 52
40581 8132 1939 52
40582 8132 9627 5
40583 8133 5545 37
40584 8133 4658 67
40585 8134 7841 97
40586 8134 808 84
40587 8134 9136 60
40588 8134 1123 14
40589 8134 4009 44
40590 8135 9973 46
40591 8135 8180 91
40592 8135 8529 74
40593 8135 6907 90
40594 8136 8222 28
40595 8136 6414 97
40596 8136 7219 30
40597 8136 9323 5
40598 8136 1589 57
40599 8136 920 8
40600 8136 9126 13
40601 8136 7703 12
40602 8136 5874 41
40603 8136 7958 63
40604 8137 805 37
40605 8137 5462 96
40606 8138 8034 61
40607 8138 401 41
40608 8138 9654 48
40609 8138 2950 27
40610 8138 395 7
40611 8138 4352 80
40612 8139 8354 12
40613 8139 8792 70
40614 8139 474 12
40615 8139 6753 4
40616 8140 622 26
40617 8140 3252 66
40618 8140 4936 30
40619 8140 5060 47
40620 8140 1692 95
40621 8141 1843 99
40622 8141 1862 8
40623 8141 8499 31
40624 8141 5532 61
40625 8141 3263 66
40626 8141 2283 81
40627 8141 3755 1
40628 8141 7155 62
40629 8142 2828 43
40630 8142 5794 80
40631 8142 850 97
40632 8142 4276 88
40633 8143 6941 25
40634 8143 6852 59
40635 8143 9158 7
40636 8143 6563 68
40637 8143 4297 2
40638 8144 5183 55
40639 8144 4455 40
40640 8144 7966 37
40641 8144 2120 53
40642 8145 4092 63
40643 8145 2374 10
40644 8145 1609 94
40645 8145 1642 94
40646 8145 3019 74
40647 8145 2167 79
40648 8145 5508 79
40649 8145 2258 100
40650 8146 8297 97
40651 8146 2177 27
40652 8146 4837 77
40653 8146 350 70
40654 8146 8240 9
40655 8147 5989 64
40656 8147 126 87
40657 8147 7072 58
40658 8147 6108 15
40659 8147 9542 84
40660 8148 9980 93
40661 8149 3439 7
40662 8149 5322 54
40663 8149 8273 71
40664 8149 387 63
40665 8149 2165 64
40666 8149 9347 62
40667 8149 8962 65
40668 8150 1682 72
40669 8150 2599 10
40670 8150 2671 18
40671 8150 8444 38
40672 8150 4872 80
40673 8150 3864 96
40674 8150 512 76
40675 8151 5370 85
40676 8151 2477 5
40677 8151 2326 86
40678 8151 3997 30
40679 8151 8672 51
40680 8151 3076 84
40681 8151 4802 1
40682 8151 7733 51
40683 8151 5550 61
40684 8152 2629 88
40685 8152 6561 71
40686 8152 718 19
40687 8152 3966 80
40688 8153 1426 27
40689 8153 9105 24
40690 8153 1450 47
40691 8153 5107 69
40692 8153 5463 56
40693 8154 6486 78
40694 8154 2828 62
40695 8154 1444 31
40696 8154 1978 53
40697 8154 8891 28
40698 8154 5316 77
40699 8154 4620 86
40700 8155 1147 35
40701 8155 5331 98
40702 8155 3191 8
40703 8155 8754 80
40704 8155 534 54
40705 8156 2348 27
40706 8156 716 99
40707 8157 5115 26
40708 8157 9805 56
40709 8157 6209 19
40710 8157 747 88
40711 8157 7131 12
40712 8158 313 52
40713 8158 6595 93
40714 8158 3644 4
40715 8158 1724 85
40716 8158 7664 75
40717 8159 4058 65
40718 8159 1318 11
40719 8159 6654 28
40720 8159 2803 94
40721 8159 692 40
40722 8160 8676 50
40723 8160 3792 38
40724 8160 8786 77
40725 8160 555 20
40726 8160 5787 38
40727 8160 8733 92
40728 8160 382 62
40729 8161 6241 11
40730 8161 3576 98
40731 8161 3631 58
40732 8161 1117 32
40733 8161 8191 21
40734 8162 27 45
40735 8162 3201 46
40736 8162 3756 76
40737 8162 8709 3
40738 8163 4028 93
40739 8163 6188 24
40740 8163 3925 98
40741 8163 7397 94
40742 8163 7217 56
40743 8164 5830 95
40744 8164 8869 71
40745 8164 3468 66
40746 8164 6880 78
40747 8165 2577 8
40748 8166 2568 3
40749 8166 5827 2
40750 8166 52 52
40751 8166 1658 34
40752 8167 13 41
40753 8167 837 65
40754 8167 8446 8
40755 8167 3829 50
40756 8167 5106 96
40757 8167 3206 62
40758 8167 6832 52
40759 8167 6766 23
40760 8167 341 81
40761 8168 9511 99
40762 8168 178 20
40763 8168 5883 79
40764 8168 3410 90
40765 8168 1294 84
40766 8168 242 21
40767 8168 5005 63
40768 8169 9711 14
40769 8169 947 29
40770 8170 5260 16
40771 8170 8895 56
40772 8171 5921 69
40773 8171 6583 65
40774 8171 3213 53
40775 8171 70 69
40776 8172 9249 20
40777 8172 9149 5
40778 8172 6752 31
40779 8173 3736 73
40780 8173 2258 76
40781 8173 7096 92
40782 8173 3915 56
40783 8173 4779 1
40784 8173 8970 62
40785 8173 3248 98
40786 8173 1104 57
40787 8174 6777 96
40788 8174 3253 67
40789 8174 5701 45
40790 8174 6107 30
40791 8175 3903 88
40792 8175 165 59
40793 8175 6630 26
40794 8175 5872 34
40795 8175 9632 93
40796 8176 8382 4
40797 8176 1568 30
40798 8176 7030 72
40799 8176 6052 78
40800 8176 3035 16
40801 8176 4144 22
40802 8176 8033 44
40803 8177 269 92
40804 8178 3317 21
40805 8178 9143 57
40806 8178 9447 86
40807 8179 4850 90
40808 8179 3203 81
40809 8179 403 98
40810 8180 8243 79
40811 8180 784 43
40812 8180 7255 62
40813 8180 9346 56
40814 8180 5804 15
40815 8180 9325 12
40816 8181 4088 23
40817 8181 8107 53
40818 8181 5774 40
40819 8181 1960 53
40820 8181 6188 34
40821 8181 6945 28
40822 8181 798 48
40823 8181 8728 74
40824 8182 5625 15
40825 8182 2426 71
40826 8182 2674 39
40827 8182 4126 89
40828 8182 7170 92
40829 8183 1723 48
40830 8183 134 24
40831 8183 6368 92
40832 8184 7516 32
40833 8184 4543 70
40834 8184 1896 55
40835 8184 1322 93
40836 8184 6128 83
40837 8184 8327 6
40838 8184 1759 71
40839 8184 6760 83
40840 8184 8274 89
40841 8184 3411 25
40842 8185 2389 57
40843 8185 633 61
40844 8185 2578 92
40845 8185 5049 58
40846 8185 7043 64
40847 8185 540 84
40848 8185 2987 45
40849 8186 4668 64
40850 8186 2931 74
40851 8186 1248 45
40852 8186 288 39
40853 8186 9720 12
40854 8186 5286 56
40855 8187 2425 26
40856 8187 8654 15
40857 8187 2138 48
40858 8187 2661 51
40859 8187 242 64
40860 8187 9863 34
40861 8188 3901 57
40862 8188 3420 51
40863 8188 854 96
40864 8188 3785 19
40865 8188 1426 66
40866 8188 9918 48
40867 8188 6347 1
40868 8189 8387 70
40869 8189 3253 52
40870 8189 5120 55
40871 8189 1449 91
40872 8189 3185 18
40873 8190 6046 66
40874 8190 6375 93
40875 8190 5100 36
40876 8190 5363 50
40877 8190 5816 34
40878 8190 5373 9
40879 8190 116 75
40880 8190 152 71
40881 8191 8279 25
40882 8191 1588 67
40883 8191 3638 79
40884 8191 4285 33
40885 8191 2586 19
40886 8191 651 65
40887 8191 8513 56
40888 8191 6993 68
40889 8191 3026 77
40890 8192 5071 10
40891 8192 3076 26
40892 8192 7855 56
40893 8192 4207 28
40894 8192 4117 20
40895 8192 4555 16
40896 8193 9431 35
40897 8193 9679 45
40898 8193 812 37
40899 8194 5179 100
40900 8194 3526 94
40901 8194 3389 7
40902 8194 4474 54
40903 8194 2864 1
40904 8195 9793 52
40905 8195 828 35
40906 8195 2324 86
40907 8195 6490 71
40908 8196 5270 50
40909 8196 6112 33
40910 8196 1704 97
40911 8196 7045 57
40912 8196 5887 48
40913 8196 6981 34
40914 8196 4928 34
40915 8197 1360 11
40916 8197 4335 18
40917 8197 8005 73
40918 8197 6005 74
40919 8198 7301 41
40920 8198 9069 95
40921 8198 1807 94
40922 8198 7366 88
40923 8198 1516 75
40924 8198 2935 6
40925 8199 5902 96
40926 8199 9917 46
40927 8199 9116 34
40928 8199 3647 53
40929 8200 2024 41
40930 8200 3067 55
40931 8200 8888 62
40932 8200 428 36
40933 8200 7794 58
40934 8200 4475 62
40935 8201 4494 30
40936 8201 8306 29
40937 8201 7026 16
40938 8201 2039 59
40939 8201 7681 85
40940 8201 9105 76
40941 8202 84 98
40942 8202 1384 36
40943 8202 2637 90
40944 8202 4508 55
40945 8202 99 47
40946 8202 8978 46
40947 8202 4881 36
40948 8202 1351 29
40949 8203 4260 19
40950 8203 3859 63
40951 8203 8942 14
40952 8203 8748 33
40953 8203 3543 37
40954 8203 9089 15
40955 8204 3354 85
40956 8204 5665 46
40957 8205 6339 32
40958 8205 2917 57
40959 8205 6227 33
40960 8206 4590 59
40961 8206 1517 55
40962 8206 795 7
40963 8206 4323 44
40964 8206 4446 85
40965 8206 2236 55
40966 8207 2001 71
40967 8207 1543 25
40968 8207 6378 71
40969 8207 1931 53
40970 8207 3727 91
40971 8207 1573 43
40972 8208 5123 38
40973 8208 2746 80
40974 8208 4776 4
40975 8208 9643 35
40976 8208 3742 99
40977 8209 7073 74
40978 8209 3782 8
40979 8209 2737 42
40980 8209 2152 49
40981 8209 8333 38
40982 8209 8438 83
40983 8210 184 2
40984 8210 1968 66
40985 8210 4808 37
40986 8210 4129 82
40987 8210 3902 63
40988 8210 6284 59
40989 8210 9191 37
40990 8211 4723 41
40991 8211 3432 35
40992 8211 5699 65
40993 8211 5802 30
40994 8212 5989 18
40995 8212 5882 68
40996 8212 9774 34
40997 8212 6479 36
40998 8212 3527 7
40999 8213 7561 4
41000 8213 1238 80
41001 8213 6044 31
41002 8213 5949 42
41003 8213 6724 12
41004 8213 1927 71
41005 8213 521 17
41006 8213 966 93
41007 8213 7799 40
41008 8214 4295 52
41009 8214 6009 87
41010 8214 4714 92
41011 8214 3189 41
41012 8214 8848 10
41013 8215 5438 20
41014 8215 390 55
41015 8215 1643 1
41016 8215 8955 96
41017 8216 7323 91
41018 8216 6111 55
41019 8216 5973 60
41020 8216 2543 6
41021 8217 2457 90
41022 8217 107 59
41023 8217 6340 21
41024 8218 8509 44
41025 8218 5135 46
41026 8218 2745 9
41027 8219 2634 69
41028 8219 9187 26
41029 8219 7421 18
41030 8219 7407 86
41031 8219 1500 33
41032 8219 2071 25
41033 8220 8009 5
41034 8220 105 98
41035 8220 5575 34
41036 8220 6420 83
41037 8220 3957 85
41038 8220 9443 40
41039 8220 3968 75
41040 8221 9362 39
41041 8222 3690 27
41042 8222 3441 69
41043 8222 9730 97
41044 8222 2337 9
41045 8223 9946 99
41046 8223 2927 15
41047 8223 9189 90
41048 8223 2426 39
41049 8223 964 39
41050 8223 2920 45
41051 8224 6473 69
41052 8224 3928 56
41053 8224 4200 40
41054 8224 374 7
41055 8224 8039 15
41056 8224 8471 41
41057 8224 7983 37
41058 8225 2599 24
41059 8225 5446 39
41060 8225 7631 4
41061 8225 8506 92
41062 8225 1007 80
41063 8225 3444 82
41064 8225 6410 26
41065 8226 1544 67
41066 8226 1036 30
41067 8226 5843 15
41068 8226 1461 58
41069 8226 9972 13
41070 8226 531 48
41071 8226 7170 94
41072 8227 7488 55
41073 8227 2143 33
41074 8227 7190 26
41075 8227 378 96
41076 8227 1205 68
41077 8227 4798 92
41078 8227 7790 7
41079 8227 6539 89
41080 8227 140 55
41081 8227 5970 62
41082 8228 4872 62
41083 8228 562 13
41084 8228 9452 71
41085 8228 1807 32
41086 8228 2287 48
41087 8228 5554 30
41088 8228 5472 14
41089 8229 3510 27
41090 8229 1693 33
41091 8230 5080 73
41092 8230 3714 48
41093 8230 2428 32
41094 8230 7163 61
41095 8230 661 82
41096 8230 8999 85
41097 8231 1965 18
41098 8231 354 92
41099 8231 6535 72
41100 8231 9478 38
41101 8232 3569 45
41102 8232 8052 38
41103 8233 4273 89
41104 8233 4240 95
41105 8233 9523 27
41106 8233 1754 43
41107 8233 4278 57
41108 8233 70 53
41109 8234 5804 72
41110 8234 1993 19
41111 8234 6588 78
41112 8235 8606 88
41113 8235 2113 5
41114 8235 1935 64
41115 8235 2580 17
41116 8235 1053 58
41117 8236 7305 19
41118 8236 3253 56
41119 8236 8144 65
41120 8236 1230 34
41121 8237 6520 32
41122 8237 1442 80
41123 8237 6529 70
41124 8237 4866 60
41125 8237 8915 17
41126 8238 7191 68
41127 8238 8388 82
41128 8238 4648 87
41129 8238 7890 53
41130 8238 0 16
41131 8239 6585 78
41132 8239 41 55
41133 8239 3506 92
41134 8239 2650 82
41135 8239 6112 3
41136 8239 1015 17
41137 8239 8417 33
41138 8240 8837 77
41139 8240 8265 9
41140 8241 64 30
41141 8241 3909 83
41142 8241 4896 20
41143 8241 1393 12
41144 8241 4296 16
41145 8241 8017 81
41146 8242 3632 63
41147 8242 8175 54
41148 8242 2375 69
41149 8242 2166 86
41150 8243 2337 76
41151 8243 945 55
41152 8243 7621 18
41153 8243 7593 26
41154 8243 4528 65
41155 8244 747 92
41156 8244 6511 49
41157 8244 8927 86
41158 8244 5166 45
41159 8245 7418 90
41160 8245 5750 98
41161 8245 5861 58
41162 8246 8005 78
41163 8246 9119 26
41164 8246 8478 34
41165 8246 2123 84
41166 8246 1194 41
41167 8246 4566 12
41168 8247 3942 78
41169 8248 8156 85
41170 8248 5230 54
41171 8248 7706 12
41172 8248 3041 30
41173 8248 499 26
41174 8248 5721 15
41175 8248 1465 32
41176 8249 8005 43
41177 8249 337 8
41178 8249 2203 22
41179 8249 9589 69
41180 8249 1639 32
41181 8250 2701 57
41182 8250 2564 27
41183 8250 4919 49
41184 8250 8008 32
41185 8250 9669 36
41186 8251 5872 57
41187 8251 2699 10
41188 8251 4065 52
41189 8251 3990 29
41190 8251 7757 69
41191 8252 2896 91
41192 8252 9402 86
41193 8252 315 29
41194 8252 783 18
41195 8252 8372 84
41196 8253 4229 47
41197 8253 8675 52
41198 8253 5082 61
41199 8253 4644 68
41200 8253 1042 47
41201 8253 5884 67
41202 8253 6125 52
41203 8253 6536 92
41204 8253 4687 22
41205 8253 3716 45
41206 8253 3166 20
41207 8253 3961 31
41208 8254 6329 34
41209 8254 3636 1
41210 8254 2639 54
41211 8254 8354 27
41212 8254 2732 50
41213 8254 4566 11
41214 8254 9493 72
41215 8255 5350 91
41216 8255 256 91
41217 8255 5637 13
41218 8255 2376 43
41219 8256 4015 3
41220 8256 6455 20
41221 8257 8675 49
41222 8257 4230 27
41223 8257 9858 72
41224 8257 1407 58
41225 8258 6515 16
41226 8258 2286 17
41227 8258 4247 57
41228 8258 7872 9
41229 8258 2769 62
41230 8259 9709 52
41231 8259 5991 52
41232 8259 6052 52
41233 8259 7595 61
41234 8259 4819 6
41235 8260 4046 12
41236 8260 1971 84
41237 8260 4353 66
41238 8260 2717 45
41239 8260 5975 4
41240 8260 4753 91
41241 8260 5965 85
41242 8261 5182 79
41243 8261 3508 59
41244 8261 3255 9
41245 8261 843 81
41246 8261 1575 99
41247 8261 7483 66
41248 8261 4052 83
41249 8262 4392 47
41250 8262 4990 88
41251 8262 5568 36
41252 8262 6778 58
41253 8262 3902 73
41254 8262 4479 55
41255 8263 6159 70
41256 8263 3982 5
41257 8263 2044 98
41258 8263 826 32
41259 8263 8862 40
41260 8264 8597 29
41261 8264 1317 49
41262 8264 9429 3
41263 8264 637 81
41264 8264 8049 86
41265 8264 9270 92
41266 8264 7970 40
41267 8265 7651 12
41268 8265 6625 89
41269 8265 4065 18
41270 8265 8935 99
41271 8265 663 30
41272 8266 2787 82
41273 8266 1396 83
41274 8266 4439 95
41275 8266 1342 52
41276 8267 7748 54
41277 8267 9142 66
41278 8267 4771 47
41279 8267 1251 20
41280 8267 8299 100
41281 8267 1720 52
41282 8267 6487 69
41283 8267 7066 3
41284 8268 5462 1
41285 8268 3383 71
41286 8268 8136 61
41287 8268 2836 51
41288 8269 1710 22
41289 8269 4632 53
41290 8269 9952 47
41291 8269 8056 31
41292 8270 1271 78
41293 8270 9362 14
41294 8270 4401 53
41295 8270 466 61
41296 8270 1294 96
41297 8270 1794 61
41298 8270 6797 66
41299 8270 9361 95
41300 8271 9694 61
41301 8271 5902 39
41302 8271 6704 100
41303 8272 5419 70
41304 8272 2887 92
41305 8272 9985 3
41306 8272 2666 5
41307 8272 7057 44
41308 8272 8433 8
41309 8272 2132 49
41310 8273 4211 31
41311 8273 5642 53
41312 8273 9786 21
41313 8273 1447 22
41314 8274 1010 71
41315 8274 9330 48
41316 8274 4364 48
41317 8274 9441 63
41318 8274 7151 81
41319 8274 405 70
41320 8274 883 35
41321 8275 867 26
41322 8275 6107 27
41323 8275 841 43
41324 8275 2809 8
41325 8275 5699 66
41326 8275 8630 56
41327 8276 9294 9
41328 8276 9992 13
41329 8276 6267 7
41330 8276 3537 93
41331 8277 3386 24
41332 8277 5542 43
41333 8277 5612 41
41334 8277 906 43
41335 8277 2315 64
41336 8277 325 42
41337 8278 962 15
41338 8278 5264 21
41339 8278 303 35
41340 8278 6255 37
41341 8278 8519 16
41342 8278 6729 77
41343 8278 4428 30
41344 8278 700 67
41345 8279 887 99
41346 8279 6566 1
41347 8279 816 31
41348 8279 2092 64
41349 8279 7756 85
41350 8279 4530 81
41351 8279 4873 98
41352 8279 3225 50
41353 8279 1141 99
41354 8279 7726 5
41355 8280 6572 33
41356 8280 5499 99
41357 8280 4509 34
41358 8280 9288 19
41359 8280 7627 14
41360 8280 6320 71
41361 8281 4355 8
41362 8281 8 34
41363 8281 6281 5
41364 8282 4903 63
41365 8283 5850 7
41366 8283 9029 11
41367 8283 4684 55
41368 8283 7294 30
41369 8284 1332 82
41370 8284 2117 44
41371 8284 1855 83
41372 8285 1906 18
41373 8285 5462 26
41374 8285 6878 80
41375 8285 6148 54
41376 8285 3275 51
41377 8286 4852 51
41378 8286 34 86
41379 8286 5609 24
41380 8286 4019 34
41381 8286 6464 19
41382 8286 9835 53
41383 8286 3526 36
41384 8286 5725 27
41385 8286 1174 49
41386 8286 7013 69
41387 8287 701 47
41388 8287 4745 69
41389 8287 399 82
41390 8288 6222 1
41391 8288 3978 96
41392 8288 8372 78
41393 8288 4814 46
41394 8288 1550 54
41395 8289 4997 49
41396 8289 1898 87
41397 8290 4516 29
41398 8290 2990 68
41399 8290 6571 88
41400 8290 2731 73
41401 8291 1974 68
41402 8291 6003 28
41403 8291 6898 23
41404 8291 4297 9
41405 8291 1873 8
41406 8291 7668 53
41407 8292 7658 53
41408 8292 1332 33
41409 8292 3364 63
41410 8292 8777 10
41411 8292 1120 71
41412 8292 2507 30
41413 8293 3380 28
41414 8293 8125 12
41415 8293 621 37
41416 8293 3733 97
41417 8293 4700 8
41418 8293 5599 43
41419 8293 3513 65
41420 8293 8190 81
41421 8293 8891 17
41422 8293 8451 45
41423 8293 6566 74
41424 8293 8489 33
41425 8293 4106 27
41426 8293 5327 10
41427 8294 9726 72
41428 8294 4896 7
41429 8294 1359 97
41430 8294 7754 33
41431 8294 8782 97
41432 8294 3745 38
41433 8295 5881 59
41434 8295 2729 81
41435 8295 9243 8
41436 8296 5107 82
41437 8296 2751 72
41438 8297 3669 65
41439 8297 9765 12
41440 8297 4636 29
41441 8297 7553 88
41442 8297 5240 75
41443 8297 2007 12
41444 8297 2822 28
41445 8297 6480 74
41446 8297 5211 33
41447 8297 9925 2
41448 8297 5751 6
41449 8297 3841 65
41450 8298 8457 67
41451 8298 5314 67
41452 8298 3033 17
41453 8298 1818 24
41454 8298 7235 32
41455 8299 5488 58
41456 8299 7487 48
41457 8299 6069 21
41458 8299 7337 22
41459 8299 5917 93
41460 8299 6790 87
41461 8300 8258 68
41462 8300 7741 83
41463 8301 8839 57
41464 8301 7878 3
41465 8301 7415 4
41466 8301 5072 77
41467 8301 2164 45
41468 8301 953 64
41469 8301 6676 41
41470 8302 7806 25
41471 8302 512 30
41472 8302 9014 73
41473 8303 4301 77
41474 8303 7004 89
41475 8303 8793 21
41476 8303 1690 30
41477 8303 2104 36
41478 8304 9608 65
41479 8304 5818 28
41480 8304 3103 25
41481 8304 7014 86
41482 8305 6661 18
41483 8305 6479 46
41484 8305 570 100
41485 8306 7548 85
41486 8306 9307 40
41487 8306 8799 14
41488 8306 6614 99
41489 8307 3525 37
41490 8307 1869 77
41491 8307 298 90
41492 8307 9427 21
41493 8308 1119 65
41494 8308 4149 42
41495 8308 8691 69
41496 8308 4587 71
41497 8308 2941 46
41498 8309 756 54
41499 8309 392 91
41500 8309 3098 42
41501 8309 6804 85
41502 8309 3549 56
41503 8309 6191 51
41504 8309 2929 8
41505 8310 5511 59
41506 8310 2959 17
41507 8310 368 16
41508 8310 7424 40
41509 8310 1089 88
41510 8310 2339 5
41511 8310 2250 5
41512 8311 310 17
41513 8311 1592 19
41514 8311 7295 48
41515 8311 1670 85
41516 8311 7460 42
41517 8312 5210 39
41518 8312 6621 7
41519 8312 9865 37
41520 8312 2455 58
41521 8313 9136 82
41522 8313 7400 85
41523 8313 3871 92
41524 8313 8010 97
41525 8313 2315 39
41526 8313 5241 79
41527 8313 7984 73
41528 8313 3895 59
41529 8313 13 16
41530 8313 5277 7
41531 8314 8191 76
41532 8314 8636 37
41533 8314 1936 96
41534 8314 8504 91
41535 8315 8561 42
41536 8315 3957 36
41537 8315 6383 55
41538 8316 4712 4
41539 8316 1106 24
41540 8316 1081 2
41541 8316 7227 90
41542 8316 5486 2
41543 8317 9326 18
41544 8317 1479 70
41545 8317 8017 75
41546 8317 7305 95
41547 8317 4764 91
41548 8318 8311 18
41549 8318 4863 46
41550 8319 8789 35
41551 8319 7565 39
41552 8319 682 17
41553 8319 127 13
41554 8319 3888 28
41555 8319 729 29
41556 8320 3362 12
41557 8320 5306 89
41558 8320 8933 39
41559 8320 1496 73
41560 8321 4641 55
41561 8321 6368 69
41562 8321 8136 31
41563 8321 2805 99
41564 8321 6727 1
41565 8321 5084 81
41566 8322 5881 98
41567 8322 7930 87
41568 8322 8670 50
41569 8323 6815 36
41570 8323 6756 29
41571 8323 1839 85
41572 8324 5165 47
41573 8324 5585 7
41574 8324 4659 49
41575 8324 6804 15
41576 8325 746 8
41577 8325 3688 53
41578 8325 2813 21
41579 8325 1066 43
41580 8325 3297 99
41581 8325 811 30
41582 8326 1694 73
41583 8326 6246 49
41584 8326 3135 53
41585 8327 6008 6
41586 8328 6375 37
41587 8328 5865 27
41588 8328 7954 23
41589 8329 8017 15
41590 8330 7060 61
41591 8330 6880 95
41592 8330 9625 71
41593 8330 7379 89
41594 8330 7637 37
41595 8330 5563 85
41596 8330 1242 35
41597 8330 9620 72
41598 8331 247 16
41599 8331 9214 79
41600 8331 785 41
41601 8332 315 91
41602 8332 1673 36
41603 8333 7308 74
41604 8333 9347 62
41605 8333 4154 53
41606 8333 6083 55
41607 8333 8004 28
41608 8334 2508 56
41609 8334 6218 83
41610 8334 6439 86
41611 8334 5679 13
41612 8334 1664 63
41613 8335 3350 63
41614 8335 2823 54
41615 8335 8137 50
41616 8335 3377 36
41617 8335 3097 14
41618 8335 701 6
41619 8335 6394 25
41620 8335 7184 34
41621 8336 8141 16
41622 8336 6809 50
41623 8336 5729 92
41624 8336 1111 28
41625 8336 4656 63
41626 8336 9248 48
41627 8337 3085 36
41628 8337 1655 28
41629 8337 7238 90
41630 8337 924 46
41631 8337 6046 89
41632 8337 9163 20
41633 8337 7357 1
41634 8338 2643 65
41635 8338 2622 57
41636 8338 8634 18
41637 8338 1859 50
41638 8339 2626 86
41639 8339 6431 17
41640 8339 2704 66
41641 8339 910 17
41642 8339 3788 14
41643 8340 5695 71
41644 8340 8368 30
41645 8340 8435 72
41646 8340 1940 88
41647 8340 9581 85
41648 8341 1093 17
41649 8341 3654 56
41650 8342 4407 37
41651 8342 4518 53
41652 8342 9532 47
41653 8342 6989 54
41654 8342 1710 47
41655 8342 9450 10
41656 8343 7440 73
41657 8343 303 73
41658 8344 7339 79
41659 8344 8725 71
41660 8344 2988 98
41661 8344 9586 93
41662 8344 7347 85
41663 8345 6083 22
41664 8345 6786 5
41665 8345 8455 39
41666 8345 3364 1
41667 8345 7837 79
41668 8346 319 14
41669 8346 9217 32
41670 8346 1751 94
41671 8346 4304 63
41672 8346 1077 67
41673 8346 7777 2
41674 8346 9526 50
41675 8347 4868 19
41676 8347 5865 96
41677 8347 6663 45
41678 8347 899 74
41679 8347 1760 98
41680 8347 5822 2
41681 8348 5017 9
41682 8348 2887 30
41683 8348 1384 18
41684 8348 7143 75
41685 8348 8287 93
41686 8348 8277 6
41687 8348 9098 26
41688 8348 1660 48
41689 8349 3165 71
41690 8349 2799 14
41691 8349 2068 98
41692 8349 2219 19
41693 8349 4234 37
41694 8350 2511 47
41695 8350 5753 62
41696 8350 4485 62
41697 8350 3983 57
41698 8350 6937 20
41699 8350 6155 93
41700 8350 249 33
41701 8350 2899 53
41702 8351 5351 26
41703 8351 5178 100
41704 8351 3819 51
41705 8351 1516 99
41706 8351 386 4
41707 8352 6769 54
41708 8352 2511 48
41709 8352 1744 68
41710 8352 1335 13
41711 8352 4721 23
41712 8352 2294 67
41713 8352 5432 88
41714 8353 6629 82
41715 8353 8748 84
41716 8353 3898 18
41717 8354 9660 34
41718 8354 9977 16
41719 8354 1521 45
41720 8354 3239 50
41721 8354 6513 40
41722 8354 7266 95
41723 8355 648 84
41724 8355 4925 6
41725 8355 4784 16
41726 8355 2241 14
41727 8355 7391 56
41728 8356 1154 59
41729 8356 2098 55
41730 8356 6256 7
41731 8356 7229 47
41732 8356 8477 26
41733 8356 2682 27
41734 8356 181 87
41735 8357 1851 14
41736 8357 918 74
41737 8357 7664 87
41738 8357 679 62
41739 8357 167 60
41740 8357 7247 44
41741 8358 6345 9
41742 8358 3792 47
41743 8358 807 96
41744 8358 8001 94
41745 8358 9382 20
41746 8359 2951 42
41747 8359 5302 70
41748 8359 2437 60
41749 8359 78 3
41750 8359 6714 34
41751 8359 4798 56
41752 8359 4520 62
41753 8359 9294 66
41754 8359 5072 85
41755 8360 1260 76
41756 8360 6114 20
41757 8361 4576 96
41758 8361 4563 94
41759 8361 7243 7
41760 8361 2958 27
41761 8361 1582 100
41762 8361 6005 16
41763 8362 3419 37
41764 8362 8783 40
41765 8362 632 84
41766 8362 5650 69
41767 8362 5444 93
41768 8362 4820 17
41769 8362 9298 7
41770 8363 1896 63
41771 8363 6811 64
41772 8363 1510 56
41773 8363 8287 87
41774 8363 9447 35
41775 8364 7875 88
41776 8364 717 27
41777 8364 2741 68
41778 8364 789 54
41779 8364 1951 22
41780 8364 3103 46
41781 8366 7280 9
41782 8366 283 51
41783 8366 5711 91
41784 8366 9669 25
41785 8367 117 7
41786 8367 3514 77
41787 8367 2907 64
41788 8367 3577 86
41789 8367 6508 19
41790 8367 5739 73
41791 8367 4222 10
41792 8367 4886 51
41793 8368 1866 57
41794 8368 1033 91
41795 8368 3837 8
41796 8368 2346 45
41797 8369 4095 69
41798 8369 1445 2
41799 8370 4450 29
41800 8370 6588 63
41801 8370 2407 15
41802 8370 2359 100
41803 8371 8202 66
41804 8371 6105 75
41805 8371 7431 31
41806 8371 6118 13
41807 8372 6256 55
41808 8372 3667 51
41809 8372 5877 54
41810 8373 5907 58
41811 8373 785 76
41812 8373 4758 84
41813 8373 2144 18
41814 8373 7247 32
41815 8373 6182 56
41816 8373 4988 96
41817 8373 2682 41
41818 8373 3413 11
41819 8373 9909 1
41820 8374 2500 67
41821 8374 3955 97
41822 8374 4304 39
41823 8374 9148 64
41824 8374 5710 93
41825 8375 4183 15
41826 8375 8133 60
41827 8375 8186 49
41828 8375 6157 32
41829 8376 4856 17
41830 8376 1436 11
41831 8376 1445 28
41832 8376 445 70
41833 8376 6933 93
41834 8377 4759 49
41835 8377 4365 93
41836 8377 7954 38
41837 8378 2295 78
41838 8378 1531 76
41839 8378 9050 6
41840 8378 8711 34
41841 8378 7207 100
41842 8379 2683 82
41843 8379 4527 14
41844 8379 3611 56
41845 8379 2082 71
41846 8379 4498 65
41847 8380 9506 45
41848 8380 5912 82
41849 8381 581 37
41850 8381 3863 84
41851 8382 9355 18
41852 8382 3200 13
41853 8382 3970 76
41854 8383 7458 87
41855 8383 9611 76
41856 8383 8197 92
41857 8384 6244 12
41858 8384 8391 25
41859 8385 62 50
41860 8385 517 78
41861 8385 1291 73
41862 8385 2053 79
41863 8386 1796 85
41864 8386 8797 50
41865 8386 6354 18
41866 8386 6885 23
41867 8387 2325 46
41868 8387 6598 99
41869 8387 6863 49
41870 8387 8369 36
41871 8387 2286 66
41872 8387 585 92
41873 8388 611 56
41874 8388 7070 13
41875 8388 4988 100
41876 8388 9961 30
41877 8389 277 37
41878 8389 206 11
41879 8389 7666 46
41880 8390 560 81
41881 8390 5578 24
41882 8390 4924 68
41883 8390 1542 25
41884 8390 5630 55
41885 8390 779 70
41886 8391 6970 87
41887 8391 5760 12
41888 8391 866 67
41889 8391 4247 7
41890 8392 895 1
41891 8392 6170 29
41892 8392 1572 7
41893 8392 8205 1
41894 8392 2985 29
41895 8393 9570 64
41896 8393 3940 62
41897 8393 5237 61
41898 8393 1639 73
41899 8393 5246 65
41900 8393 9621 21
41901 8393 5741 33
41902 8393 7158 27
41903 8393 7233 65
41904 8394 6613 47
41905 8394 7583 37
41906 8394 4082 77
41907 8394 4202 79
41908 8395 4636 84
41909 8395 8290 6
41910 8395 4407 40
41911 8395 9107 22
41912 8395 4957 80
41913 8395 3008 68
41914 8395 6818 65
41915 8396 3352 81
41916 8396 379 72
41917 8396 8291 3
41918 8396 458 41
41919 8396 3564 95
41920 8397 784 51
41921 8397 5669 8
41922 8397 4625 60
41923 8397 1177 32
41924 8397 8008 99
41925 8397 5868 31
41926 8398 2443 85
41927 8398 6424 55
41928 8398 7658 3
41929 8398 6451 92
41930 8399 1571 38
41931 8399 5160 46
41932 8399 2299 29
41933 8399 675 41
41934 8399 2666 80
41935 8399 4454 46
41936 8399 3298 7
41937 8399 2669 79
41938 8400 4715 38
41939 8400 8861 73
41940 8400 7087 20
41941 8400 5882 96
41942 8400 6420 65
41943 8401 7341 17
41944 8401 2054 20
41945 8401 5632 19
41946 8401 5178 69
41947 8402 3526 17
41948 8402 9007 56
41949 8402 6101 43
41950 8402 9193 6
41951 8402 569 45
41952 8403 1953 32
41953 8403 183 94
41954 8404 6516 79
41955 8404 6316 70
41956 8404 794 28
41957 8404 7777 12
41958 8404 7821 24
41959 8405 9681 83
41960 8405 3113 18
41961 8406 9579 90
41962 8406 2914 37
41963 8406 9755 39
41964 8406 3712 68
41965 8406 9785 47
41966 8406 7825 86
41967 8406 5870 99
41968 8406 1209 84
41969 8407 8505 82
41970 8407 1307 98
41971 8407 7967 41
41972 8408 3932 30
41973 8408 2327 52
41974 8408 1471 73
41975 8409 894 65
41976 8409 2633 97
41977 8409 9632 96
41978 8409 6004 94
41979 8409 4120 46
41980 8409 383 59
41981 8409 4275 13
41982 8409 9709 91
41983 8410 3820 97
41984 8410 440 82
41985 8410 9060 78
41986 8410 5669 96
41987 8410 625 50
41988 8410 8528 42
41989 8410 361 66
41990 8410 3545 85
41991 8411 1715 50
41992 8411 6301 79
41993 8411 2405 68
41994 8411 6217 16
41995 8412 101 5
41996 8412 801 44
41997 8412 6079 25
41998 8412 4394 17
41999 8412 8638 76
42000 8412 9063 76
42001 8413 5441 44
42002 8413 9272 30
42003 8413 4392 22
42004 8413 3245 99
42005 8413 9074 85
42006 8413 8561 93
42007 8413 429 62
42008 8413 720 45
42009 8414 4992 60
42010 8414 9253 41
42011 8414 2287 22
42012 8414 5015 24
42013 8415 2782 18
42014 8415 5305 6
42015 8415 6769 96
42016 8415 6072 46
42017 8415 3561 58
42018 8415 2463 74
42019 8415 8015 94
42020 8415 7400 62
42021 8415 5383 59
42022 8415 8063 16
42023 8416 3685 51
42024 8416 2261 82
42025 8416 6609 41
42026 8416 2413 72
42027 8416 8631 72
42028 8417 2918 82
42029 8417 1306 48
42030 8417 6377 74
42031 8417 4289 6
42032 8417 4419 91
42033 8417 7962 17
42034 8418 1863 17
42035 8418 6810 55
42036 8418 2557 61
42037 8418 5682 12
42038 8418 2863 76
42039 8419 9655 9
42040 8419 8791 61
42041 8419 3203 26
42042 8419 456 32
42043 8419 4766 80
42044 8419 7581 15
42045 8419 9161 64
42046 8419 4839 5
42047 8419 5343 83
42048 8419 531 3
42049 8420 1091 16
42050 8420 5703 71
42051 8420 4296 83
42052 8420 2710 47
42053 8421 4758 42
42054 8421 6566 2
42055 8421 4058 12
42056 8422 6950 1
42057 8422 2834 75
42058 8422 9513 100
42059 8423 6053 40
42060 8423 6189 73
42061 8423 1697 45
42062 8423 146 18
42063 8423 7785 83
42064 8423 1371 40
42065 8423 9059 38
42066 8423 2371 40
42067 8423 8068 32
42068 8424 1027 67
42069 8424 9201 75
42070 8424 9709 97
42071 8424 1520 46
42072 8424 7228 66
42073 8424 2569 78
42074 8425 594 57
42075 8425 4077 47
42076 8426 4076 49
42077 8426 4197 34
42078 8426 6783 38
42079 8426 4366 33
42080 8426 5649 56
42081 8426 4529 100
42082 8426 1049 21
42083 8427 9010 38
42084 8427 7583 69
42085 8427 3206 37
42086 8428 7408 24
42087 8428 1087 53
42088 8428 7201 70
42089 8428 7034 47
42090 8428 1794 47
42091 8428 4766 87
42092 8428 2482 50
42093 8428 7439 13
42094 8429 8614 13
42095 8429 2726 6
42096 8429 3864 96
42097 8429 6996 11
42098 8429 2144 84
42099 8430 8623 73
42100 8430 1387 49
42101 8431 3748 85
42102 8431 9424 93
42103 8431 7235 44
42104 8431 9071 3
42105 8431 9334 70
42106 8431 6496 78
42107 8432 228 1
42108 8432 2797 56
42109 8432 2580 1
42110 8432 4347 92
42111 8432 5424 67
42112 8432 2447 47
42113 8432 93 63
42114 8433 999 11
42115 8433 3399 75
42116 8433 6618 9
42117 8433 2622 6
42118 8433 3349 89
42119 8434 7873 37
42120 8434 2041 15
42121 8434 6885 47
42122 8434 6131 19
42123 8434 852 45
42124 8434 6139 4
42125 8435 553 14
42126 8435 507 89
42127 8435 4731 32
42128 8435 1624 77
42129 8435 8877 5
42130 8435 5294 21
42131 8436 2955 76
42132 8436 4369 74
42133 8437 4249 75
42134 8437 3006 17
42135 8437 7590 25
42136 8437 6695 36
42137 8437 279 27
42138 8437 8260 22
42139 8437 2768 36
42140 8438 4232 24
42141 8439 3489 7
42142 8439 1504 68
42143 8439 7874 27
42144 8439 8166 15
42145 8439 3569 47
42146 8440 3801 19
42147 8440 9692 16
42148 8440 4339 45
42149 8440 4637 66
42150 8440 6762 39
42151 8440 6114 36
42152 8440 5630 100
42153 8441 7505 81
42154 8441 1573 14
42155 8441 1388 60
42156 8441 7746 56
42157 8441 7901 96
42158 8442 3925 80
42159 8442 4071 100
42160 8442 20 15
42161 8443 6239 61
42162 8443 8509 21
42163 8443 5811 54
42164 8443 68 20
42165 8443 7410 36
42166 8443 4760 93
42167 8443 9462 93
42168 8443 93 16
42169 8443 5715 90
42170 8443 3069 40
42171 8443 5088 40
42172 8444 4692 70
42173 8444 6811 78
42174 8444 9252 81
42175 8444 3630 93
42176 8444 3136 40
42177 8444 1793 100
42178 8445 609 12
42179 8445 5230 63
42180 8445 8694 28
42181 8445 9767 68
42182 8446 4302 37
42183 8446 4963 98
42184 8446 1984 38
42185 8446 626 49
42186 8446 3202 99
42187 8446 416 7
42188 8446 2991 37
42189 8446 5213 15
42190 8446 8837 6
42191 8447 7405 1
42192 8447 2367 99
42193 8447 8400 26
42194 8447 2239 69
42195 8447 279 30
42196 8447 578 47
42197 8447 5874 46
42198 8447 602 30
42199 8447 6783 24
42200 8448 636 43
42201 8448 5498 65
42202 8449 22 23
42203 8449 9329 80
42204 8449 6574 71
42205 8449 2284 5
42206 8449 5605 79
42207 8449 9794 43
42208 8449 8738 32
42209 8450 4964 36
42210 8450 2653 51
42211 8450 7641 66
42212 8450 8537 55
42213 8451 2296 6
42214 8451 4705 15
42215 8451 2236 50
42216 8451 327 7
42217 8451 3553 6
42218 8451 5364 79
42219 8451 6291 68
42220 8452 3982 67
42221 8452 9261 73
42222 8453 5676 57
42223 8453 7003 37
42224 8453 3107 36
42225 8454 4281 87
42226 8454 3332 45
42227 8454 4092 97
42228 8454 1002 3
42229 8454 1137 92
42230 8454 9347 23
42231 8454 1446 71
42232 8455 7532 75
42233 8456 4544 15
42234 8456 5136 28
42235 8456 340 63
42236 8456 4139 79
42237 8456 30 31
42238 8456 3837 10
42239 8456 1273 12
42240 8456 7164 69
42241 8457 6139 60
42242 8457 3575 43
42243 8457 9470 7
42244 8457 3099 14
42245 8457 7134 41
42246 8458 2817 42
42247 8458 3766 64
42248 8458 6987 57
42249 8458 8466 53
42250 8458 3317 22
42251 8458 676 8
42252 8458 6224 5
42253 8458 9387 29
42254 8458 5746 92
42255 8459 485 40
42256 8459 397 91
42257 8459 2123 52
42258 8459 8875 7
42259 8460 5082 18
42260 8460 4046 90
42261 8460 7642 95
42262 8460 9811 35
42263 8460 5882 4
42264 8460 7656 15
42265 8461 332 18
42266 8461 2280 63
42267 8461 1118 96
42268 8461 56 24
42269 8461 3445 41
42270 8461 2873 35
42271 8461 6021 53
42272 8462 6900 11
42273 8462 6482 31
42274 8462 5612 12
42275 8463 6812 6
42276 8463 6983 93
42277 8463 5309 87
42278 8463 75 66
42279 8463 4356 62
42280 8463 5563 35
42281 8463 2710 35
42282 8463 2353 7
42283 8463 1806 86
42284 8463 1422 4
42285 8464 7198 88
42286 8464 6264 29
42287 8464 4642 65
42288 8464 6816 26
42289 8464 4546 64
42290 8464 2041 7
42291 8464 4765 36
42292 8464 5246 9
42293 8464 2497 1
42294 8465 8058 76
42295 8465 8928 1
42296 8465 1435 79
42297 8465 5345 64
42298 8466 5199 64
42299 8466 8181 15
42300 8466 9310 59
42301 8467 4804 96
42302 8467 4383 12
42303 8467 9502 20
42304 8467 239 4
42305 8467 9829 83
42306 8467 1689 32
42307 8467 7737 57
42308 8467 8176 11
42309 8468 3532 32
42310 8468 3049 88
42311 8468 5059 27
42312 8468 8159 20
42313 8468 9939 100
42314 8468 935 52
42315 8468 4497 27
42316 8469 5449 33
42317 8469 9070 94
42318 8469 8188 100
42319 8469 6449 15
42320 8469 808 1
42321 8470 3902 11
42322 8470 9101 25
42323 8470 5859 16
42324 8471 6751 72
42325 8471 3983 98
42326 8471 8733 3
42327 8471 544 52
42328 8472 3720 63
42329 8472 4358 8
42330 8472 8611 64
42331 8473 2230 33
42332 8473 7165 76
42333 8474 3080 7
42334 8474 7666 17
42335 8474 942 43
42336 8474 7212 68
42337 8474 2574 16
42338 8474 2864 95
42339 8475 893 17
42340 8475 4465 33
42341 8475 4057 77
42342 8475 1125 15
42343 8475 9389 92
42344 8475 1568 24
42345 8475 5361 36
42346 8475 7865 99
42347 8476 1343 52
42348 8476 9359 30
42349 8476 4578 5
42350 8476 2351 6
42351 8477 8522 84
42352 8477 650 73
42353 8477 3749 77
42354 8478 4931 50
42355 8478 1508 2
42356 8478 8603 39
42357 8478 6501 80
42358 8478 4761 28
42359 8478 1195 23
42360 8479 6071 82
42361 8479 6982 70
42362 8479 173 24
42363 8479 9671 64
42364 8480 6784 42
42365 8480 3596 33
42366 8480 3565 43
42367 8480 525 82
42368 8480 5563 7
42369 8480 3973 54
42370 8480 924 56
42371 8480 7334 70
42372 8481 2481 68
42373 8481 6336 95
42374 8481 2893 58
42375 8481 4618 7
42376 8481 47 94
42377 8481 3953 57
42378 8482 9846 86
42379 8482 6371 42
42380 8482 3944 18
42381 8482 5836 72
42382 8482 212 12
42383 8482 1126 57
42384 8482 4821 65
42385 8483 9846 59
42386 8484 2261 13
42387 8484 7367 41
42388 8484 4560 84
42389 8484 5896 54
42390 8484 7234 12
42391 8484 8383 50
42392 8485 3434 27
42393 8485 6521 39
42394 8486 1640 35
42395 8486 7772 15
42396 8486 1148 37
42397 8486 888 67
42398 8486 8640 36
42399 8487 7005 3
42400 8487 7104 48
42401 8487 5606 26
42402 8487 4429 31
42403 8487 6762 15
42404 8487 8568 65
42405 8488 6961 96
42406 8488 3221 77
42407 8488 9968 38
42408 8488 2740 39
42409 8489 1849 16
42410 8489 6962 70
42411 8489 4306 42
42412 8489 450 40
42413 8489 7337 15
42414 8489 5188 18
42415 8489 4493 100
42416 8490 2686 11
42417 8490 6189 94
42418 8490 8773 93
42419 8490 4346 81
42420 8490 202 45
42421 8490 7194 24
42422 8490 770 14
42423 8490 8256 16
42424 8491 9608 54
42425 8491 288 48
42426 8491 4753 47
42427 8491 6705 65
42428 8492 484 88
42429 8492 4994 24
42430 8492 4924 94
42431 8492 6888 64
42432 8492 680 11
42433 8492 4587 88
42434 8492 7644 53
42435 8493 2620 7
42436 8493 4151 89
42437 8493 8080 8
42438 8493 2503 19
42439 8493 6513 82
42440 8493 1145 65
42441 8493 8438 39
42442 8494 4993 61
42443 8494 5306 56
42444 8495 5530 9
42445 8495 5576 22
42446 8495 491 33
42447 8495 1854 61
42448 8495 6098 85
42449 8495 4750 56
42450 8496 6057 20
42451 8496 943 13
42452 8496 3099 44
42453 8497 7079 70
42454 8497 537 50
42455 8498 6993 55
42456 8499 3953 96
42457 8499 174 68
42458 8499 1205 51
42459 8499 7233 56
42460 8500 8768 5
42461 8500 7020 21
42462 8500 8666 16
42463 8501 3780 33
42464 8501 6838 100
42465 8501 3549 55
42466 8501 5413 17
42467 8502 6041 100
42468 8503 387 49
42469 8503 9754 41
42470 8503 8000 10
42471 8503 9662 62
42472 8504 2204 79
42473 8504 1190 42
42474 8505 9081 25
42475 8505 4306 83
42476 8505 8181 80
42477 8505 8665 16
42478 8506 6998 14
42479 8506 4574 79
42480 8507 9457 12
42481 8507 4459 16
42482 8508 7436 24
42483 8508 3800 40
42484 8508 8891 23
42485 8508 8074 73
42486 8508 7975 53
42487 8508 5904 60
42488 8508 3537 54
42489 8508 37 4
42490 8508 8794 92
42491 8509 4248 9
42492 8510 1495 13
42493 8510 7268 91
42494 8510 1673 46
42495 8510 848 29
42496 8510 890 47
42497 8510 9998 92
42498 8511 875 69
42499 8511 6651 33
42500 8511 3816 5
42501 8512 5433 42
42502 8512 6433 78
42503 8512 6692 13
42504 8512 6964 15
42505 8512 8041 98
42506 8512 1431 64
42507 8512 7343 2
42508 8512 6760 2
42509 8513 5900 6
42510 8513 9545 75
42511 8513 7932 43
42512 8513 7854 99
42513 8514 9578 66
42514 8514 6542 60
42515 8514 2771 35
42516 8514 710 13
42517 8514 8287 73
42518 8514 2093 80
42519 8514 2980 86
42520 8515 1922 87
42521 8515 4590 23
42522 8515 95 73
42523 8515 837 47
42524 8516 3076 14
42525 8516 2553 44
42526 8516 5636 29
42527 8516 682 95
42528 8516 3619 41
42529 8517 4347 57
42530 8517 6800 30
42531 8517 3428 15
42532 8517 6251 88
42533 8517 4911 84
42534 8518 9054 81
42535 8518 160 31
42536 8518 7598 18
42537 8519 2886 3
42538 8519 6022 55
42539 8519 5775 42
42540 8519 2403 66
42541 8519 3552 69
42542 8520 4120 86
42543 8520 8248 67
42544 8520 9191 29
42545 8521 4566 34
42546 8521 5379 65
42547 8521 5053 98
42548 8521 1589 75
42549 8521 8241 38
42550 8521 2677 88
42551 8521 2121 35
42552 8522 1138 49
42553 8522 348 61
42554 8522 2177 43
42555 8522 3972 28
42556 8522 7356 78
42557 8523 5408 48
42558 8523 3358 9
42559 8523 8961 45
42560 8524 8740 40
42561 8524 3679 13
42562 8524 2231 16
42563 8524 634 68
42564 8524 6552 1
42565 8524 8380 74
42566 8525 8029 91
42567 8525 104 21
42568 8525 8795 60
42569 8525 2244 94
42570 8525 346 60
42571 8525 5936 24
42572 8526 3623 8
42573 8526 6789 90
42574 8526 3025 13
42575 8526 8175 65
42576 8526 8162 28
42577 8526 1991 84
42578 8526 8882 30
42579 8527 6541 28
42580 8527 4064 99
42581 8527 7443 51
42582 8527 1544 73
42583 8527 7670 92
42584 8527 3947 80
42585 8528 3836 12
42586 8528 7920 52
42587 8528 9042 91
42588 8528 8322 87
42589 8529 9916 6
42590 8529 4062 44
42591 8529 3339 25
42592 8529 3165 2
42593 8529 5883 26
42594 8530 9815 31
42595 8530 3911 74
42596 8530 9525 91
42597 8530 827 88
42598 8530 8539 42
42599 8531 8268 66
42600 8531 7781 26
42601 8531 8518 76
42602 8531 1528 63
42603 8531 910 20
42604 8531 5813 50
42605 8531 611 63
42606 8531 7306 14
42607 8531 206 91
42608 8531 3207 26
42609 8531 3804 36
42610 8531 6752 17
42611 8532 6458 88
42612 8532 4808 48
42613 8532 4503 5
42614 8532 207 8
42615 8532 6245 36
42616 8533 5344 38
42617 8533 2259 96
42618 8533 6738 60
42619 8533 9044 33
42620 8534 9578 52
42621 8534 7568 23
42622 8534 7905 48
42623 8534 4979 97
42624 8536 3192 49
42625 8536 9981 23
42626 8536 8394 70
42627 8536 8216 49
42628 8536 3685 88
42629 8536 5284 62
42630 8536 1296 1
42631 8536 5123 76
42632 8537 62 92
42633 8537 8187 83
42634 8537 8254 37
42635 8537 5040 12
42636 8537 1384 47
42637 8538 8793 93
42638 8538 8672 95
42639 8538 6550 42
42640 8538 2898 55
42641 8538 6887 93
42642 8538 5249 33
42643 8538 7515 50
42644 8538 131 46
42645 8538 6100 67
42646 8538 8175 73
42647 8538 6060 96
42648 8539 2462 66
42649 8539 8348 61
42650 8539 6747 43
42651 8539 923 61
42652 8540 8149 19
42653 8540 6490 29
42654 8540 7059 74
42655 8540 3835 97
42656 8540 6183 71
42657 8540 6723 50
42658 8540 551 6
42659 8541 895 35
42660 8541 9551 73
42661 8541 8814 16
42662 8541 9086 81
42663 8541 6145 97
42664 8542 7481 39
42665 8542 3702 69
42666 8542 2066 71
42667 8542 8308 20
42668 8542 1391 34
42669 8542 6389 65
42670 8543 8918 3
42671 8543 5485 93
42672 8543 6505 54
42673 8543 3739 99
42674 8543 9706 4
42675 8544 8515 27
42676 8544 2585 82
42677 8544 2422 11
42678 8544 2072 90
42679 8545 4141 49
42680 8545 2069 96
42681 8545 8163 89
42682 8545 6516 88
42683 8545 1323 21
42684 8545 2769 40
42685 8546 2728 35
42686 8546 145 69
42687 8546 4068 57
42688 8547 2497 6
42689 8547 1382 48
42690 8547 8321 93
42691 8547 5642 29
42692 8547 1112 2
42693 8547 8694 97
42694 8547 4786 51
42695 8547 2869 39
42696 8547 4459 74
42697 8547 2444 7
42698 8547 7155 26
42699 8548 6806 19
42700 8548 5287 87
42701 8548 7137 62
42702 8548 4646 17
42703 8548 9750 82
42704 8548 9574 50
42705 8548 5102 76
42706 8548 1334 21
42707 8549 9912 99
42708 8550 3424 54
42709 8550 2266 80
42710 8550 5690 9
42711 8551 444 11
42712 8551 1822 80
42713 8551 6266 22
42714 8551 975 14
42715 8551 4639 2
42716 8551 6176 60
42717 8551 1654 78
42718 8551 2375 16
42719 8551 2039 96
42720 8552 2420 71
42721 8552 1133 15
42722 8552 4146 24
42723 8552 9159 88
42724 8552 7095 31
42725 8552 333 15
42726 8553 2592 82
42727 8553 3237 32
42728 8553 6987 44
42729 8553 15 100
42730 8553 8711 9
42731 8553 2742 51
42732 8553 6972 68
42733 8554 6433 76
42734 8554 7420 28
42735 8554 279 88
42736 8554 1641 58
42737 8554 8141 16
42738 8554 2287 15
42739 8555 873 32
42740 8555 3826 35
42741 8555 7983 12
42742 8555 6988 21
42743 8556 2237 3
42744 8556 7463 17
42745 8556 5477 26
42746 8556 3544 9
42747 8556 3287 96
42748 8556 6805 81
42749 8557 4676 94
42750 8557 4502 52
42751 8557 9665 89
42752 8558 5972 48
42753 8558 2171 23
42754 8558 9569 66
42755 8559 1994 26
42756 8559 5741 50
42757 8559 852 90
42758 8560 5029 8
42759 8560 3696 61
42760 8560 626 59
42761 8560 1505 91
42762 8560 4133 33
42763 8560 4054 38
42764 8561 2862 24
42765 8561 9689 41
42766 8561 1966 17
42767 8561 1350 29
42768 8562 4122 21
42769 8562 2746 70
42770 8562 8169 20
42771 8562 6327 45
42772 8563 5315 61
42773 8563 4570 51
42774 8564 2284 29
42775 8564 4089 52
42776 8564 6425 84
42777 8564 3890 27
42778 8564 4533 26
42779 8564 9347 2
42780 8565 7663 6
42781 8565 5739 35
42782 8565 9698 16
42783 8565 2735 42
42784 8565 7033 93
42785 8565 9738 3
42786 8566 1418 70
42787 8566 4175 58
42788 8566 2697 18
42789 8566 643 21
42790 8566 666 36
42791 8567 6118 98
42792 8567 3707 4
42793 8567 1097 46
42794 8567 1103 26
42795 8567 4152 59
42796 8567 4289 80
42797 8568 9981 54
42798 8568 5683 70
42799 8568 6146 45
42800 8568 4425 98
42801 8568 2203 78
42802 8568 3871 28
42803 8569 9496 61
42804 8569 7247 57
42805 8569 1061 45
42806 8569 3932 19
42807 8569 5044 48
42808 8569 9029 98
42809 8570 8910 27
42810 8570 6870 74
42811 8571 994 64
42812 8571 149 45
42813 8571 6902 19
42814 8571 6302 49
42815 8572 5014 36
42816 8573 7829 27
42817 8573 9431 97
42818 8573 3768 76
42819 8573 7756 68
42820 8573 9294 36
42821 8573 3286 39
42822 8573 8751 89
42823 8573 7175 78
42824 8573 2219 11
42825 8574 2690 86
42826 8574 5144 37
42827 8574 9719 80
42828 8574 7292 56
42829 8574 3110 74
42830 8574 4762 93
42831 8575 1467 45
42832 8575 3578 80
42833 8575 9753 8
42834 8575 4956 100
42835 8575 7588 24
42836 8576 8851 8
42837 8576 2978 5
42838 8576 1702 54
42839 8576 6618 15
42840 8576 2444 42
42841 8576 3907 77
42842 8577 4878 36
42843 8577 517 34
42844 8577 8974 61
42845 8577 4022 23
42846 8577 365 33
42847 8577 8520 76
42848 8577 4767 73
42849 8577 6869 55
42850 8577 5983 17
42851 8578 7899 92
42852 8578 6963 53
42853 8578 7471 95
42854 8578 6252 52
42855 8578 5946 4
42856 8578 6414 70
42857 8578 4370 92
42858 8579 2810 90
42859 8579 6587 47
42860 8579 2892 44
42861 8579 819 70
42862 8579 3894 24
42863 8579 7403 75
42864 8580 4296 94
42865 8580 604 77
42866 8580 1608 74
42867 8580 5743 50
42868 8580 8616 59
42869 8580 6714 34
42870 8581 7797 2
42871 8581 9772 50
42872 8581 6749 76
42873 8582 7988 76
42874 8582 6009 49
42875 8582 2082 90
42876 8582 8125 97
42877 8583 8768 79
42878 8583 2947 8
42879 8583 6785 29
42880 8584 9726 55
42881 8584 9413 20
42882 8584 8565 54
42883 8584 349 36
42884 8584 2842 77
42885 8584 4558 39
42886 8584 7633 83
42887 8585 8480 19
42888 8585 2020 10
42889 8585 9948 23
42890 8585 7685 81
42891 8585 3161 54
42892 8586 1689 75
42893 8586 654 26
42894 8586 282 31
42895 8587 5904 49
42896 8587 4132 54
42897 8587 3658 27
42898 8587 7404 33
42899 8587 2673 28
42900 8588 7251 7
42901 8588 3401 91
42902 8588 5775 80
42903 8588 6096 81
42904 8589 7791 87
42905 8589 3558 57
42906 8589 6283 22
42907 8589 907 2
42908 8589 5827 30
42909 8590 2420 17
42910 8590 1177 17
42911 8590 6537 15
42912 8590 6819 15
42913 8590 2292 49
42914 8590 3016 29
42915 8590 2320 55
42916 8591 1818 74
42917 8591 834 51
42918 8591 1209 44
42919 8591 5797 100
42920 8591 6226 19
42921 8592 3769 28
42922 8592 9192 96
42923 8592 8966 53
42924 8592 7741 51
42925 8592 2369 64
42926 8593 807 81
42927 8593 79 90
42928 8593 9464 45
42929 8593 92 89
42930 8593 2775 7
42931 8593 5235 76
42932 8593 1857 13
42933 8593 5783 28
42934 8593 6062 93
42935 8593 352 90
42936 8593 7269 91
42937 8594 4750 85
42938 8594 8413 52
42939 8594 8420 69
42940 8594 1524 65
42941 8595 4882 75
42942 8595 7880 21
42943 8595 2951 10
42944 8596 6920 86
42945 8596 4970 21
42946 8596 4615 56
42947 8596 348 81
42948 8596 9256 29
42949 8596 3630 64
42950 8596 7783 5
42951 8597 8538 89
42952 8597 7638 85
42953 8597 2827 85
42954 8597 8725 71
42955 8597 4717 3
42956 8597 5882 42
42957 8597 4080 94
42958 8598 4725 63
42959 8598 4288 74
42960 8598 2400 70
42961 8598 5819 91
42962 8598 4352 33
42963 8598 8944 77
42964 8598 9915 17
42965 8599 6668 47
42966 8599 2042 65
42967 8599 621 14
42968 8599 4945 45
42969 8600 9900 39
42970 8600 2779 16
42971 8600 8371 89
42972 8600 1600 16
42973 8600 1675 2
42974 8600 1077 89
42975 8600 4696 39
42976 8601 6354 52
42977 8601 8551 31
42978 8601 5084 54
42979 8601 8863 31
42980 8602 6777 8
42981 8602 8255 96
42982 8603 9867 70
42983 8603 3013 10
42984 8603 9589 100
42985 8603 7901 70
42986 8603 5589 18
42987 8604 7540 80
42988 8604 5977 89
42989 8604 7470 55
42990 8604 5928 27
42991 8605 7870 79
42992 8605 7065 22
42993 8605 5098 14
42994 8605 7703 8
42995 8605 5184 5
42996 8605 4974 70
42997 8605 6253 45
42998 8606 2062 21
42999 8606 110 57
43000 8606 8213 34
43001 8606 7602 65
43002 8606 2663 83
43003 8606 7882 16
43004 8606 542 100
43005 8606 786 90
43006 8607 1520 85
43007 8607 4100 2
43008 8607 7543 98
43009 8607 7392 57
43010 8607 5772 91
43011 8607 846 64
43012 8608 457 2
43013 8608 282 51
43014 8608 7264 97
43015 8608 6303 2
43016 8609 1167 74
43017 8609 8441 68
43018 8609 3407 91
43019 8609 8052 72
43020 8609 607 14
43021 8610 778 76
43022 8610 6009 69
43023 8610 4377 8
43024 8610 1165 39
43025 8611 1670 66
43026 8611 6001 71
43027 8611 2073 44
43028 8611 406 52
43029 8611 6835 83
43030 8612 4816 47
43031 8612 2069 91
43032 8612 15 65
43033 8612 495 61
43034 8612 7409 44
43035 8613 5752 46
43036 8614 5285 32
43037 8614 2192 40
43038 8614 884 91
43039 8614 3102 58
43040 8615 1709 65
43041 8615 4894 2
43042 8615 4703 78
43043 8616 5508 7
43044 8616 1639 50
43045 8616 6570 59
43046 8616 4846 25
43047 8616 4067 97
43048 8617 2938 98
43049 8617 2608 36
43050 8617 6932 80
43051 8617 2296 60
43052 8617 6170 16
43053 8617 2500 48
43054 8618 4607 98
43055 8618 9653 78
43056 8618 4399 52
43057 8618 7546 56
43058 8618 7723 44
43059 8619 3902 66
43060 8619 9095 19
43061 8619 9149 100
43062 8619 4621 93
43063 8619 1842 61
43064 8619 8303 100
43065 8619 5122 46
43066 8619 2428 17
43067 8619 3270 93
43068 8620 7670 67
43069 8620 2758 79
43070 8620 1869 91
43071 8620 1249 18
43072 8621 481 66
43073 8621 8708 66
43074 8621 9477 97
43075 8621 5181 42
43076 8621 8883 43
43077 8621 8968 54
43078 8621 1495 70
43079 8621 4571 59
43080 8622 8083 54
43081 8622 2556 15
43082 8622 8305 55
43083 8622 5543 60
43084 8622 100 29
43085 8622 4168 67
43086 8623 3106 3
43087 8623 4183 41
43088 8623 7544 15
43089 8623 2539 7
43090 8623 8825 45
43091 8624 8934 1
43092 8624 7030 84
43093 8624 4231 76
43094 8624 8430 13
43095 8625 5253 87
43096 8625 3106 17
43097 8625 2443 96
43098 8625 9164 66
43099 8625 641 24
43100 8625 4909 84
43101 8626 83 9
43102 8626 8138 23
43103 8626 1578 68
43104 8627 4236 66
43105 8627 56 98
43106 8627 1213 71
43107 8627 3920 51
43108 8627 2673 1
43109 8627 3096 92
43110 8627 2536 93
43111 8627 915 81
43112 8627 222 65
43113 8627 3267 87
43114 8628 9506 79
43115 8628 1871 44
43116 8628 9678 90
43117 8628 5049 95
43118 8629 4090 52
43119 8629 5750 92
43120 8629 1069 74
43121 8629 3966 35
43122 8629 5967 64
43123 8629 1228 2
43124 8629 3256 7
43125 8629 8758 40
43126 8629 9715 71
43127 8629 2612 45
43128 8629 6542 87
43129 8629 7416 54
43130 8629 227 29
43131 8630 9026 2
43132 8630 6528 21
43133 8630 975 93
43134 8630 5469 1
43135 8630 8481 9
43136 8630 5282 87
43137 8630 8152 12
43138 8631 3437 82
43139 8631 7466 78
43140 8631 5553 100
43141 8631 6082 88
43142 8631 5083 50
43143 8631 6754 30
43144 8631 3096 2
43145 8631 9357 4
43146 8631 7394 20
43147 8631 889 1
43148 8632 8127 70
43149 8632 8467 53
43150 8632 3022 71
43151 8632 1383 19
43152 8633 3658 87
43153 8633 1952 17
43154 8633 615 65
43155 8633 4540 13
43156 8633 7013 6
43157 8635 6299 75
43158 8635 6036 26
43159 8635 7305 55
43160 8635 2380 90
43161 8636 5676 48
43162 8636 9091 20
43163 8636 1276 38
43164 8636 6081 97
43165 8636 5033 32
43166 8637 4303 29
43167 8637 6771 75
43168 8637 6450 38
43169 8637 4408 55
43170 8637 3842 38
43171 8637 683 3
43172 8637 5739 27
43173 8637 8902 24
43174 8638 9437 70
43175 8638 499 92
43176 8638 4822 38
43177 8638 5126 65
43178 8638 497 33
43179 8638 3163 9
43180 8638 6105 41
43181 8638 2715 74
43182 8639 4155 52
43183 8639 2735 47
43184 8639 127 56
43185 8639 1560 84
43186 8639 9123 54
43187 8639 5676 19
43188 8639 5294 73
43189 8640 5128 84
43190 8640 3100 87
43191 8640 8131 79
43192 8640 1885 86
43193 8640 7527 86
43194 8641 2071 54
43195 8641 6921 43
43196 8641 5072 90
43197 8641 1443 20
43198 8641 4980 47
43199 8642 126 13
43200 8642 6333 51
43201 8643 2847 33
43202 8643 7270 89
43203 8643 6026 99
43204 8644 8654 54
43205 8644 6660 69
43206 8644 3786 8
43207 8645 9258 2
43208 8645 6756 17
43209 8645 1624 57
43210 8645 112 56
43211 8645 7423 25
43212 8645 4827 62
43213 8646 6402 100
43214 8646 5532 94
43215 8646 4904 64
43216 8646 6173 67
43217 8647 3707 96
43218 8647 1329 86
43219 8647 5091 94
43220 8647 9651 45
43221 8648 7781 5
43222 8648 1503 54
43223 8648 26 29
43224 8648 4438 36
43225 8648 3009 66
43226 8649 9651 26
43227 8649 3939 85
43228 8649 4417 29
43229 8649 4658 49
43230 8649 3442 3
43231 8649 59 94
43232 8650 9952 18
43233 8650 3258 60
43234 8650 2397 66
43235 8650 8942 67
43236 8650 453 77
43237 8650 9987 49
43238 8650 2106 93
43239 8650 9583 84
43240 8650 4377 40
43241 8651 5132 44
43242 8651 4848 21
43243 8651 2657 57
43244 8651 9223 15
43245 8651 3117 49
43246 8651 8956 52
43247 8651 8419 62
43248 8652 6947 8
43249 8652 8001 50
43250 8652 2315 26
43251 8652 4174 75
43252 8653 8148 13
43253 8653 1537 83
43254 8653 8027 18
43255 8653 1965 31
43256 8654 6248 93
43257 8654 7789 98
43258 8654 7620 59
43259 8655 6644 16
43260 8656 8777 82
43261 8656 8196 51
43262 8656 983 41
43263 8657 4564 89
43264 8658 2850 75
43265 8658 9085 8
43266 8658 913 72
43267 8658 3722 38
43268 8658 7310 9
43269 8659 5221 73
43270 8659 3664 91
43271 8659 7091 72
43272 8659 5319 77
43273 8659 835 50
43274 8659 6470 77
43275 8659 2496 21
43276 8659 4757 97
43277 8660 6869 74
43278 8660 9959 81
43279 8660 1530 65
43280 8661 9000 28
43281 8661 8820 85
43282 8661 7025 14
43283 8661 1660 78
43284 8661 5872 68
43285 8661 3278 39
43286 8661 6469 59
43287 8662 4132 1
43288 8662 5762 31
43289 8662 1484 17
43290 8662 3950 7
43291 8663 7790 58
43292 8663 3129 45
43293 8663 4551 14
43294 8663 5391 16
43295 8663 7840 36
43296 8663 9759 19
43297 8663 6286 16
43298 8664 2373 5
43299 8664 7224 60
43300 8664 5953 51
43301 8665 2473 86
43302 8665 1734 100
43303 8665 5759 70
43304 8665 5298 14
43305 8665 8590 86
43306 8665 5024 46
43307 8665 4607 37
43308 8665 5310 65
43309 8665 9742 7
43310 8666 4256 30
43311 8666 6335 93
43312 8666 2586 3
43313 8667 320 18
43314 8667 7130 76
43315 8667 3373 12
43316 8668 6449 88
43317 8668 3711 30
43318 8668 9569 41
43319 8668 5058 17
43320 8668 1047 3
43321 8668 5322 66
43322 8668 3631 17
43323 8668 8295 27
43324 8669 906 62
43325 8669 439 81
43326 8669 4351 84
43327 8669 8640 74
43328 8670 2565 94
43329 8670 584 8
43330 8670 1280 44
43331 8670 2792 65
43332 8670 1522 54
43333 8670 6582 96
43334 8670 4414 97
43335 8670 9627 72
43336 8671 8367 40
43337 8671 6832 16
43338 8671 778 58
43339 8671 857 33
43340 8671 8594 84
43341 8671 403 91
43342 8672 2593 98
43343 8672 7049 48
43344 8673 718 1
43345 8673 3579 42
43346 8673 2853 26
43347 8673 7350 98
43348 8673 4366 82
43349 8673 9030 62
43350 8673 8142 50
43351 8673 8665 31
43352 8674 7789 37
43353 8674 1207 73
43354 8674 2314 33
43355 8675 3069 18
43356 8675 1521 85
43357 8675 5023 22
43358 8675 783 8
43359 8676 3964 40
43360 8676 7148 77
43361 8676 3822 58
43362 8676 9428 75
43363 8676 6733 64
43364 8676 2816 71
43365 8677 4078 38
43366 8677 5699 68
43367 8677 4333 37
43368 8677 9271 8
43369 8677 9534 26
43370 8678 3121 53
43371 8678 40 86
43372 8678 9027 96
43373 8678 6781 83
43374 8678 9673 71
43375 8679 3804 93
43376 8679 1352 9
43377 8679 684 90
43378 8679 4644 12
43379 8679 7505 59
43380 8679 7588 51
43381 8680 3846 27
43382 8680 9604 16
43383 8680 3208 66
43384 8680 531 93
43385 8680 3502 54
43386 8680 1460 22
43387 8681 1197 17
43388 8681 9913 23
43389 8681 8639 11
43390 8681 5413 33
43391 8681 9447 56
43392 8681 26 26
43393 8681 7480 66
43394 8681 2588 48
43395 8682 3802 81
43396 8682 1651 6
43397 8682 4906 34
43398 8682 5685 43
43399 8682 7731 90
43400 8682 3460 57
43401 8682 8775 94
43402 8682 806 4
43403 8682 8188 83
43404 8683 393 46
43405 8683 1035 40
43406 8683 8441 22
43407 8683 4578 27
43408 8683 5886 67
43409 8684 5953 56
43410 8684 9060 98
43411 8684 4660 11
43412 8684 9247 60
43413 8684 758 74
43414 8685 5725 85
43415 8685 2538 26
43416 8685 610 80
43417 8685 7480 100
43418 8686 2801 63
43419 8686 511 30
43420 8686 966 53
43421 8686 7863 2
43422 8686 5657 43
43423 8686 4594 6
43424 8687 9398 57
43425 8687 4039 28
43426 8687 3042 84
43427 8687 4600 80
43428 8687 9156 35
43429 8688 8979 86
43430 8688 2152 39
43431 8688 2456 36
43432 8689 885 81
43433 8689 2344 15
43434 8689 9303 12
43435 8689 7031 32
43436 8689 7398 7
43437 8689 6646 35
43438 8689 1198 97
43439 8690 730 38
43440 8690 7619 51
43441 8690 4701 18
43442 8690 1399 54
43443 8690 6739 74
43444 8690 6799 55
43445 8691 4874 63
43446 8691 9329 86
43447 8691 5263 37
43448 8691 7366 89
43449 8691 6932 27
43450 8691 4326 65
43451 8691 210 9
43452 8691 8166 55
43453 8691 2213 65
43454 8691 5578 9
43455 8691 467 79
43456 8692 6732 1
43457 8692 7157 69
43458 8692 1749 63
43459 8692 644 67
43460 8692 7510 24
43461 8693 8806 17
43462 8693 5981 100
43463 8693 1955 87
43464 8693 7332 39
43465 8693 9336 65
43466 8693 1889 98
43467 8694 8545 42
43468 8694 2411 50
43469 8694 5809 40
43470 8694 8486 24
43471 8694 8676 5
43472 8694 6211 9
43473 8694 7469 36
43474 8694 3192 75
43475 8694 357 32
43476 8694 1502 6
43477 8694 5394 7
43478 8694 1196 93
43479 8694 569 59
43480 8694 3413 50
43481 8695 7934 38
43482 8695 9871 58
43483 8695 8000 10
43484 8695 4010 4
43485 8695 761 43
43486 8695 9146 39
43487 8696 43 4
43488 8696 8785 75
43489 8696 4742 90
43490 8697 7553 31
43491 8697 7320 76
43492 8697 909 59
43493 8697 3017 62
43494 8697 2577 17
43495 8697 7968 88
43496 8698 9278 81
43497 8698 7625 87
43498 8698 6044 9
43499 8699 3017 27
43500 8700 5551 5
43501 8700 27 48
43502 8700 7310 10
43503 8700 7221 98
43504 8700 234 5
43505 8700 1712 36
43506 8701 9700 86
43507 8701 1983 50
43508 8701 7267 25
43509 8701 2296 42
43510 8701 3082 14
43511 8701 5583 98
43512 8701 6041 89
43513 8702 5180 79
43514 8702 1944 10
43515 8703 9403 27
43516 8703 4494 5
43517 8703 6935 39
43518 8704 8990 96
43519 8704 6570 1
43520 8704 4377 86
43521 8704 4299 60
43522 8704 4840 20
43523 8704 4452 40
43524 8704 8521 77
43525 8705 1525 54
43526 8705 6963 28
43527 8705 7514 55
43528 8705 5603 67
43529 8705 3732 85
43530 8706 6517 17
43531 8706 4447 67
43532 8706 6930 52
43533 8707 466 37
43534 8707 3489 99
43535 8707 1169 81
43536 8708 2860 60
43537 8708 762 11
43538 8708 9299 43
43539 8708 6281 96
43540 8709 3768 19
43541 8709 5850 25
43542 8709 5049 81
43543 8709 1424 13
43544 8710 7244 9
43545 8710 1670 83
43546 8710 7153 54
43547 8710 7004 35
43548 8710 5116 43
43549 8710 8604 44
43550 8710 5366 19
43551 8711 6769 8
43552 8711 6018 41
43553 8711 4844 99
43554 8711 8334 100
43555 8712 942 15
43556 8712 3509 31
43557 8712 2391 20
43558 8712 39 99
43559 8713 4515 50
43560 8713 8372 50
43561 8713 5104 16
43562 8714 6668 77
43563 8714 4420 73
43564 8714 361 83
43565 8714 1412 67
43566 8715 8365 35
43567 8716 971 6
43568 8716 3669 39
43569 8716 9899 37
43570 8716 4587 71
43571 8716 9653 90
43572 8717 9402 40
43573 8717 1216 53
43574 8717 9048 31
43575 8717 3307 56
43576 8717 5677 75
43577 8717 9886 67
43578 8717 9459 37
43579 8718 9515 11
43580 8718 6369 1
43581 8718 2093 23
43582 8718 2248 18
43583 8718 7017 63
43584 8718 2430 70
43585 8718 9731 64
43586 8718 9872 26
43587 8718 2495 31
43588 8719 7439 58
43589 8719 5638 44
43590 8719 904 78
43591 8719 8576 11
43592 8719 2105 65
43593 8719 8216 71
43594 8719 9031 34
43595 8720 206 82
43596 8720 1679 99
43597 8721 8603 89
43598 8721 4284 74
43599 8721 1246 21
43600 8721 53 17
43601 8722 6069 73
43602 8722 6870 50
43603 8722 4474 37
43604 8722 6464 94
43605 8722 2092 5
43606 8722 8604 4
43607 8723 3639 13
43608 8723 1383 94
43609 8723 8230 57
43610 8723 7163 11
43611 8723 9829 72
43612 8723 3522 97
43613 8723 9297 21
43614 8724 7471 96
43615 8724 3303 37
43616 8724 4968 53
43617 8724 8447 60
43618 8724 9004 42
43619 8724 6632 41
43620 8725 2198 69
43621 8725 3148 98
43622 8725 5420 3
43623 8725 5778 7
43624 8726 5249 1
43625 8726 249 48
43626 8726 3401 85
43627 8726 168 82
43628 8726 6092 53
43629 8726 3462 26
43630 8726 4702 12
43631 8727 5807 87
43632 8727 9649 18
43633 8728 7817 44
43634 8728 7751 62
43635 8728 3548 97
43636 8728 7624 86
43637 8728 9397 1
43638 8728 1650 53
43639 8728 9902 66
43640 8728 4276 36
43641 8728 806 60
43642 8729 6169 83
43643 8729 8840 11
43644 8729 5781 7
43645 8729 8378 91
43646 8730 1832 62
43647 8730 3743 12
43648 8730 9278 82
43649 8730 2428 38
43650 8731 4134 36
43651 8731 2215 57
43652 8731 9987 51
43653 8731 278 45
43654 8732 7518 8
43655 8732 350 72
43656 8732 2787 8
43657 8732 7934 75
43658 8732 9911 26
43659 8732 6780 4
43660 8732 5678 39
43661 8733 8298 67
43662 8733 323 7
43663 8733 5921 14
43664 8733 4614 25
43665 8733 2734 62
43666 8734 8997 77
43667 8734 4432 99
43668 8734 7945 36
43669 8735 2247 48
43670 8735 9209 31
43671 8735 2431 17
43672 8736 5490 20
43673 8736 8281 65
43674 8736 6424 12
43675 8737 595 50
43676 8737 5435 49
43677 8737 7167 37
43678 8738 1104 12
43679 8738 6535 17
43680 8738 9309 72
43681 8738 1093 54
43682 8738 3639 78
43683 8738 5763 62
43684 8738 9555 53
43685 8738 6537 87
43686 8739 2465 4
43687 8739 2235 93
43688 8739 4010 87
43689 8739 2307 38
43690 8739 9061 34
43691 8739 2928 77
43692 8739 4297 65
43693 8740 6533 20
43694 8740 735 36
43695 8740 6334 3
43696 8740 1571 33
43697 8740 8373 90
43698 8740 657 77
43699 8741 4522 56
43700 8741 3821 48
43701 8741 1810 29
43702 8741 8459 45
43703 8741 6322 34
43704 8741 4357 74
43705 8741 9360 20
43706 8742 2089 75
43707 8742 2282 56
43708 8742 1226 59
43709 8742 3167 8
43710 8742 1343 80
43711 8742 7465 56
43712 8743 3918 30
43713 8743 3461 79
43714 8743 5151 45
43715 8743 4559 21
43716 8743 1075 76
43717 8744 2007 3
43718 8744 9633 93
43719 8744 9526 60
43720 8744 5649 87
43721 8745 4214 57
43722 8745 589 65
43723 8746 3892 1
43724 8746 404 32
43725 8746 3299 92
43726 8746 7535 65
43727 8747 1897 57
43728 8747 4536 82
43729 8747 17 68
43730 8747 4810 85
43731 8747 1182 90
43732 8747 5776 9
43733 8747 2743 71
43734 8748 8043 46
43735 8748 5328 78
43736 8748 3388 65
43737 8748 3764 76
43738 8748 9301 59
43739 8749 459 66
43740 8749 8602 53
43741 8749 3904 60
43742 8749 9101 19
43743 8749 7937 23
43744 8749 6970 83
43745 8750 5617 84
43746 8750 9266 41
43747 8750 3493 98
43748 8751 6114 44
43749 8751 6876 99
43750 8751 6759 79
43751 8751 3905 16
43752 8751 8780 1
43753 8751 6058 43
43754 8751 8613 45
43755 8751 8165 93
43756 8751 3631 1
43757 8752 7165 18
43758 8753 7643 46
43759 8753 4041 3
43760 8753 4157 52
43761 8754 2811 94
43762 8754 2158 59
43763 8754 2960 97
43764 8754 9422 95
43765 8754 9072 77
43766 8754 8674 16
43767 8754 5120 12
43768 8755 1080 82
43769 8755 1512 44
43770 8755 3294 17
43771 8755 563 46
43772 8755 8231 99
43773 8755 9637 43
43774 8756 6610 87
43775 8756 2971 27
43776 8756 6359 88
43777 8756 7581 45
43778 8757 8004 9
43779 8757 4492 23
43780 8757 3078 92
43781 8757 8208 48
43782 8758 1949 25
43783 8758 6526 3
43784 8758 2491 78
43785 8758 4604 23
43786 8758 7780 34
43787 8759 890 41
43788 8759 6242 46
43789 8759 8310 73
43790 8759 3069 37
43791 8759 9631 65
43792 8759 4581 94
43793 8759 8533 71
43794 8760 6593 59
43795 8760 7692 27
43796 8761 5677 100
43797 8761 1136 15
43798 8762 4886 8
43799 8762 8100 76
43800 8762 7276 91
43801 8762 4805 12
43802 8763 7275 65
43803 8763 6305 29
43804 8763 1412 62
43805 8763 2155 41
43806 8763 4548 15
43807 8763 2097 54
43808 8764 1825 21
43809 8764 9856 16
43810 8764 9393 9
43811 8764 999 85
43812 8764 4619 28
43813 8764 6827 61
43814 8764 7364 51
43815 8764 9161 49
43816 8765 8114 17
43817 8765 6852 54
43818 8765 553 7
43819 8766 4626 60
43820 8766 3505 17
43821 8767 2161 76
43822 8767 8366 50
43823 8767 7883 33
43824 8767 6443 57
43825 8767 7750 17
43826 8767 1387 2
43827 8767 2531 25
43828 8767 9348 56
43829 8768 7527 85
43830 8768 7669 40
43831 8768 3313 64
43832 8768 6874 12
43833 8768 3805 79
43834 8768 2645 44
43835 8769 1921 94
43836 8769 9607 90
43837 8769 8632 44
43838 8769 8315 23
43839 8769 2122 81
43840 8769 3266 99
43841 8769 3423 45
43842 8769 3360 22
43843 8769 342 82
43844 8769 7700 16
43845 8770 8731 63
43846 8770 7062 29
43847 8770 2908 49
43848 8770 7578 88
43849 8770 3960 45
43850 8770 1243 33
43851 8771 602 69
43852 8771 6755 64
43853 8771 377 36
43854 8771 7897 31
43855 8771 8028 18
43856 8771 8116 9
43857 8772 133 51
43858 8772 8094 3
43859 8772 5694 24
43860 8772 9594 30
43861 8772 4297 54
43862 8772 526 38
43863 8773 1312 93
43864 8773 5802 15
43865 8773 9140 97
43866 8773 7963 68
43867 8774 9936 89
43868 8774 2311 90
43869 8774 2377 30
43870 8774 9422 84
43871 8774 4000 49
43872 8775 8852 94
43873 8775 9559 50
43874 8775 584 53
43875 8775 2934 41
43876 8775 9472 52
43877 8775 5845 57
43878 8775 3584 26
43879 8775 576 35
43880 8776 927 98
43881 8776 8589 14
43882 8776 5320 34
43883 8776 9622 89
43884 8776 8927 39
43885 8776 9682 90
43886 8777 2965 70
43887 8777 5493 50
43888 8778 7815 29
43889 8778 4295 26
43890 8778 6288 78
43891 8778 1145 38
43892 8778 1716 80
43893 8778 7668 12
43894 8778 2493 1
43895 8779 1899 5
43896 8779 6697 77
43897 8779 3057 93
43898 8779 7038 67
43899 8779 7541 19
43900 8779 5820 90
43901 8779 4655 21
43902 8780 3414 4
43903 8780 324 77
43904 8780 6639 80
43905 8781 5 89
43906 8781 9585 39
43907 8781 7314 83
43908 8781 1680 29
43909 8781 807 16
43910 8781 4849 12
43911 8781 8759 92
43912 8782 8884 49
43913 8782 7428 5
43914 8782 6804 98
43915 8783 7320 94
43916 8783 3103 50
43917 8783 7941 30
43918 8783 4297 69
43919 8783 9988 8
43920 8783 5807 97
43921 8783 8368 43
43922 8783 484 17
43923 8784 6411 9
43924 8784 6166 38
43925 8784 536 42
43926 8785 9852 68
43927 8785 9013 34
43928 8785 3371 78
43929 8785 6682 14
43930 8786 6173 65
43931 8786 636 98
43932 8786 9977 5
43933 8786 3577 41
43934 8786 9553 47
43935 8786 8520 50
43936 8786 8706 2
43937 8786 1236 84
43938 8786 8261 78
43939 8787 8560 52
43940 8787 1735 1
43941 8788 3146 49
43942 8788 2347 53
43943 8788 203 45
43944 8788 1418 8
43945 8788 2110 63
43946 8788 6188 56
43947 8788 9040 79
43948 8789 2246 27
43949 8789 4562 20
43950 8789 5251 98
43951 8790 1678 54
43952 8790 297 94
43953 8790 5302 71
43954 8790 5621 84
43955 8790 557 39
43956 8790 5425 58
43957 8790 9527 31
43958 8791 2849 51
43959 8791 7611 38
43960 8792 438 83
43961 8792 296 2
43962 8792 9063 30
43963 8793 4732 80
43964 8793 2261 62
43965 8793 9868 67
43966 8793 4808 58
43967 8793 1665 35
43968 8794 3502 86
43969 8794 3899 3
43970 8794 5734 19
43971 8795 4386 61
43972 8795 1904 28
43973 8795 1401 74
43974 8795 9751 99
43975 8795 8605 1
43976 8795 115 28
43977 8796 5303 65
43978 8796 513 55
43979 8796 5727 40
43980 8797 8114 52
43981 8797 1997 37
43982 8798 5393 56
43983 8798 8913 59
43984 8798 1716 92
43985 8798 6939 49
43986 8798 6840 57
43987 8798 1010 8
43988 8798 2554 1
43989 8799 5263 35
43990 8799 5997 6
43991 8799 1292 20
43992 8799 8474 7
43993 8799 3408 51
43994 8800 4382 22
43995 8800 999 3
43996 8800 7974 40
43997 8800 4570 66
43998 8800 4603 87
43999 8801 8578 37
44000 8801 2929 34
44001 8801 1360 10
44002 8801 3849 72
44003 8801 8602 55
44004 8801 723 26
44005 8801 9102 44
44006 8802 9813 62
44007 8802 4677 66
44008 8802 2041 81
44009 8803 2737 68
44010 8803 1969 96
44011 8803 7912 79
44012 8804 3313 9
44013 8804 3014 57
44014 8804 1192 43
44015 8804 6112 24
44016 8804 4911 17
44017 8805 2050 3
44018 8805 6082 57
44019 8805 5387 73
44020 8805 6419 64
44021 8806 3160 65
44022 8806 6939 47
44023 8806 8651 69
44024 8806 7944 96
44025 8806 4826 43
44026 8806 6378 25
44027 8806 8481 91
44028 8806 4906 35
44029 8806 7506 29
44030 8807 3268 36
44031 8807 4608 89
44032 8807 3800 37
44033 8808 813 86
44034 8808 2424 80
44035 8808 3559 24
44036 8808 2536 99
44037 8808 5420 48
44038 8808 7901 69
44039 8809 1376 25
44040 8809 7183 67
44041 8809 8923 38
44042 8809 2454 58
44043 8809 1700 46
44044 8810 3097 17
44045 8810 2380 84
44046 8810 22 98
44047 8810 9243 37
44048 8810 9745 25
44049 8811 3021 32
44050 8811 2740 1
44051 8811 1285 27
44052 8811 5462 82
44053 8811 534 67
44054 8811 4370 55
44055 8812 2177 62
44056 8812 9408 67
44057 8812 3119 32
44058 8812 2386 96
44059 8812 5309 64
44060 8812 3584 16
44061 8813 9962 78
44062 8813 8737 81
44063 8813 9401 94
44064 8814 5138 15
44065 8814 8589 54
44066 8814 7171 85
44067 8814 3582 41
44068 8814 2782 71
44069 8814 7518 19
44070 8814 5488 16
44071 8815 9874 100
44072 8815 245 37
44073 8815 5887 65
44074 8815 6886 37
44075 8815 9261 76
44076 8816 9090 41
44077 8816 1118 47
44078 8816 7924 92
44079 8817 4625 93
44080 8817 5462 95
44081 8818 8862 74
44082 8818 2463 82
44083 8818 8359 42
44084 8818 9275 49
44085 8818 5038 49
44086 8818 4547 88
44087 8819 5961 99
44088 8820 5082 54
44089 8820 1809 55
44090 8821 4056 46
44091 8821 4529 41
44092 8821 1737 66
44093 8821 5983 81
44094 8821 5547 36
44095 8821 5250 74
44096 8822 2365 21
44097 8822 6673 67
44098 8822 7724 56
44099 8822 826 54
44100 8823 1267 96
44101 8823 4626 34
44102 8823 9757 2
44103 8823 4314 4
44104 8824 8194 4
44105 8824 1783 76
44106 8824 8739 1
44107 8824 7739 89
44108 8824 5832 23
44109 8825 9627 34
44110 8825 4021 63
44111 8825 8814 39
44112 8826 3627 47
44113 8826 5762 79
44114 8827 9205 25
44115 8827 100 12
44116 8827 5446 79
44117 8827 8098 70
44118 8827 6763 63
44119 8827 8394 32
44120 8827 7349 24
44121 8828 4067 22
44122 8828 6456 100
44123 8828 4704 88
44124 8828 4354 33
44125 8828 3733 72
44126 8828 9877 38
44127 8829 7048 56
44128 8829 73 7
44129 8829 9254 52
44130 8829 753 24
44131 8830 5641 79
44132 8830 4412 27
44133 8830 4699 89
44134 8830 3000 66
44135 8830 6001 32
44136 8831 778 7
44137 8831 9158 86
44138 8831 4886 18
44139 8832 205 89
44140 8832 3977 85
44141 8832 4655 18
44142 8832 1306 43
44143 8832 8711 38
44144 8832 7706 70
44145 8833 9907 24
44146 8833 4466 66
44147 8833 2980 36
44148 8833 7001 86
44149 8833 6384 38
44150 8833 7439 41
44151 8834 3014 77
44152 8834 5256 8
44153 8834 9033 93
44154 8834 5202 33
44155 8834 5786 56
44156 8834 2044 70
44157 8835 6310 83
44158 8835 5122 13
44159 8835 3791 67
44160 8835 1608 77
44161 8835 2518 79
44162 8835 1647 73
44163 8835 7120 18
44164 8836 5271 3
44165 8837 4401 13
44166 8837 6218 45
44167 8837 2835 91
44168 8837 7312 43
44169 8837 8465 28
44170 8838 2110 69
44171 8838 1290 19
44172 8838 3118 8
44173 8838 6679 73
44174 8838 2705 51
44175 8838 6453 52
44176 8838 9082 94
44177 8839 6867 23
44178 8839 4642 8
44179 8840 3988 1
44180 8840 7132 3
44181 8841 198 54
44182 8841 269 32
44183 8841 9339 24
44184 8841 3173 74
44185 8841 2853 91
44186 8841 7607 4
44187 8841 4112 13
44188 8841 1495 13
44189 8842 9443 12
44190 8842 2199 56
44191 8842 6634 11
44192 8843 1679 71
44193 8843 1486 20
44194 8843 1155 51
44195 8843 5913 67
44196 8843 879 10
44197 8844 9960 45
44198 8844 9063 90
44199 8844 7967 6
44200 8844 7171 6
44201 8844 6477 41
44202 8844 0 62
44203 8844 652 96
44204 8845 3199 86
44205 8845 7464 87
44206 8845 8889 13
44207 8845 8151 96
44208 8845 5824 89
44209 8845 4997 68
44210 8845 3141 55
44211 8846 5833 7
44212 8846 6149 19
44213 8846 3279 90
44214 8846 9953 70
44215 8847 3166 4
44216 8847 5718 54
44217 8847 85 65
44218 8847 2218 55
44219 8847 8271 1
44220 8847 9958 89
44221 8847 3510 90
44222 8847 1849 58
44223 8848 8623 89
44224 8848 6610 68
44225 8848 6284 87
44226 8848 9730 9
44227 8849 5665 76
44228 8849 7770 19
44229 8849 6752 57
44230 8849 6009 53
44231 8850 9643 4
44232 8851 2876 65
44233 8851 3440 27
44234 8851 5341 74
44235 8851 1824 51
44236 8852 4276 66
44237 8852 5632 17
44238 8852 9356 74
44239 8852 2006 50
44240 8852 3735 91
44241 8852 1474 69
44242 8852 5145 29
44243 8852 1948 82
44244 8852 7606 6
44245 8852 5470 25
44246 8853 4289 8
44247 8853 8988 49
44248 8853 6164 98
44249 8853 2427 46
44250 8853 5454 8
44251 8853 351 76
44252 8853 6475 33
44253 8853 9504 23
44254 8854 7276 57
44255 8854 55 30
44256 8854 643 28
44257 8854 8239 84
44258 8854 4474 55
44259 8855 5522 13
44260 8855 453 96
44261 8855 3877 59
44262 8855 5009 4
44263 8855 8922 86
44264 8855 8088 53
44265 8855 4274 88
44266 8855 8988 11
44267 8856 5341 54
44268 8856 2383 2
44269 8856 5340 5
44270 8856 250 3
44271 8856 7122 80
44272 8857 5076 15
44273 8857 6193 74
44274 8857 1062 29
44275 8857 629 32
44276 8857 9597 85
44277 8857 3476 59
44278 8858 2988 89
44279 8858 7503 33
44280 8858 7341 2
44281 8859 1494 58
44282 8859 1115 62
44283 8859 4358 99
44284 8859 4371 78
44285 8859 9104 71
44286 8859 2804 18
44287 8859 2008 83
44288 8859 3032 45
44289 8860 4110 25
44290 8860 6212 21
44291 8860 9011 61
44292 8860 5302 4
44293 8860 8445 96
44294 8861 5720 20
44295 8861 4718 20
44296 8861 4261 89
44297 8861 4454 82
44298 8861 1846 43
44299 8862 5310 29
44300 8862 9802 21
44301 8862 883 51
44302 8862 3515 91
44303 8863 3623 22
44304 8863 7415 40
44305 8863 8380 86
44306 8863 153 74
44307 8863 1532 69
44308 8863 6701 78
44309 8863 4838 88
44310 8864 4438 30
44311 8864 5382 29
44312 8864 1655 82
44313 8864 9246 23
44314 8865 7761 74
44315 8865 2842 81
44316 8865 4523 96
44317 8866 3375 14
44318 8866 2342 71
44319 8866 4040 43
44320 8866 2845 44
44321 8866 377 82
44322 8866 1858 28
44323 8866 8032 28
44324 8866 6098 61
44325 8866 999 31
44326 8866 4507 9
44327 8867 1173 17
44328 8867 3003 8
44329 8867 9963 63
44330 8867 5667 35
44331 8868 8168 25
44332 8868 6023 45
44333 8868 5922 52
44334 8868 1814 19
44335 8868 2476 86
44336 8868 2756 45
44337 8869 9650 34
44338 8869 6987 59
44339 8869 6805 98
44340 8869 4200 63
44341 8869 5066 43
44342 8869 5113 10
44343 8869 7880 39
44344 8870 2506 92
44345 8870 488 47
44346 8870 2118 55
44347 8870 2444 38
44348 8870 4775 83
44349 8871 8671 64
44350 8871 2136 56
44351 8871 8466 27
44352 8871 6353 19
44353 8871 5120 27
44354 8872 7696 87
44355 8872 3088 90
44356 8872 2042 39
44357 8872 5996 41
44358 8873 2273 15
44359 8873 9332 55
44360 8873 3852 14
44361 8874 3103 52
44362 8874 2833 88
44363 8874 3011 91
44364 8874 7714 55
44365 8874 3280 41
44366 8874 3778 56
44367 8875 6780 16
44368 8875 3758 31
44369 8875 8523 1
44370 8875 2835 16
44371 8875 2930 20
44372 8876 8905 93
44373 8876 6440 6
44374 8876 7536 87
44375 8876 5209 55
44376 8877 5230 88
44377 8877 1332 50
44378 8877 7797 38
44379 8877 4990 34
44380 8877 7557 50
44381 8878 3771 98
44382 8878 5682 31
44383 8879 278 58
44384 8879 5762 3
44385 8879 7759 30
44386 8879 4706 1
44387 8879 1858 30
44388 8880 4845 39
44389 8880 5491 69
44390 8880 218 95
44391 8880 2975 25
44392 8880 5858 61
44393 8880 2642 74
44394 8880 8629 67
44395 8880 1093 45
44396 8881 8302 84
44397 8881 78 21
44398 8881 2187 74
44399 8881 5413 97
44400 8881 1161 15
44401 8882 2971 93
44402 8882 4821 29
44403 8882 4923 13
44404 8882 5677 99
44405 8882 2897 83
44406 8882 9211 7
44407 8882 8140 50
44408 8882 1313 52
44409 8883 5546 88
44410 8883 4540 76
44411 8883 5527 22
44412 8884 5445 73
44413 8884 4999 74
44414 8884 1828 79
44415 8884 8894 47
44416 8884 84 39
44417 8885 4154 46
44418 8885 7881 60
44419 8885 3694 59
44420 8885 1700 2
44421 8885 1424 17
44422 8885 242 91
44423 8885 9815 75
44424 8885 6571 84
44425 8885 1377 12
44426 8886 3355 43
44427 8886 6460 60
44428 8886 3383 47
44429 8886 1114 75
44430 8886 9516 35
44431 8886 1840 9
44432 8886 2739 52
44433 8886 5190 85
44434 8887 9737 56
44435 8887 6180 4
44436 8887 787 91
44437 8887 4970 27
44438 8887 3844 13
44439 8887 5043 40
44440 8888 3177 9
44441 8888 8027 30
44442 8888 3464 2
44443 8889 4494 26
44444 8889 7801 61
44445 8889 8845 79
44446 8889 2678 89
44447 8889 6002 59
44448 8889 6761 2
44449 8889 7176 62
44450 8889 9811 4
44451 8890 8138 54
44452 8890 6083 16
44453 8891 5262 30
44454 8891 1240 43
44455 8891 4091 90
44456 8891 5848 53
44457 8891 5384 95
44458 8891 6502 56
44459 8891 9262 15
44460 8892 862 35
44461 8892 3121 39
44462 8892 3101 77
44463 8892 3115 36
44464 8893 5381 78
44465 8893 8908 52
44466 8893 1586 46
44467 8893 6468 53
44468 8893 2725 19
44469 8893 2066 26
44470 8893 8843 18
44471 8894 992 29
44472 8894 128 95
44473 8895 2481 61
44474 8895 6472 48
44475 8895 8140 33
44476 8895 5752 12
44477 8896 9478 98
44478 8896 3684 46
44479 8896 9114 66
44480 8896 9843 88
44481 8896 995 6
44482 8896 5211 14
44483 8897 1129 44
44484 8898 1160 20
44485 8898 458 88
44486 8898 9089 18
44487 8898 6543 20
44488 8898 9014 31
44489 8899 4381 42
44490 8899 7562 44
44491 8899 6461 93
44492 8899 4006 7
44493 8899 9046 59
44494 8900 6522 59
44495 8900 9002 38
44496 8900 292 72
44497 8901 6044 96
44498 8901 9502 74
44499 8902 9356 95
44500 8902 2328 95
44501 8902 171 29
44502 8902 3944 72
44503 8902 1982 31
44504 8902 2523 34
44505 8903 367 30
44506 8903 6377 57
44507 8903 4409 96
44508 8903 7726 60
44509 8903 2948 2
44510 8903 6162 14
44511 8903 7710 6
44512 8903 8252 55
44513 8904 337 24
44514 8904 472 80
44515 8904 2329 4
44516 8905 2960 65
44517 8905 3260 34
44518 8905 6930 78
44519 8905 7076 93
44520 8905 1288 40
44521 8905 7460 85
44522 8905 6691 95
44523 8905 9383 72
44524 8905 820 58
44525 8906 8553 56
44526 8906 2497 27
44527 8906 4352 60
44528 8906 1737 33
44529 8907 3660 22
44530 8907 6918 56
44531 8907 2886 37
44532 8907 429 84
44533 8907 5334 32
44534 8907 3104 95
44535 8908 8760 11
44536 8908 8712 90
44537 8908 6384 22
44538 8908 7048 26
44539 8908 6415 74
44540 8909 6238 42
44541 8909 9756 85
44542 8909 4278 83
44543 8909 9552 24
44544 8910 7382 92
44545 8910 3001 80
44546 8910 9513 53
44547 8910 2071 70
44548 8910 6385 65
44549 8911 7571 24
44550 8912 5849 19
44551 8912 2322 4
44552 8912 6500 92
44553 8913 4674 7
44554 8913 8134 21
44555 8913 4597 38
44556 8913 1246 33
44557 8913 5541 14
44558 8913 8352 8
44559 8913 2942 16
44560 8914 3258 85
44561 8914 4537 39
44562 8914 4534 43
44563 8914 2146 79
44564 8914 347 11
44565 8914 3917 92
44566 8915 4776 13
44567 8915 2866 57
44568 8915 6532 55
44569 8915 6222 50
44570 8915 9573 80
44571 8915 6098 37
44572 8916 8652 64
44573 8916 7431 13
44574 8916 5208 10
44575 8917 1947 59
44576 8917 544 63
44577 8917 5366 11
44578 8917 2000 58
44579 8917 549 12
44580 8918 5689 5
44581 8918 302 81
44582 8918 4518 22
44583 8918 7536 9
44584 8918 9604 9
44585 8918 9352 23
44586 8918 6888 23
44587 8919 6491 66
44588 8919 5584 15
44589 8919 9933 10
44590 8919 8658 20
44591 8920 1866 69
44592 8920 6738 25
44593 8920 8447 84
44594 8920 4868 41
44595 8920 1932 42
44596 8920 83 8
44597 8920 7001 75
44598 8920 8174 84
44599 8920 611 83
44600 8920 6430 46
44601 8921 7834 19
44602 8921 4309 87
44603 8921 5045 3
44604 8921 4849 57
44605 8921 3633 90
44606 8921 8610 27
44607 8921 4186 21
44608 8921 5741 1
44609 8921 464 66
44610 8921 6686 5
44611 8922 8431 22
44612 8922 8290 97
44613 8922 3395 37
44614 8922 1976 81
44615 8923 4766 96
44616 8923 4461 51
44617 8923 6416 43
44618 8923 3931 26
44619 8923 1621 54
44620 8923 8016 99
44621 8923 8604 70
44622 8923 5897 65
44623 8923 5981 50
44624 8923 58 45
44625 8923 4920 28
44626 8923 8147 40
44627 8924 3397 39
44628 8924 4862 45
44629 8924 7968 100
44630 8924 4987 73
44631 8924 4682 90
44632 8925 2577 77
44633 8925 8352 81
44634 8925 269 17
44635 8925 2434 38
44636 8925 8340 84
44637 8926 1129 95
44638 8926 5465 23
44639 8926 1801 63
44640 8926 58 24
44641 8927 7329 66
44642 8927 6639 100
44643 8927 5734 8
44644 8927 4255 19
44645 8927 8213 96
44646 8928 8579 94
44647 8928 7692 18
44648 8928 6511 15
44649 8928 5681 39
44650 8928 5952 68
44651 8928 9116 63
44652 8928 6923 51
44653 8928 2938 56
44654 8929 9738 52
44655 8929 2190 64
44656 8929 6711 9
44657 8929 990 21
44658 8930 293 80
44659 8930 8910 78
44660 8930 2609 53
44661 8930 5336 58
44662 8930 3011 77
44663 8930 4852 85
44664 8930 5597 24
44665 8931 2518 13
44666 8931 319 18
44667 8931 8221 74
44668 8932 3919 82
44669 8932 9440 73
44670 8932 52 86
44671 8932 5948 63
44672 8932 312 73
44673 8932 4058 32
44674 8933 452 48
44675 8933 1593 64
44676 8933 7471 37
44677 8933 2538 53
44678 8934 8898 38
44679 8935 9343 26
44680 8936 1610 41
44681 8936 9585 31
44682 8937 3773 83
44683 8937 4729 83
44684 8937 8314 91
44685 8937 4757 48
44686 8937 7695 42
44687 8938 5516 42
44688 8938 7781 76
44689 8938 7758 49
44690 8938 899 23
44691 8938 4979 78
44692 8938 240 78
44693 8938 2317 67
44694 8939 6396 30
44695 8939 4512 88
44696 8939 864 20
44697 8939 4568 93
44698 8939 3017 37
44699 8939 6620 2
44700 8940 5600 73
44701 8940 2410 2
44702 8940 4266 47
44703 8940 3020 95
44704 8940 8622 66
44705 8940 3623 80
44706 8940 9709 6
44707 8940 4109 16
44708 8941 8756 96
44709 8941 8798 94
44710 8942 6641 84
44711 8942 7009 59
44712 8942 9799 8
44713 8942 538 55
44714 8942 1585 25
44715 8943 1879 6
44716 8943 2745 49
44717 8943 7897 57
44718 8943 6491 11
44719 8943 3194 31
44720 8943 2421 21
44721 8943 1059 48
44722 8943 9503 4
44723 8944 373 35
44724 8944 455 80
44725 8944 9134 79
44726 8944 5747 29
44727 8944 3318 16
44728 8944 3248 40
44729 8944 9693 14
44730 8944 8579 94
44731 8944 1558 55
44732 8944 5302 17
44733 8944 8288 46
44734 8945 205 21
44735 8945 406 27
44736 8945 2459 28
44737 8945 9113 15
44738 8945 9314 39
44739 8945 7245 88
44740 8945 4724 42
44741 8945 6666 37
44742 8945 6500 34
44743 8945 5397 25
44744 8945 94 35
44745 8946 3850 67
44746 8946 745 23
44747 8946 4028 53
44748 8946 9542 24
44749 8946 5287 67
44750 8946 5760 1
44751 8946 3423 11
44752 8946 6973 41
44753 8946 919 92
44754 8946 8171 44
44755 8946 9980 97
44756 8947 2144 32
44757 8947 2164 24
44758 8947 8298 88
44759 8947 7556 33
44760 8947 158 91
44761 8947 7567 19
44762 8947 1570 68
44763 8948 5047 9
44764 8948 1278 20
44765 8948 9100 65
44766 8948 6405 93
44767 8948 7596 96
44768 8949 7284 38
44769 8949 5097 18
44770 8949 2835 82
44771 8950 8363 74
44772 8950 9722 50
44773 8950 2345 67
44774 8950 4806 48
44775 8950 3209 10
44776 8950 5959 54
44777 8950 6168 7
44778 8951 4506 13
44779 8951 9602 14
44780 8951 7802 31
44781 8951 4018 99
44782 8951 8950 12
44783 8951 6496 19
44784 8952 148 67
44785 8952 8021 72
44786 8952 1837 100
44787 8952 3312 72
44788 8953 6063 21
44789 8953 5834 47
44790 8953 8096 75
44791 8953 1116 61
44792 8954 4054 100
44793 8954 1642 70
44794 8954 1593 89
44795 8955 6777 99
44796 8956 6692 30
44797 8956 2274 40
44798 8956 2942 52
44799 8956 3217 84
44800 8956 1424 82
44801 8956 1950 78
44802 8956 3138 8
44803 8956 9484 69
44804 8957 2327 64
44805 8958 4384 9
44806 8958 3346 4
44807 8959 9446 68
44808 8959 7081 100
44809 8959 8450 5
44810 8959 4624 15
44811 8960 776 65
44812 8960 2688 21
44813 8960 1513 64
44814 8960 7631 34
44815 8960 1679 41
44816 8960 7867 31
44817 8961 8133 72
44818 8962 7927 72
44819 8962 898 67
44820 8962 2311 53
44821 8963 6227 4
44822 8964 3066 16
44823 8964 7572 25
44824 8964 5216 44
44825 8964 1001 76
44826 8964 8277 38
44827 8965 2769 49
44828 8965 833 14
44829 8965 9980 43
44830 8965 2134 81
44831 8965 8781 16
44832 8965 7545 50
44833 8965 3754 51
44834 8966 7515 54
44835 8966 1538 15
44836 8966 6935 66
44837 8967 8076 47
44838 8967 6643 60
44839 8967 6747 62
44840 8968 8027 19
44841 8968 3151 13
44842 8969 8063 79
44843 8969 4974 78
44844 8969 524 14
44845 8969 2700 14
44846 8969 542 12
44847 8969 5804 2
44848 8969 7812 29
44849 8970 9961 80
44850 8970 8400 81
44851 8970 6001 5
44852 8970 5374 43
44853 8970 9709 54
44854 8970 3567 55
44855 8971 8613 21
44856 8971 4582 82
44857 8971 6148 96
44858 8971 4462 47
44859 8971 2085 43
44860 8972 5294 37
44861 8972 7770 7
44862 8972 5571 19
44863 8972 6301 9
44864 8973 878 61
44865 8973 4101 73
44866 8973 3998 51
44867 8973 2801 20
44868 8973 9717 68
44869 8973 5748 18
44870 8973 1628 68
44871 8974 1225 59
44872 8974 6810 1
44873 8974 7712 14
44874 8974 4392 36
44875 8974 1397 97
44876 8975 5684 65
44877 8975 6889 2
44878 8975 9652 42
44879 8975 1219 31
44880 8975 897 46
44881 8975 3799 52
44882 8976 8048 37
44883 8976 8891 91
44884 8976 1975 39
44885 8976 1455 46
44886 8976 7827 98
44887 8977 4185 98
44888 8977 402 6
44889 8977 5413 36
44890 8977 4442 94
44891 8977 4598 42
44892 8977 3030 71
44893 8977 937 12
44894 8978 1574 80
44895 8978 4160 37
44896 8978 1543 75
44897 8978 7519 81
44898 8979 9213 82
44899 8979 3838 4
44900 8979 8488 44
44901 8979 6011 7
44902 8979 5088 54
44903 8979 308 64
44904 8979 7204 86
44905 8979 1806 90
44906 8979 8144 92
44907 8979 6426 48
44908 8979 1867 77
44909 8980 5027 61
44910 8980 3463 76
44911 8980 9451 56
44912 8980 9695 94
44913 8980 3287 35
44914 8981 5972 26
44915 8981 82 1
44916 8981 2747 67
44917 8981 1876 62
44918 8981 5145 58
44919 8981 5018 55
44920 8982 2755 31
44921 8982 6548 75
44922 8983 7891 56
44923 8983 1948 84
44924 8983 6802 37
44925 8983 1641 20
44926 8983 9469 56
44927 8983 1261 68
44928 8983 3189 34
44929 8984 115 8
44930 8984 7665 66
44931 8984 242 42
44932 8984 2103 66
44933 8984 6076 70
44934 8985 6230 42
44935 8985 7669 74
44936 8985 4557 37
44937 8985 3726 49
44938 8985 2153 99
44939 8985 9416 83
44940 8985 5948 90
44941 8985 6906 97
44942 8985 86 10
44943 8985 9313 5
44944 8985 1203 65
44945 8986 7980 44
44946 8986 1522 72
44947 8986 934 91
44948 8986 2982 15
44949 8986 3202 9
44950 8986 9980 23
44951 8986 7782 90
44952 8987 1408 94
44953 8987 8768 37
44954 8987 6322 78
44955 8987 3196 87
44956 8987 6147 93
44957 8988 9488 42
44958 8988 6919 65
44959 8988 7836 89
44960 8988 7468 45
44961 8989 260 94
44962 8989 7953 35
44963 8989 9269 39
44964 8989 5819 2
44965 8989 1437 21
44966 8989 3617 67
44967 8990 1263 5
44968 8990 1963 68
44969 8990 8631 36
44970 8991 3254 59
44971 8991 1912 27
44972 8991 7793 53
44973 8991 4563 13
44974 8992 1560 53
44975 8992 2848 16
44976 8992 7970 65
44977 8992 3941 70
44978 8993 6555 70
44979 8993 9376 10
44980 8993 5311 39
44981 8993 4347 81
44982 8993 1980 58
44983 8993 2086 34
44984 8993 5088 4
44985 8993 7749 93
44986 8993 6000 90
44987 8994 9210 76
44988 8994 641 53
44989 8994 9685 46
44990 8994 6387 85
44991 8994 5010 49
44992 8994 2121 70
44993 8995 274 61
44994 8995 2460 8
44995 8996 7057 91
44996 8996 1709 18
44997 8996 3374 17
44998 8996 7934 64
44999 8997 374 43
45000 8997 4504 28
45001 8997 1214 86
45002 8997 8418 8
45003 8997 2265 5
45004 8997 7668 78
45005 8997 4540 46
45006 8998 8746 96
45007 8998 4466 16
45008 8998 860 92
45009 8998 9874 78
45010 8998 133 86
45011 8999 8637 84
45012 8999 1366 41
45013 8999 1556 17
45014 9000 7494 21
45015 9000 5334 46
45016 9000 6798 23
45017 9000 5259 49
45018 9000 6805 50
45019 9000 344 92
45020 9000 6577 27
45021 9000 8401 98
45022 9001 8067 32
45023 9001 3486 67
45024 9001 4396 84
45025 9001 1610 51
45026 9001 3751 31
45027 9001 3131 45
45028 9001 9063 47
45029 9002 5438 36
45030 9002 7768 85
45031 9002 501 58
45032 9002 5902 23
45033 9002 3848 18
45034 9003 8123 63
45035 9003 4174 12
45036 9003 8014 93
45037 9003 5776 29
45038 9004 749 43
45039 9004 3889 76
45040 9004 2340 54
45041 9004 71 2
45042 9004 5641 47
45043 9004 6870 74
45044 9004 4636 69
45045 9005 7676 17
45046 9005 8348 92
45047 9005 5870 89
45048 9005 9208 14
45049 9005 2030 50
45050 9006 4980 44
45051 9006 6962 94
45052 9006 4456 40
45053 9006 9674 87
45054 9006 9327 94
45055 9006 5082 95
45056 9007 4503 2
45057 9007 277 18
45058 9007 8612 79
45059 9007 3641 40
45060 9007 7833 37
45061 9007 7130 88
45062 9008 5154 74
45063 9008 7595 20
45064 9008 2949 52
45065 9008 5638 98
45066 9008 6772 68
45067 9008 80 71
45068 9008 1421 44
45069 9009 6745 56
45070 9009 1701 76
45071 9009 9330 4
45072 9010 2786 36
45073 9010 4894 49
45074 9010 4299 59
45075 9010 7905 35
45076 9010 9400 13
45077 9010 3965 61
45078 9010 1967 9
45079 9010 2638 36
45080 9010 343 10
45081 9010 2615 66
45082 9010 197 4
45083 9010 225 49
45084 9011 5756 5
45085 9011 1697 100
45086 9011 74 93
45087 9011 6031 44
45088 9011 5467 31
45089 9011 2786 47
45090 9011 1726 84
45091 9011 1086 23
45092 9011 5621 62
45093 9012 7549 41
45094 9012 5914 75
45095 9013 532 31
45096 9013 2646 49
45097 9013 2199 57
45098 9013 8627 17
45099 9014 4901 35
45100 9014 748 88
45101 9014 8020 4
45102 9014 6319 16
45103 9014 9189 10
45104 9014 4420 27
45105 9014 4510 100
45106 9014 7638 85
45107 9015 3484 93
45108 9015 1643 42
45109 9015 216 53
45110 9015 8827 27
45111 9016 4757 17
45112 9016 5012 86
45113 9016 3404 58
45114 9016 7340 59
45115 9017 5686 52
45116 9017 948 89
45117 9017 9936 51
45118 9017 9245 45
45119 9017 5733 57
45120 9017 1296 43
45121 9017 7682 10
45122 9017 5732 48
45123 9017 2310 5
45124 9018 4839 65
45125 9018 2351 71
45126 9018 5500 38
45127 9018 4351 35
45128 9018 7684 86
45129 9019 8774 23
45130 9019 3535 21
45131 9019 3335 78
45132 9019 9274 55
45133 9019 9681 28
45134 9020 5247 2
45135 9020 6595 2
45136 9020 6264 3
45137 9021 1365 16
45138 9021 6203 9
45139 9021 8964 70
45140 9021 2756 54
45141 9021 5113 36
45142 9021 9921 3
45143 9021 5510 51
45144 9022 6462 23
45145 9022 5677 22
45146 9023 4432 43
45147 9023 9740 55
45148 9023 611 40
45149 9023 8752 19
45150 9024 1903 96
45151 9024 875 33
45152 9024 6049 17
45153 9024 3981 99
45154 9024 6187 27
45155 9024 1673 58
45156 9024 9098 13
45157 9025 6945 52
45158 9025 655 19
45159 9026 6609 63
45160 9026 4168 36
45161 9026 4967 29
45162 9026 678 4
45163 9026 5138 18
45164 9026 582 100
45165 9027 5512 26
45166 9027 9729 55
45167 9027 1749 55
45168 9027 3927 34
45169 9027 5795 96
45170 9027 544 63
45171 9027 8132 64
45172 9027 7300 36
45173 9027 170 29
45174 9027 2730 44
45175 9027 3615 88
45176 9028 9261 41
45177 9028 5932 46
45178 9028 6010 89
45179 9028 4150 1
45180 9028 2277 91
45181 9028 2995 66
45182 9029 3123 1
45183 9029 5181 6
45184 9029 9302 73
45185 9030 4025 17
45186 9030 2939 5
45187 9030 2090 1
45188 9030 3637 40
45189 9030 9791 66
45190 9030 3724 81
45191 9031 410 68
45192 9031 8271 96
45193 9031 1341 11
45194 9031 4725 90
45195 9031 925 78
45196 9031 4474 70
45197 9031 8792 65
45198 9031 5147 28
45199 9031 8935 56
45200 9031 3551 2
45201 9032 1899 20
45202 9032 6651 87
45203 9032 2576 56
45204 9033 4019 67
45205 9033 264 56
45206 9033 96 30
45207 9033 7647 29
45208 9033 316 92
45209 9033 5584 36
45210 9033 7748 41
45211 9034 3069 73
45212 9034 6477 54
45213 9035 9493 99
45214 9035 6788 48
45215 9035 9124 81
45216 9036 5798 43
45217 9036 6760 2
45218 9036 2232 69
45219 9036 1519 80
45220 9036 2925 77
45221 9036 5702 75
45222 9037 3710 88
45223 9037 6567 15
45224 9038 188 89
45225 9038 5052 15
45226 9038 8245 87
45227 9039 2566 9
45228 9039 8008 49
45229 9039 9598 63
45230 9040 3581 53
45231 9040 9836 67
45232 9041 1200 68
45233 9041 3163 57
45234 9041 904 31
45235 9041 9219 8
45236 9041 8640 46
45237 9041 1372 80
45238 9041 477 1
45239 9041 7508 88
45240 9042 6184 95
45241 9042 9127 25
45242 9043 3601 15
45243 9043 7272 31
45244 9043 2422 63
45245 9043 8461 21
45246 9043 4720 86
45247 9043 7503 83
45248 9043 3947 79
45249 9043 6106 56
45250 9043 8955 93
45251 9043 8939 63
45252 9043 6679 66
45253 9044 415 65
45254 9044 6085 70
45255 9044 2927 93
45256 9044 3972 60
45257 9044 2029 31
45258 9044 4566 100
45259 9044 3993 69
45260 9044 4210 99
45261 9045 6796 24
45262 9045 59 48
45263 9045 3986 59
45264 9045 2015 67
45265 9045 1293 29
45266 9045 646 92
45267 9046 7159 1
45268 9046 8344 97
45269 9046 9082 65
45270 9046 3377 57
45271 9046 1361 60
45272 9046 8893 55
45273 9046 7638 50
45274 9046 2649 27
45275 9047 9435 90
45276 9047 7575 22
45277 9047 9121 22
45278 9047 8226 72
45279 9047 2099 37
45280 9047 3805 1
45281 9048 6159 45
45282 9048 6284 4
45283 9049 9760 60
45284 9049 8892 82
45285 9049 8763 80
45286 9049 3012 62
45287 9049 8412 70
45288 9050 5705 31
45289 9050 7469 19
45290 9050 6125 43
45291 9051 9367 57
45292 9051 9332 87
45293 9051 6155 94
45294 9051 7946 59
45295 9051 5492 76
45296 9051 3334 20
45297 9051 5481 55
45298 9052 3569 12
45299 9052 3760 88
45300 9052 4053 97
45301 9052 7847 17
45302 9053 5736 20
45303 9053 3337 72
45304 9053 4091 5
45305 9053 1841 7
45306 9053 3395 27
45307 9053 7751 38
45308 9054 1523 87
45309 9054 1902 78
45310 9054 1342 87
45311 9054 5667 50
45312 9055 3023 100
45313 9055 3133 82
45314 9055 428 9
45315 9055 7317 16
45316 9055 259 33
45317 9055 6619 75
45318 9055 3905 59
45319 9055 3226 44
45320 9055 1201 33
45321 9055 3925 98
45322 9056 289 90
45323 9056 636 57
45324 9056 5529 39
45325 9056 2396 46
45326 9056 3814 71
45327 9056 4410 56
45328 9056 4168 46
45329 9057 8920 26
45330 9057 2335 92
45331 9057 7571 100
45332 9057 3710 31
45333 9058 8498 90
45334 9058 9923 61
45335 9058 3297 74
45336 9058 2158 64
45337 9059 2574 34
45338 9059 6715 25
45339 9059 5643 59
45340 9059 8542 32
45341 9059 80 73
45342 9059 584 36
45343 9059 4678 30
45344 9060 7564 25
45345 9060 7407 38
45346 9060 388 90
45347 9060 9478 43
45348 9061 40 69
45349 9061 97 51
45350 9061 4902 14
45351 9062 2696 38
45352 9062 1534 84
45353 9062 1609 94
45354 9062 7665 33
45355 9062 1622 50
45356 9062 4746 32
45357 9062 838 27
45358 9062 1565 49
45359 9062 5756 49
45360 9063 3332 70
45361 9063 270 38
45362 9063 8448 67
45363 9063 1097 90
45364 9063 4758 14
45365 9063 4430 52
45366 9063 5976 10
45367 9064 1444 90
45368 9064 2335 17
45369 9064 5235 32
45370 9064 9682 79
45371 9064 6359 24
45372 9064 4798 89
45373 9064 555 70
45374 9064 781 54
45375 9065 507 56
45376 9065 347 25
45377 9065 8662 17
45378 9065 8386 13
45379 9065 3143 3
45380 9066 9098 90
45381 9066 2582 40
45382 9066 1809 52
45383 9066 666 63
45384 9066 5801 28
45385 9066 496 13
45386 9066 4558 40
45387 9067 1925 79
45388 9067 5748 9
45389 9067 9428 14
45390 9068 4809 21
45391 9068 6617 80
45392 9068 7998 21
45393 9068 5904 44
45394 9068 8523 34
45395 9068 9394 9
45396 9068 3291 98
45397 9069 104 46
45398 9069 1337 49
45399 9069 8896 23
45400 9070 349 31
45401 9070 1452 89
45402 9070 3787 11
45403 9071 6787 9
45404 9071 1936 20
45405 9071 7843 58
45406 9071 6233 70
45407 9072 834 13
45408 9072 7244 61
45409 9072 7909 49
45410 9073 1622 69
45411 9073 548 81
45412 9073 9467 47
45413 9073 1357 45
45414 9073 2009 81
45415 9073 8686 72
45416 9073 1035 78
45417 9073 7083 96
45418 9073 207 63
45419 9073 7108 16
45420 9073 2645 18
45421 9074 4332 59
45422 9074 1416 8
45423 9074 6722 92
45424 9074 4239 74
45425 9074 5696 87
45426 9075 3438 68
45427 9076 180 98
45428 9076 4450 93
45429 9076 1862 19
45430 9077 4174 12
45431 9077 9555 27
45432 9077 5933 82
45433 9077 5895 1
45434 9077 3956 63
45435 9077 7627 58
45436 9077 7891 77
45437 9077 7607 37
45438 9077 4200 63
45439 9077 476 82
45440 9078 6866 79
45441 9078 4946 10
45442 9078 6844 52
45443 9078 4121 89
45444 9079 699 55
45445 9079 3362 43
45446 9079 8688 79
45447 9080 5017 19
45448 9080 2202 87
45449 9080 185 13
45450 9081 4613 86
45451 9081 7867 42
45452 9081 4963 96
45453 9081 6126 85
45454 9081 1029 39
45455 9081 9813 52
45456 9081 508 81
45457 9081 4766 78
45458 9082 4144 65
45459 9082 112 34
45460 9082 4068 92
45461 9083 4234 33
45462 9083 2070 43
45463 9083 2141 70
45464 9084 4548 6
45465 9084 187 28
45466 9084 1150 93
45467 9084 3282 40
45468 9084 7890 47
45469 9084 2692 88
45470 9084 1719 32
45471 9085 4596 66
45472 9085 1128 90
45473 9085 2807 1
45474 9085 3460 43
45475 9085 4387 20
45476 9085 8870 23
45477 9085 2207 50
45478 9086 70 81
45479 9086 725 80
45480 9086 6327 6
45481 9086 4650 5
45482 9086 718 11
45483 9086 2384 71
45484 9086 9041 52
45485 9086 86 73
45486 9087 9371 99
45487 9087 1166 93
45488 9087 9457 45
45489 9087 4374 56
45490 9088 2230 4
45491 9088 5465 27
45492 9088 8197 99
45493 9088 8040 72
45494 9088 5824 61
45495 9089 9240 94
45496 9089 2754 25
45497 9089 4399 52
45498 9089 92 50
45499 9090 4640 35
45500 9090 8019 13
45501 9090 8027 86
45502 9090 9512 54
45503 9090 4400 66
45504 9090 6638 75
45505 9090 740 89
45506 9090 5542 45
45507 9090 6151 69
45508 9090 1779 78
45509 9091 6412 47
45510 9091 3626 82
45511 9091 6907 16
45512 9091 5906 63
45513 9091 1658 96
45514 9091 3321 99
45515 9091 2609 70
45516 9092 7113 72
45517 9093 6288 87
45518 9093 5883 34
45519 9093 9620 25
45520 9093 6526 100
45521 9093 4503 69
45522 9093 5871 51
45523 9094 8580 7
45524 9094 8796 43
45525 9094 339 76
45526 9094 9449 20
45527 9094 3887 73
45528 9094 6625 10
45529 9094 5685 76
45530 9095 4596 6
45531 9095 5018 4
45532 9096 1327 64
45533 9096 3961 76
45534 9096 7156 52
45535 9096 3994 32
45536 9096 1875 83
45537 9096 2830 97
45538 9097 9926 53
45539 9097 412 7
45540 9097 1646 23
45541 9097 3548 94
45542 9097 8037 12
45543 9098 3383 43
45544 9098 997 30
45545 9098 4047 95
45546 9099 9146 29
45547 9099 1792 76
45548 9099 2155 19
45549 9099 9601 13
45550 9100 5303 51
45551 9100 7459 93
45552 9100 4327 16
45553 9100 8744 85
45554 9101 8373 44
45555 9101 8212 5
45556 9101 7006 51
45557 9102 7532 35
45558 9102 2882 23
45559 9102 3286 87
45560 9102 4215 5
45561 9102 98 54
45562 9102 9833 100
45563 9102 2506 33
45564 9103 609 45
45565 9103 8312 47
45566 9103 1271 15
45567 9103 145 83
45568 9103 6039 86
45569 9103 4327 99
45570 9103 8359 11
45571 9104 1498 72
45572 9104 1731 69
45573 9104 9382 52
45574 9104 3158 18
45575 9104 496 15
45576 9104 6265 72
45577 9104 4147 2
45578 9105 3577 64
45579 9105 4415 90
45580 9105 7361 70
45581 9105 7509 1
45582 9105 100 53
45583 9105 5769 76
45584 9106 7087 50
45585 9106 8206 90
45586 9106 5166 1
45587 9106 1215 97
45588 9107 7743 100
45589 9107 7331 24
45590 9107 7306 33
45591 9107 7469 31
45592 9108 9832 96
45593 9108 8656 64
45594 9109 5229 23
45595 9109 8539 11
45596 9109 3384 65
45597 9109 334 64
45598 9109 3623 61
45599 9110 4721 56
45600 9110 2625 95
45601 9110 8494 27
45602 9110 1325 9
45603 9110 9222 47
45604 9111 6535 59
45605 9111 8357 58
45606 9111 1387 3
45607 9111 6863 22
45608 9111 4110 99
45609 9112 2877 92
45610 9112 525 53
45611 9112 3103 10
45612 9112 888 84
45613 9113 9106 18
45614 9113 7477 60
45615 9113 8584 80
45616 9113 918 77
45617 9113 1082 1
45618 9113 2408 44
45619 9113 5614 66
45620 9113 7117 37
45621 9114 1231 4
45622 9114 5618 83
45623 9114 5375 58
45624 9115 9880 55
45625 9115 5827 83
45626 9115 9283 50
45627 9115 9280 77
45628 9115 5659 59
45629 9116 4993 57
45630 9116 1469 83
45631 9116 5039 22
45632 9117 2854 32
45633 9117 1942 5
45634 9117 5525 79
45635 9117 8876 60
45636 9117 3837 31
45637 9117 2364 28
45638 9117 9568 5
45639 9117 8793 15
45640 9118 4098 98
45641 9118 1335 31
45642 9118 7138 37
45643 9118 8908 31
45644 9118 8953 34
45645 9118 418 29
45646 9118 3909 97
45647 9118 5263 65
45648 9119 8685 20
45649 9119 9556 91
45650 9119 1858 35
45651 9119 4846 17
45652 9119 6765 57
45653 9119 6647 47
45654 9120 8228 74
45655 9120 3069 18
45656 9120 516 38
45657 9120 6396 46
45658 9120 6736 65
45659 9120 2715 82
45660 9120 8004 55
45661 9121 3530 99
45662 9121 5225 37
45663 9121 3778 68
45664 9122 4182 16
45665 9123 43 94
45666 9123 307 18
45667 9123 320 43
45668 9124 9564 55
45669 9124 2835 25
45670 9124 4089 68
45671 9124 6764 69
45672 9124 1377 27
45673 9124 5285 79
45674 9124 5786 83
45675 9125 8303 54
45676 9125 7919 67
45677 9125 229 43
45678 9125 3899 75
45679 9125 6557 24
45680 9125 6454 55
45681 9125 2315 14
45682 9126 79 65
45683 9126 7136 59
45684 9126 5340 43
45685 9126 5943 3
45686 9126 6753 32
45687 9126 5275 62
45688 9127 8151 12
45689 9127 7737 22
45690 9127 4696 20
45691 9127 2986 51
45692 9127 4272 27
45693 9127 8162 66
45694 9128 4084 24
45695 9128 295 9
45696 9128 2393 9
45697 9128 486 66
45698 9128 8904 60
45699 9128 7621 66
45700 9129 8498 43
45701 9129 7742 52
45702 9129 3519 34
45703 9129 2099 44
45704 9130 7165 41
45705 9130 5258 4
45706 9130 9442 22
45707 9130 3124 65
45708 9130 7892 12
45709 9130 5628 19
45710 9131 6907 9
45711 9131 3184 89
45712 9131 3882 34
45713 9131 384 33
45714 9131 3938 97
45715 9131 2964 27
45716 9131 8063 67
45717 9132 2843 60
45718 9132 3820 57
45719 9132 976 88
45720 9132 5607 62
45721 9132 2984 77
45722 9132 8266 6
45723 9133 5509 84
45724 9133 632 43
45725 9133 8005 54
45726 9133 7434 65
45727 9133 2497 80
45728 9133 9832 94
45729 9134 7257 45
45730 9134 3696 38
45731 9134 2923 56
45732 9134 5483 12
45733 9134 6666 20
45734 9134 2348 89
45735 9134 1828 89
45736 9134 4207 31
45737 9135 3376 54
45738 9135 4899 4
45739 9136 1122 96
45740 9136 3220 41
45741 9136 9588 33
45742 9136 7424 17
45743 9137 1260 41
45744 9137 7513 61
45745 9137 3956 37
45746 9137 440 80
45747 9137 5667 4
45748 9137 2423 18
45749 9138 65 90
45750 9138 7063 63
45751 9138 8740 96
45752 9139 5138 48
45753 9139 2240 34
45754 9139 5295 80
45755 9140 9740 44
45756 9140 9863 66
45757 9140 7977 6
45758 9141 7104 31
45759 9141 590 35
45760 9141 289 17
45761 9142 6547 80
45762 9142 3454 24
45763 9142 1387 27
45764 9142 4238 36
45765 9142 9432 41
45766 9143 4309 35
45767 9143 8628 99
45768 9143 5692 55
45769 9143 2178 88
45770 9143 4582 36
45771 9143 703 20
45772 9143 7817 5
45773 9144 8340 87
45774 9144 336 10
45775 9144 1157 26
45776 9144 1287 95
45777 9144 6727 5
45778 9144 465 93
45779 9144 1310 90
45780 9144 4896 80
45781 9145 6111 11
45782 9145 3147 3
45783 9145 8257 37
45784 9146 9582 76
45785 9146 6579 37
45786 9146 6778 97
45787 9146 5096 2
45788 9146 241 67
45789 9146 9404 84
45790 9146 4727 40
45791 9147 5126 2
45792 9147 23 44
45793 9147 4776 70
45794 9148 8323 93
45795 9148 2489 72
45796 9148 4622 90
45797 9148 986 12
45798 9148 2151 45
45799 9148 444 80
45800 9148 324 88
45801 9149 1471 51
45802 9149 477 77
45803 9149 234 54
45804 9149 5848 68
45805 9149 6498 3
45806 9149 3303 95
45807 9150 6467 41
45808 9150 8843 98
45809 9150 2398 77
45810 9151 1621 23
45811 9151 1040 70
45812 9151 7979 2
45813 9151 6402 30
45814 9151 1385 20
45815 9152 2170 99
45816 9152 4585 56
45817 9152 9542 34
45818 9152 7180 77
45819 9152 8368 22
45820 9152 7995 100
45821 9153 3379 14
45822 9153 9750 52
45823 9153 5122 1
45824 9153 5365 16
45825 9153 6045 56
45826 9153 387 55
45827 9153 2046 99
45828 9153 8788 93
45829 9154 96 45
45830 9154 8265 79
45831 9154 4521 35
45832 9155 9617 65
45833 9155 7631 11
45834 9156 5636 37
45835 9156 5526 32
45836 9156 9224 10
45837 9156 9103 43
45838 9156 4896 29
45839 9156 9181 38
45840 9157 7323 100
45841 9157 9929 3
45842 9157 2697 61
45843 9157 3332 38
45844 9157 7701 84
45845 9157 3839 64
45846 9158 4023 84
45847 9158 3960 87
45848 9158 3898 7
45849 9158 7491 45
45850 9158 1520 60
45851 9158 4158 25
45852 9159 9384 29
45853 9159 868 17
45854 9159 9929 39
45855 9159 970 79
45856 9159 735 81
45857 9160 2744 12
45858 9160 7435 91
45859 9161 5226 51
45860 9161 6730 67
45861 9161 1253 8
45862 9161 7881 79
45863 9161 5761 84
45864 9161 4209 13
45865 9162 6081 38
45866 9162 8681 43
45867 9162 429 94
45868 9162 8895 42
45869 9162 2913 42
45870 9163 1660 61
45871 9163 1166 78
45872 9163 8552 66
45873 9163 1827 82
45874 9163 4100 74
45875 9164 6477 74
45876 9165 8885 3
45877 9165 6774 41
45878 9166 8363 12
45879 9166 8771 25
45880 9166 9344 61
45881 9166 6914 30
45882 9166 1621 5
45883 9166 6275 75
45884 9166 9483 50
45885 9167 9295 21
45886 9167 9397 53
45887 9167 9345 46
45888 9167 1829 28
45889 9167 1904 95
45890 9167 8140 23
45891 9167 9610 92
45892 9168 1148 26
45893 9168 4979 27
45894 9168 4778 76
45895 9168 424 48
45896 9168 8845 82
45897 9168 1115 46
45898 9169 4022 77
45899 9169 1334 31
45900 9169 1058 5
45901 9169 2276 14
45902 9169 4611 12
45903 9170 7505 30
45904 9170 5915 75
45905 9170 721 63
45906 9170 1710 99
45907 9170 5525 24
45908 9170 6878 35
45909 9171 8815 12
45910 9171 1663 68
45911 9171 7426 87
45912 9171 8412 91
45913 9172 4973 20
45914 9172 1405 85
45915 9172 4903 58
45916 9173 5698 16
45917 9173 3123 44
45918 9173 6508 92
45919 9173 1533 31
45920 9173 7085 9
45921 9173 4299 52
45922 9173 6989 79
45923 9173 8430 87
45924 9173 2448 2
45925 9174 6054 72
45926 9174 6762 9
45927 9174 6017 66
45928 9174 2924 25
45929 9175 7259 41
45930 9175 4533 77
45931 9175 3854 98
45932 9175 2755 49
45933 9176 9458 48
45934 9176 1680 46
45935 9176 5930 66
45936 9176 7489 15
45937 9176 3574 60
45938 9177 8634 94
45939 9177 2732 9
45940 9177 1209 59
45941 9177 7133 38
45942 9177 7237 36
45943 9177 8656 45
45944 9178 7144 38
45945 9179 1962 52
45946 9179 9131 24
45947 9179 7283 87
45948 9179 8440 17
45949 9179 9006 14
45950 9179 5216 13
45951 9180 8426 8
45952 9180 6076 45
45953 9180 9270 69
45954 9181 9899 93
45955 9181 7948 56
45956 9181 683 32
45957 9182 8867 89
45958 9182 9969 2
45959 9182 4572 32
45960 9182 8375 68
45961 9182 6906 43
45962 9182 2783 27
45963 9182 6507 33
45964 9183 4542 8
45965 9183 4118 75
45966 9183 240 26
45967 9184 1872 49
45968 9184 8143 30
45969 9184 7340 1
45970 9184 4684 57
45971 9184 6002 38
45972 9184 4373 38
45973 9184 9525 95
45974 9184 4255 28
45975 9185 2193 96
45976 9185 6952 98
45977 9186 7074 43
45978 9186 297 98
45979 9187 5438 41
45980 9187 1693 45
45981 9187 914 51
45982 9187 8513 41
45983 9188 7284 98
45984 9188 2258 87
45985 9188 3507 9
45986 9189 3007 32
45987 9189 4617 36
45988 9189 9328 6
45989 9190 1812 71
45990 9191 2874 16
45991 9191 1559 2
45992 9192 8399 55
45993 9192 9206 78
45994 9192 719 29
45995 9192 9092 65
45996 9192 2414 59
45997 9193 3867 50
45998 9193 1081 40
45999 9193 5724 84
46000 9193 5057 40
46001 9194 2898 39
46002 9194 2493 12
46003 9194 2644 62
46004 9194 4167 73
46005 9194 6229 35
46006 9195 624 96
46007 9196 855 10
46008 9196 3335 13
46009 9196 7725 97
46010 9197 5896 71
46011 9197 1975 26
46012 9197 1669 76
46013 9197 3531 17
46014 9197 9413 50
46015 9197 5587 95
46016 9197 7716 70
46017 9198 3658 59
46018 9198 6658 11
46019 9198 432 24
46020 9198 8337 25
46021 9198 6738 14
46022 9198 2784 30
46023 9198 6665 52
46024 9199 7504 40
46025 9199 4939 86
46026 9199 2054 46
46027 9199 4793 28
46028 9200 4052 38
46029 9200 5390 49
46030 9200 7527 91
46031 9200 233 54
46032 9200 850 56
46033 9200 1567 23
46034 9200 9546 47
46035 9200 280 31
46036 9201 2620 80
46037 9201 4619 35
46038 9201 2344 7
46039 9202 4892 96
46040 9202 1600 45
46041 9202 8852 42
46042 9202 2149 32
46043 9202 3577 17
46044 9202 7652 18
46045 9202 4298 27
46046 9203 8921 27
46047 9203 2747 50
46048 9203 8129 82
46049 9203 644 88
46050 9204 7915 43
46051 9204 2307 98
46052 9204 6003 86
46053 9205 4611 43
46054 9205 3653 34
46055 9205 8912 59
46056 9205 4452 64
46057 9206 5521 15
46058 9206 8986 14
46059 9206 9822 76
46060 9206 7703 17
46061 9206 2493 77
46062 9206 5715 8
46063 9206 7466 22
46064 9206 1191 20
46065 9206 5182 19
46066 9207 2975 61
46067 9207 9690 34
46068 9207 1470 4
46069 9207 7122 76
46070 9207 2491 22
46071 9207 7129 50
46072 9208 6076 85
46073 9208 3182 97
46074 9208 7653 53
46075 9208 6357 28
46076 9209 205 31
46077 9209 9510 66
46078 9209 9367 41
46079 9209 3915 62
46080 9209 574 19
46081 9209 6973 26
46082 9209 8219 67
46083 9209 3591 77
46084 9210 1112 90
46085 9210 6263 35
46086 9210 1366 48
46087 9210 5384 70
46088 9210 6898 5
46089 9210 6010 20
46090 9210 66 57
46091 9211 1015 35
46092 9211 1241 49
46093 9211 5285 40
46094 9211 9124 7
46095 9211 8665 5
46096 9212 8837 22
46097 9212 4359 44
46098 9212 8114 16
46099 9212 6400 38
46100 9212 190 52
46101 9212 7394 93
46102 9212 7361 27
46103 9212 9576 5
46104 9213 1209 9
46105 9213 7947 82
46106 9213 8360 70
46107 9213 6807 3
46108 9213 5195 34
46109 9213 7472 37
46110 9213 2948 49
46111 9213 9228 76
46112 9213 7884 57
46113 9213 7233 11
46114 9213 3864 70
46115 9214 6184 27
46116 9215 6034 32
46117 9215 8702 97
46118 9215 9825 18
46119 9215 8716 59
46120 9215 9460 28
46121 9216 1229 66
46122 9216 6212 4
46123 9216 304 63
46124 9216 6631 94
46125 9216 7442 57
46126 9217 530 25
46127 9217 8908 95
46128 9217 6240 81
46129 9217 6567 89
46130 9217 5266 63
46131 9218 9843 74
46132 9219 6786 58
46133 9219 3448 64
46134 9219 2110 75
46135 9219 3605 92
46136 9219 6163 42
46137 9219 854 89
46138 9219 8838 42
46139 9219 1559 2
46140 9220 7336 78
46141 9220 8272 88
46142 9220 7175 30
46143 9220 3188 63
46144 9220 8074 67
46145 9221 7941 23
46146 9221 5784 88
46147 9221 1221 1
46148 9221 2640 46
46149 9221 6374 43
46150 9221 3792 90
46151 9222 8040 15
46152 9222 2024 45
46153 9222 8812 24
46154 9222 7345 30
46155 9222 1886 10
46156 9222 2771 57
46157 9223 6536 54
46158 9223 6112 98
46159 9223 2747 2
46160 9223 2878 17
46161 9223 9163 1
46162 9223 3338 96
46163 9223 7913 48
46164 9223 5237 8
46165 9224 3426 27
46166 9224 4789 21
46167 9224 6259 57
46168 9224 2960 84
46169 9224 1046 28
46170 9224 2135 75
46171 9224 1771 37
46172 9224 7669 11
46173 9225 6087 60
46174 9225 5267 19
46175 9225 6234 38
46176 9226 6746 77
46177 9226 1332 60
46178 9226 2825 57
46179 9226 6663 48
46180 9226 5009 61
46181 9227 8935 15
46182 9227 9020 56
46183 9227 4637 99
46184 9227 2717 19
46185 9227 368 63
46186 9227 5091 94
46187 9227 8691 8
46188 9227 5526 16
46189 9228 9573 33
46190 9228 8890 16
46191 9228 3347 94
46192 9228 525 30
46193 9229 7177 25
46194 9229 6742 70
46195 9229 7209 99
46196 9229 778 43
46197 9229 6452 52
46198 9229 8702 37
46199 9230 3034 57
46200 9230 5098 60
46201 9230 2019 93
46202 9230 3604 11
46203 9231 7910 5
46204 9231 4643 55
46205 9231 9428 60
46206 9231 3714 53
46207 9231 9122 67
46208 9231 9255 97
46209 9232 6071 65
46210 9232 1122 12
46211 9233 8067 29
46212 9233 9091 42
46213 9233 5856 63
46214 9233 5268 3
46215 9234 3923 20
46216 9234 512 92
46217 9234 8907 26
46218 9234 4679 17
46219 9234 6104 31
46220 9234 6411 16
46221 9234 8836 25
46222 9234 6773 62
46223 9234 6647 79
46224 9235 270 39
46225 9235 7777 93
46226 9235 374 40
46227 9235 2280 5
46228 9235 8382 90
46229 9235 4571 71
46230 9236 6969 95
46231 9236 976 80
46232 9237 1141 41
46233 9237 5948 15
46234 9237 6263 70
46235 9238 1222 64
46236 9238 8268 66
46237 9238 5136 47
46238 9238 7823 30
46239 9239 1149 50
46240 9239 8043 78
46241 9239 8087 24
46242 9239 5773 55
46243 9239 8620 4
46244 9240 5287 14
46245 9240 49 73
46246 9240 1840 59
46247 9240 5569 24
46248 9240 9130 20
46249 9240 4309 51
46250 9240 8832 73
46251 9240 1361 27
46252 9240 92 95
46253 9241 4053 20
46254 9241 1506 75
46255 9241 242 2
46256 9241 9448 83
46257 9241 8562 19
46258 9241 8353 36
46259 9241 5349 31
46260 9241 293 22
46261 9242 1555 54
46262 9242 1808 95
46263 9242 2318 4
46264 9242 7466 45
46265 9242 137 56
46266 9242 8009 52
46267 9242 2370 65
46268 9243 8551 6
46269 9243 5756 38
46270 9243 8078 14
46271 9243 3633 21
46272 9243 4384 17
46273 9243 4536 40
46274 9243 2191 18
46275 9243 2486 4
46276 9243 9216 31
46277 9243 7541 44
46278 9244 6915 21
46279 9244 1191 75
46280 9244 6109 41
46281 9244 281 1
46282 9244 6181 91
46283 9244 3327 26
46284 9245 5615 24
46285 9245 4040 18
46286 9245 6306 39
46287 9245 3083 31
46288 9245 2495 96
46289 9246 1191 72
46290 9246 7300 54
46291 9246 9071 83
46292 9247 1549 53
46293 9247 2198 28
46294 9247 645 3
46295 9248 7773 11
46296 9248 8336 27
46297 9248 8569 82
46298 9248 2159 52
46299 9248 2440 77
46300 9249 8325 38
46301 9249 5389 64
46302 9250 7504 49
46303 9250 2740 67
46304 9250 8677 67
46305 9250 7691 33
46306 9250 9472 32
46307 9250 9772 52
46308 9250 4952 13
46309 9250 7694 23
46310 9250 5837 13
46311 9251 8734 89
46312 9251 4396 26
46313 9251 6411 26
46314 9251 3446 72
46315 9252 7379 6
46316 9252 6074 27
46317 9252 461 49
46318 9252 8603 88
46319 9252 9662 54
46320 9252 3460 94
46321 9252 9614 88
46322 9252 6526 32
46323 9252 3315 99
46324 9252 4253 66
46325 9253 6953 87
46326 9253 7196 6
46327 9253 8787 74
46328 9253 9001 61
46329 9253 3710 90
46330 9254 4922 67
46331 9254 1054 50
46332 9254 8641 77
46333 9254 2473 27
46334 9254 7419 97
46335 9254 1478 67
46336 9255 8156 62
46337 9255 4954 97
46338 9255 8741 90
46339 9255 3048 99
46340 9255 6836 68
46341 9255 3666 90
46342 9255 2429 42
46343 9255 6634 80
46344 9256 5600 20
46345 9256 6914 96
46346 9256 9119 100
46347 9257 9745 92
46348 9257 9986 21
46349 9257 6741 66
46350 9257 5940 92
46351 9257 2506 75
46352 9258 9591 53
46353 9258 6747 65
46354 9258 3266 39
46355 9258 6817 15
46356 9259 1795 84
46357 9259 7751 89
46358 9259 3893 51
46359 9259 8801 71
46360 9260 4655 65
46361 9260 6476 9
46362 9260 6201 30
46363 9260 292 17
46364 9261 346 5
46365 9261 5784 26
46366 9261 2574 8
46367 9261 6588 40
46368 9261 8637 76
46369 9261 6016 51
46370 9261 3183 77
46371 9262 2306 44
46372 9262 758 7
46373 9262 5571 57
46374 9262 9834 1
46375 9262 8163 90
46376 9262 1212 57
46377 9263 435 61
46378 9263 5797 83
46379 9264 2029 15
46380 9264 443 37
46381 9264 9546 85
46382 9264 6804 32
46383 9264 3871 19
46384 9265 1138 4
46385 9265 7319 51
46386 9265 1691 50
46387 9266 7717 11
46388 9266 5261 76
46389 9266 5025 72
46390 9267 3259 4
46391 9267 2390 49
46392 9268 740 6
46393 9268 7702 23
46394 9268 6788 21
46395 9268 9090 47
46396 9269 7029 29
46397 9269 3315 78
46398 9269 770 88
46399 9269 3859 8
46400 9269 5246 47
46401 9269 6430 5
46402 9269 9452 1
46403 9269 4870 36
46404 9269 4324 96
46405 9269 6063 42
46406 9270 7578 71
46407 9270 4390 65
46408 9270 8636 49
46409 9271 6135 40
46410 9271 9674 78
46411 9271 8678 94
46412 9271 4034 10
46413 9271 8653 68
46414 9272 8239 2
46415 9272 8063 17
46416 9272 4910 52
46417 9272 3509 61
46418 9273 6473 25
46419 9273 5859 82
46420 9273 9980 36
46421 9273 8043 20
46422 9273 166 35
46423 9273 1316 87
46424 9274 8609 22
46425 9274 689 48
46426 9274 2024 5
46427 9274 964 91
46428 9274 5157 83
46429 9275 1223 15
46430 9275 6047 58
46431 9276 6744 56
46432 9276 5538 32
46433 9276 3999 31
46434 9276 5012 95
46435 9276 219 43
46436 9277 4725 90
46437 9277 2292 97
46438 9277 1313 2
46439 9278 3505 36
46440 9278 6217 42
46441 9278 1688 48
46442 9278 4110 9
46443 9279 8899 82
46444 9279 6946 72
46445 9279 2017 62
46446 9279 5156 3
46447 9280 7464 78
46448 9280 5060 3
46449 9280 1010 27
46450 9280 5907 87
46451 9280 930 3
46452 9280 712 8
46453 9281 3204 14
46454 9281 2422 36
46455 9281 6688 64
46456 9281 9993 23
46457 9281 2432 26
46458 9281 3872 66
46459 9282 680 55
46460 9282 7662 24
46461 9282 8323 30
46462 9282 8502 77
46463 9283 8322 17
46464 9283 2110 72
46465 9283 7239 44
46466 9284 8576 79
46467 9284 1358 77
46468 9284 3718 94
46469 9284 4632 9
46470 9284 7718 91
46471 9284 5688 50
46472 9284 4677 52
46473 9284 5134 36
46474 9284 1940 38
46475 9284 9185 37
46476 9285 2502 31
46477 9285 8000 21
46478 9285 9947 6
46479 9286 6541 25
46480 9286 5922 81
46481 9286 5676 92
46482 9286 1272 56
46483 9287 16 76
46484 9287 5285 33
46485 9287 8930 47
46486 9287 6654 76
46487 9288 9625 9
46488 9288 2576 45
46489 9288 9851 26
46490 9288 596 74
46491 9288 5397 92
46492 9288 8985 82
46493 9288 5185 2
46494 9289 9563 72
46495 9289 4751 22
46496 9289 2628 61
46497 9289 6414 30
46498 9289 3156 96
46499 9290 4806 38
46500 9290 4539 52
46501 9290 3467 63
46502 9290 1806 58
46503 9290 3410 14
46504 9290 1210 36
46505 9291 3505 78
46506 9291 6013 8
46507 9291 9697 98
46508 9291 9902 12
46509 9291 4502 31
46510 9291 977 80
46511 9292 5544 50
46512 9292 9356 1
46513 9292 157 28
46514 9293 6525 91
46515 9293 7714 55
46516 9293 5727 96
46517 9293 1610 72
46518 9293 7712 49
46519 9293 9138 50
46520 9293 2822 86
46521 9293 3016 79
46522 9294 4267 19
46523 9294 2641 80
46524 9294 4600 81
46525 9294 9470 82
46526 9294 4629 99
46527 9294 6554 92
46528 9294 2334 58
46529 9294 5442 49
46530 9295 8047 3
46531 9295 7715 92
46532 9295 491 65
46533 9295 6492 60
46534 9295 934 52
46535 9296 6432 71
46536 9296 2999 86
46537 9296 6483 24
46538 9296 4512 19
46539 9296 4756 76
46540 9296 6167 84
46541 9296 6720 25
46542 9297 6735 93
46543 9297 1258 64
46544 9297 4974 89
46545 9297 3312 78
46546 9298 9525 51
46547 9298 3341 92
46548 9298 4251 44
46549 9298 8553 10
46550 9298 2132 32
46551 9298 9951 16
46552 9298 3277 8
46553 9299 1061 33
46554 9299 8944 18
46555 9299 5779 7
46556 9299 8782 96
46557 9299 79 55
46558 9299 5822 17
46559 9299 7733 36
46560 9299 34 59
46561 9300 6881 71
46562 9300 8092 58
46563 9300 6526 68
46564 9300 3360 88
46565 9300 6727 44
46566 9300 3514 81
46567 9300 5593 36
46568 9300 8549 12
46569 9300 8807 88
46570 9301 8910 54
46571 9301 4178 82
46572 9302 5635 15
46573 9302 7709 92
46574 9303 7360 82
46575 9303 9305 24
46576 9303 2076 23
46577 9303 5776 91
46578 9303 6903 9
46579 9303 259 16
46580 9303 7022 60
46581 9303 8786 72
46582 9303 9159 59
46583 9304 2005 84
46584 9304 9955 65
46585 9305 5889 75
46586 9305 630 53
46587 9305 7823 35
46588 9305 5468 33
46589 9306 7290 1
46590 9307 8033 7
46591 9307 741 29
46592 9308 9785 34
46593 9308 9865 19
46594 9308 6679 43
46595 9308 8744 35
46596 9308 6052 6
46597 9309 2215 85
46598 9309 8221 43
46599 9309 9387 17
46600 9309 4788 59
46601 9310 149 69
46602 9310 7106 51
46603 9310 3505 38
46604 9310 5941 91
46605 9310 2130 58
46606 9310 2366 76
46607 9311 2233 69
46608 9311 1551 35
46609 9311 7062 9
46610 9311 7904 42
46611 9311 1214 62
46612 9311 80 12
46613 9311 6183 99
46614 9311 8760 8
46615 9311 3143 8
46616 9311 5878 83
46617 9312 614 59
46618 9312 1293 29
46619 9312 1584 43
46620 9312 4249 31
46621 9312 3070 46
46622 9312 6550 18
46623 9312 3571 58
46624 9312 655 67
46625 9312 8730 34
46626 9313 9666 91
46627 9313 4522 11
46628 9314 1991 25
46629 9314 2648 66
46630 9314 125 100
46631 9315 7310 91
46632 9315 3126 97
46633 9315 976 97
46634 9315 5413 71
46635 9315 4302 21
46636 9315 3231 9
46637 9315 4128 30
46638 9316 6756 63
46639 9317 7392 41
46640 9317 501 58
46641 9317 6149 71
46642 9317 1402 86
46643 9318 3770 34
46644 9318 7429 96
46645 9318 5770 93
46646 9318 8192 83
46647 9318 4455 25
46648 9320 2101 40
46649 9320 3030 52
46650 9320 4856 3
46651 9320 8993 19
46652 9320 5789 83
46653 9320 9623 5
46654 9320 8635 50
46655 9320 7517 20
46656 9321 5792 8
46657 9321 2685 98
46658 9321 6281 41
46659 9321 2932 80
46660 9321 7113 53
46661 9321 3968 26
46662 9322 3707 52
46663 9322 9392 88
46664 9322 9981 27
46665 9322 976 44
46666 9323 5612 76
46667 9323 2920 1
46668 9323 219 99
46669 9324 8624 53
46670 9324 7110 99
46671 9324 9165 64
46672 9324 9181 50
46673 9325 3901 90
46674 9325 4889 51
46675 9325 186 55
46676 9325 8784 67
46677 9326 3000 6
46678 9326 6793 24
46679 9327 5849 88
46680 9327 5837 77
46681 9327 9929 66
46682 9327 4358 16
46683 9328 3547 19
46684 9328 8403 41
46685 9328 2029 15
46686 9328 241 77
46687 9328 6228 44
46688 9328 159 13
46689 9329 2950 67
46690 9329 381 38
46691 9329 6033 25
46692 9329 5128 34
46693 9329 4254 25
46694 9329 1644 59
46695 9331 9759 15
46696 9331 3601 85
46697 9331 8942 64
46698 9331 4979 49
46699 9331 8039 55
46700 9332 9461 47
46701 9332 3916 18
46702 9332 9452 81
46703 9332 3923 1
46704 9332 1792 100
46705 9332 7709 18
46706 9333 8148 88
46707 9333 2662 32
46708 9333 2798 45
46709 9333 8819 12
46710 9333 1430 38
46711 9333 2269 100
46712 9333 8458 40
46713 9334 7034 82
46714 9334 6694 78
46715 9334 2449 16
46716 9334 6584 7
46717 9334 5286 77
46718 9334 1021 63
46719 9334 8427 31
46720 9335 4520 12
46721 9335 8809 8
46722 9335 8780 100
46723 9335 4717 1
46724 9336 4398 82
46725 9336 3534 58
46726 9336 5798 81
46727 9336 4496 53
46728 9337 2318 13
46729 9337 4560 80
46730 9337 7179 7
46731 9337 8992 41
46732 9338 9798 5
46733 9338 8875 25
46734 9338 8073 20
46735 9338 6748 51
46736 9338 4638 69
46737 9338 8937 83
46738 9338 8240 92
46739 9339 3637 55
46740 9339 6245 89
46741 9339 61 98
46742 9339 9201 8
46743 9339 6420 24
46744 9340 769 48
46745 9340 6443 11
46746 9340 4405 19
46747 9340 8517 52
46748 9340 6770 2
46749 9340 391 6
46750 9341 6280 58
46751 9341 839 80
46752 9342 6701 46
46753 9342 2833 93
46754 9342 5698 24
46755 9342 6761 29
46756 9342 8421 64
46757 9342 1471 13
46758 9342 4085 44
46759 9343 4212 97
46760 9343 7580 89
46761 9343 7502 35
46762 9343 70 99
46763 9343 9300 75
46764 9343 6859 41
46765 9344 3359 18
46766 9345 6963 67
46767 9345 4202 15
46768 9345 9944 36
46769 9345 455 89
46770 9345 1416 6
46771 9346 2905 26
46772 9346 874 44
46773 9347 4355 41
46774 9347 1175 17
46775 9347 2722 59
46776 9348 3204 86
46777 9349 4979 92
46778 9349 7247 41
46779 9349 2485 13
46780 9349 8118 44
46781 9350 8744 94
46782 9350 1724 36
46783 9350 6216 14
46784 9350 2255 12
46785 9350 9568 80
46786 9350 7984 66
46787 9350 1005 24
46788 9350 8376 52
46789 9350 2484 3
46790 9350 8152 85
46791 9351 4527 47
46792 9351 6501 52
46793 9352 7943 68
46794 9353 2458 85
46795 9353 5850 97
46796 9353 1761 60
46797 9353 5389 61
46798 9353 6388 15
46799 9353 9333 64
46800 9353 4516 37
46801 9354 4116 37
46802 9354 5397 63
46803 9354 2929 3
46804 9354 117 62
46805 9355 369 61
46806 9355 4853 14
46807 9355 2704 16
46808 9356 8203 10
46809 9356 7163 45
46810 9356 4125 70
46811 9356 4628 91
46812 9357 2807 81
46813 9357 1847 64
46814 9357 5015 20
46815 9357 7822 64
46816 9358 3297 62
46817 9358 6425 100
46818 9358 1244 53
46819 9358 4012 95
46820 9358 2775 97
46821 9358 3535 83
46822 9358 6554 77
46823 9359 7725 84
46824 9359 1772 69
46825 9359 6003 64
46826 9359 9443 11
46827 9360 5315 44
46828 9360 5523 90
46829 9360 9163 33
46830 9360 4330 54
46831 9360 5822 70
46832 9360 4962 91
46833 9360 8365 13
46834 9361 3072 71
46835 9361 9545 94
46836 9361 4807 71
46837 9362 5589 4
46838 9363 1302 27
46839 9363 7095 50
46840 9363 9576 69
46841 9363 9127 53
46842 9363 5628 5
46843 9363 1434 81
46844 9363 2958 42
46845 9364 6858 73
46846 9364 1031 91
46847 9364 9878 62
46848 9364 7354 59
46849 9365 8102 23
46850 9365 9620 97
46851 9365 6731 52
46852 9365 3161 59
46853 9365 8198 27
46854 9365 788 49
46855 9365 9535 28
46856 9365 107 95
46857 9365 62 17
46858 9366 7840 25
46859 9366 3696 95
46860 9366 5747 20
46861 9366 2910 39
46862 9366 6673 96
46863 9367 6569 5
46864 9367 3074 30
46865 9367 3539 38
46866 9367 9486 84
46867 9368 9119 12
46868 9368 944 24
46869 9368 9495 78
46870 9368 6438 5
46871 9368 4707 31
46872 9368 5695 76
46873 9369 2670 49
46874 9369 9232 50
46875 9369 3885 81
46876 9369 2296 81
46877 9369 6553 26
46878 9369 9258 80
46879 9369 3424 24
46880 9370 8789 64
46881 9370 8009 26
46882 9370 420 23
46883 9371 36 30
46884 9371 8021 92
46885 9371 1280 56
46886 9371 107 21
46887 9371 44 39
46888 9371 7479 33
46889 9372 2533 47
46890 9372 2426 82
46891 9372 3987 91
46892 9372 1235 48
46893 9372 7494 54
46894 9372 610 11
46895 9372 1998 19
46896 9373 5929 32
46897 9373 350 65
46898 9374 3193 20
46899 9374 2652 75
46900 9374 1673 10
46901 9374 9506 68
46902 9374 3048 53
46903 9374 2769 54
46904 9374 5103 16
46905 9374 3995 77
46906 9375 9736 3
46907 9375 2723 56
46908 9375 2374 75
46909 9376 3100 72
46910 9376 1979 92
46911 9376 2733 97
46912 9376 3606 80
46913 9376 7770 68
46914 9376 7638 93
46915 9376 7 28
46916 9376 1245 43
46917 9377 7907 94
46918 9377 3174 82
46919 9378 6700 45
46920 9378 1784 3
46921 9378 3547 10
46922 9378 3909 98
46923 9378 9206 43
46924 9378 9354 90
46925 9378 5500 22
46926 9379 6592 10
46927 9379 2705 34
46928 9379 184 38
46929 9379 9044 13
46930 9379 9612 89
46931 9380 5949 82
46932 9380 5975 94
46933 9380 1360 34
46934 9380 9515 10
46935 9380 374 59
46936 9380 6926 46
46937 9381 394 7
46938 9381 6624 41
46939 9381 6449 57
46940 9381 301 54
46941 9382 9423 32
46942 9382 1234 9
46943 9382 1631 92
46944 9383 2479 34
46945 9383 4600 37
46946 9383 890 62
46947 9383 6539 20
46948 9383 7822 33
46949 9383 7703 16
46950 9384 2531 16
46951 9384 8427 88
46952 9384 3243 91
46953 9384 4421 46
46954 9384 98 80
46955 9385 7469 14
46956 9385 3908 96
46957 9385 6546 19
46958 9386 3432 85
46959 9386 1894 13
46960 9386 5348 49
46961 9386 8863 67
46962 9386 3923 24
46963 9387 9224 99
46964 9387 3858 19
46965 9388 555 53
46966 9388 1715 28
46967 9388 6652 99
46968 9389 7331 27
46969 9389 9745 55
46970 9389 2026 8
46971 9389 8805 85
46972 9389 929 13
46973 9390 5699 64
46974 9390 9590 28
46975 9391 5429 8
46976 9391 9229 92
46977 9391 1568 35
46978 9391 9121 70
46979 9392 6449 91
46980 9392 2390 46
46981 9392 1252 76
46982 9392 5139 47
46983 9392 688 3
46984 9392 2361 63
46985 9392 4548 9
46986 9392 8508 43
46987 9392 3521 12
46988 9393 9947 93
46989 9393 9217 94
46990 9393 839 91
46991 9393 7362 68
46992 9394 6920 11
46993 9395 7872 83
46994 9395 2570 98
46995 9395 5355 27
46996 9395 9095 13
46997 9395 5123 76
46998 9395 6684 21
46999 9395 7724 8
47000 9395 8189 10
47001 9395 8638 20
47002 9395 1544 29
47003 9396 2362 7
47004 9396 3538 65
47005 9396 6176 7
47006 9396 4200 39
47007 9397 9441 46
47008 9397 7337 3
47009 9397 268 62
47010 9397 2050 29
47011 9397 1796 38
47012 9398 5464 98
47013 9398 8397 83
47014 9398 2845 18
47015 9399 6569 47
47016 9399 1015 99
47017 9399 271 58
47018 9399 8198 29
47019 9399 0 87
47020 9399 9837 63
47021 9399 8450 57
47022 9399 1806 98
47023 9400 9448 63
47024 9400 8227 74
47025 9400 4827 44
47026 9400 6360 2
47027 9401 4452 47
47028 9401 8266 64
47029 9401 6143 7
47030 9402 8959 87
47031 9402 2001 64
47032 9402 9781 10
47033 9402 5979 9
47034 9402 2283 18
47035 9402 7837 96
47036 9402 5513 99
47037 9402 77 54
47038 9402 4646 100
47039 9403 1540 50
47040 9404 9276 51
47041 9404 3983 25
47042 9404 9334 86
47043 9404 1168 89
47044 9404 3891 29
47045 9404 5387 64
47046 9405 8187 73
47047 9405 3013 8
47048 9405 3475 31
47049 9406 2511 48
47050 9407 544 87
47051 9407 8499 50
47052 9407 1397 68
47053 9408 3315 47
47054 9408 7414 9
47055 9408 4251 84
47056 9408 5385 81
47057 9409 7448 67
47058 9409 7567 80
47059 9409 5328 47
47060 9409 3192 80
47061 9410 1896 34
47062 9410 6109 89
47063 9410 5227 18
47064 9410 5913 25
47065 9410 5623 95
47066 9411 2755 100
47067 9411 5755 8
47068 9411 2957 27
47069 9411 7788 16
47070 9411 4341 83
47071 9411 8965 31
47072 9411 3263 40
47073 9412 8052 41
47074 9412 304 88
47075 9412 4386 96
47076 9412 4997 89
47077 9412 9409 76
47078 9412 222 72
47079 9412 9894 25
47080 9413 8032 70
47081 9414 912 17
47082 9414 5303 54
47083 9414 4587 7
47084 9414 6404 84
47085 9414 1633 80
47086 9415 9845 19
47087 9415 2701 26
47088 9415 8570 65
47089 9415 5918 26
47090 9416 414 27
47091 9416 9453 10
47092 9417 4660 88
47093 9417 7775 86
47094 9417 6879 16
47095 9417 2099 24
47096 9418 6139 76
47097 9418 1321 79
47098 9418 9953 84
47099 9418 5174 29
47100 9418 1495 13
47101 9418 8270 85
47102 9418 1329 73
47103 9419 2888 72
47104 9419 5387 32
47105 9419 5737 57
47106 9419 8731 47
47107 9419 7359 86
47108 9419 5516 13
47109 9419 7518 9
47110 9420 9659 99
47111 9420 8990 77
47112 9420 5397 86
47113 9420 864 36
47114 9421 523 23
47115 9421 6235 39
47116 9421 6140 26
47117 9421 6116 70
47118 9421 21 81
47119 9421 8495 77
47120 9421 3844 52
47121 9422 9049 34
47122 9422 8230 81
47123 9422 4118 28
47124 9423 273 52
47125 9423 8123 85
47126 9423 3383 97
47127 9423 8526 18
47128 9423 4772 67
47129 9423 330 47
47130 9423 6335 46
47131 9424 8596 34
47132 9424 2740 95
47133 9424 9353 62
47134 9424 457 40
47135 9424 3875 85
47136 9425 847 66
47137 9425 8648 22
47138 9425 891 3
47139 9425 5754 96
47140 9426 7676 35
47141 9426 8032 51
47142 9426 875 57
47143 9426 2894 47
47144 9427 264 87
47145 9427 5452 1
47146 9427 8625 34
47147 9427 3271 63
47148 9427 6964 28
47149 9427 3047 25
47150 9427 9941 18
47151 9427 3114 5
47152 9428 2013 49
47153 9428 2603 4
47154 9428 2289 74
47155 9428 6585 19
47156 9428 8749 37
47157 9429 6190 18
47158 9429 5814 47
47159 9429 4899 39
47160 9430 8833 12
47161 9430 4689 69
47162 9430 3587 95
47163 9430 4657 49
47164 9431 5814 69
47165 9431 3888 54
47166 9431 5970 46
47167 9431 1684 30
47168 9431 9427 68
47169 9431 3131 51
47170 9431 8639 71
47171 9431 3165 6
47172 9431 55 73
47173 9432 335 75
47174 9432 364 6
47175 9433 4231 60
47176 9433 6418 98
47177 9433 2689 65
47178 9433 6201 28
47179 9433 3411 51
47180 9434 2449 7
47181 9434 8309 82
47182 9434 8022 4
47183 9434 2802 54
47184 9434 9427 4
47185 9434 8913 29
47186 9435 7652 10
47187 9435 8061 1
47188 9435 5760 44
47189 9435 2821 98
47190 9435 3945 78
47191 9436 7696 11
47192 9436 5838 16
47193 9436 6248 23
47194 9437 7790 10
47195 9437 4963 6
47196 9437 6065 33
47197 9438 7532 56
47198 9438 8400 90
47199 9438 6732 60
47200 9438 7157 98
47201 9439 6760 75
47202 9439 7561 10
47203 9440 293 90
47204 9440 5916 51
47205 9440 5667 42
47206 9440 6543 94
47207 9440 76 7
47208 9440 7840 92
47209 9440 8871 67
47210 9441 2970 92
47211 9441 7325 9
47212 9441 5785 23
47213 9441 1611 52
47214 9441 6580 9
47215 9441 5098 13
47216 9441 3904 40
47217 9442 1133 63
47218 9442 9348 80
47219 9442 1086 90
47220 9443 5193 79
47221 9443 1328 55
47222 9443 7496 50
47223 9443 2714 35
47224 9443 2745 52
47225 9444 3327 39
47226 9444 9435 76
47227 9444 1412 4
47228 9444 2143 81
47229 9444 1781 13
47230 9444 3532 84
47231 9444 2568 97
47232 9445 7970 3
47233 9445 6090 76
47234 9445 1886 77
47235 9445 8705 92
47236 9446 6289 31
47237 9446 4059 81
47238 9446 6240 93
47239 9446 7008 89
47240 9446 1823 30
47241 9446 4170 13
47242 9447 7827 67
47243 9447 3899 66
47244 9447 8890 98
47245 9447 4581 22
47246 9447 6868 10
47247 9448 615 63
47248 9448 9861 65
47249 9448 4205 92
47250 9448 3769 36
47251 9448 8810 29
47252 9448 5736 2
47253 9449 7820 97
47254 9449 4998 44
47255 9449 2740 33
47256 9449 7517 25
47257 9449 4553 71
47258 9450 8498 91
47259 9450 8817 2
47260 9450 9291 7
47261 9451 9176 11
47262 9451 2745 45
47263 9451 4507 70
47264 9452 8660 20
47265 9453 1765 99
47266 9453 317 59
47267 9454 8543 6
47268 9454 4347 19
47269 9454 8344 74
47270 9454 8978 95
47271 9454 4346 52
47272 9455 1896 62
47273 9455 9619 38
47274 9455 7067 15
47275 9456 3925 85
47276 9456 6779 36
47277 9456 8506 19
47278 9456 7023 20
47279 9457 1586 41
47280 9457 3961 63
47281 9457 6293 32
47282 9457 1012 61
47283 9458 5851 79
47284 9458 3752 2
47285 9458 9710 26
47286 9458 5483 43
47287 9459 1882 92
47288 9459 3722 33
47289 9459 6872 4
47290 9459 6024 90
47291 9460 9309 79
47292 9460 9169 22
47293 9460 1368 20
47294 9461 526 98
47295 9461 6019 19
47296 9462 6958 80
47297 9462 550 50
47298 9463 6598 42
47299 9463 6435 57
47300 9463 2709 42
47301 9463 8404 82
47302 9463 3524 50
47303 9463 1502 61
47304 9464 1226 58
47305 9464 3376 89
47306 9465 75 32
47307 9465 1880 32
47308 9465 850 71
47309 9465 1866 17
47310 9466 6127 31
47311 9466 7239 80
47312 9466 110 37
47313 9466 4275 28
47314 9466 7961 90
47315 9466 2906 74
47316 9467 3301 69
47317 9467 7686 61
47318 9467 8140 3
47319 9467 9306 54
47320 9467 5346 67
47321 9467 1787 38
47322 9467 9901 32
47323 9467 5167 34
47324 9467 5581 94
47325 9468 2113 89
47326 9468 3570 87
47327 9468 619 21
47328 9468 4195 97
47329 9468 1359 77
47330 9469 934 38
47331 9469 5880 11
47332 9469 9652 54
47333 9469 4421 51
47334 9469 5782 52
47335 9469 3943 90
47336 9470 1985 78
47337 9470 567 64
47338 9470 9062 33
47339 9470 8318 50
47340 9471 6179 75
47341 9471 9100 65
47342 9471 5725 22
47343 9471 5311 14
47344 9471 1090 86
47345 9471 2938 79
47346 9471 1 5
47347 9471 3816 94
47348 9472 3334 90
47349 9472 1990 56
47350 9472 6137 60
47351 9472 9185 85
47352 9472 3427 47
47353 9472 9979 33
47354 9472 3005 85
47355 9472 8572 87
47356 9472 8428 83
47357 9473 6006 58
47358 9473 7668 36
47359 9473 235 85
47360 9473 7246 38
47361 9474 7753 69
47362 9474 8167 10
47363 9474 7756 26
47364 9474 1388 9
47365 9474 4089 15
47366 9474 4594 85
47367 9475 7877 4
47368 9475 2064 99
47369 9475 7452 86
47370 9475 6108 26
47371 9475 832 10
47372 9475 7981 83
47373 9475 9041 61
47374 9476 6178 25
47375 9476 9209 23
47376 9477 5772 66
47377 9477 9493 63
47378 9477 622 36
47379 9477 2765 22
47380 9478 763 82
47381 9478 5114 42
47382 9479 6582 63
47383 9479 1882 70
47384 9479 2078 56
47385 9480 4999 89
47386 9480 3982 18
47387 9480 6525 23
47388 9480 3155 67
47389 9480 3659 76
47390 9480 3294 21
47391 9481 9527 91
47392 9481 3448 68
47393 9481 3146 22
47394 9481 8895 6
47395 9482 3535 7
47396 9482 8612 32
47397 9482 4382 11
47398 9482 4688 10
47399 9482 9016 9
47400 9482 1631 50
47401 9482 9447 50
47402 9483 5234 10
47403 9483 7957 1
47404 9483 7081 40
47405 9483 653 69
47406 9483 8349 98
47407 9483 697 58
47408 9483 9260 94
47409 9484 7919 91
47410 9484 787 3
47411 9484 323 58
47412 9484 6734 33
47413 9484 7860 22
47414 9485 7073 56
47415 9485 9808 97
47416 9485 1879 39
47417 9485 6913 12
47418 9485 5776 41
47419 9485 5273 86
47420 9486 4500 51
47421 9486 3110 68
47422 9486 4556 45
47423 9486 7329 98
47424 9486 1364 97
47425 9486 3625 39
47426 9486 9527 42
47427 9487 7209 21
47428 9487 4050 85
47429 9487 9280 63
47430 9487 1730 85
47431 9487 2919 30
47432 9488 2908 4
47433 9488 3699 2
47434 9489 5526 54
47435 9489 8410 58
47436 9489 1607 45
47437 9489 506 51
47438 9489 2854 90
47439 9489 7792 32
47440 9489 5881 55
47441 9490 8208 50
47442 9490 3293 69
47443 9490 5487 48
47444 9490 9369 76
47445 9491 8060 52
47446 9491 3334 69
47447 9491 5791 71
47448 9491 3410 71
47449 9491 7994 40
47450 9491 5216 46
47451 9492 7773 94
47452 9492 4430 34
47453 9492 4377 37
47454 9492 8669 2
47455 9492 7439 17
47456 9493 6693 10
47457 9493 3156 36
47458 9493 4299 58
47459 9493 2201 26
47460 9493 2327 86
47461 9494 8143 3
47462 9494 2577 50
47463 9494 7609 47
47464 9495 1766 39
47465 9495 4604 27
47466 9495 233 70
47467 9495 7534 36
47468 9495 4386 51
47469 9496 2424 17
47470 9496 2896 57
47471 9496 7737 91
47472 9496 5887 53
47473 9497 4406 59
47474 9497 4695 16
47475 9497 9900 10
47476 9497 7174 41
47477 9498 8108 3
47478 9498 9614 24
47479 9498 2795 91
47480 9498 4945 20
47481 9498 2660 24
47482 9499 4378 7
47483 9499 1953 15
47484 9499 8077 28
47485 9499 7217 74
47486 9499 1455 69
47487 9499 1571 100
47488 9499 8820 76
47489 9500 2569 28
47490 9500 1466 23
47491 9500 7684 16
47492 9500 2494 6
47493 9500 1908 86
47494 9500 7058 61
47495 9500 3211 34
47496 9500 6878 72
47497 9501 4329 43
47498 9501 8388 90
47499 9501 4371 91
47500 9501 7523 81
47501 9501 8711 25
47502 9501 2223 64
47503 9501 3308 2
47504 9501 1637 2
47505 9502 9914 90
47506 9502 6316 39
47507 9502 9375 69
47508 9502 7032 97
47509 9502 9917 74
47510 9502 7885 85
47511 9503 7192 56
47512 9503 8215 99
47513 9503 9752 8
47514 9503 6345 80
47515 9504 746 18
47516 9504 160 2
47517 9504 4167 73
47518 9504 8782 18
47519 9504 8099 96
47520 9504 7109 40
47521 9504 9371 87
47522 9505 1643 57
47523 9505 2428 94
47524 9505 9893 11
47525 9505 7375 27
47526 9506 6801 5
47527 9506 1037 69
47528 9506 4076 95
47529 9507 6440 12
47530 9507 8583 25
47531 9507 9106 46
47532 9507 3112 97
47533 9507 6268 90
47534 9508 9501 49
47535 9508 5800 29
47536 9508 5581 3
47537 9509 6300 91
47538 9509 8189 66
47539 9509 2677 69
47540 9509 6018 47
47541 9509 4223 81
47542 9510 2484 1
47543 9510 7521 47
47544 9510 494 81
47545 9510 7728 31
47546 9510 388 90
47547 9511 1175 87
47548 9511 2216 25
47549 9511 7545 92
47550 9511 6180 63
47551 9511 7975 27
47552 9511 4081 64
47553 9512 6001 97
47554 9512 9938 53
47555 9512 8222 24
47556 9512 957 70
47557 9512 1402 67
47558 9512 8562 57
47559 9513 3930 99
47560 9513 7999 71
47561 9513 7170 25
47562 9513 1130 36
47563 9513 5157 44
47564 9514 7890 68
47565 9514 438 89
47566 9514 9627 36
47567 9514 2929 55
47568 9514 4069 31
47569 9515 7810 66
47570 9515 9789 71
47571 9515 1994 32
47572 9515 3361 66
47573 9515 8964 64
47574 9515 9212 25
47575 9516 1472 56
47576 9516 5495 88
47577 9516 4418 15
47578 9516 6949 27
47579 9516 7028 79
47580 9517 5887 3
47581 9517 2157 11
47582 9517 3720 37
47583 9517 9502 6
47584 9517 4380 79
47585 9517 9929 86
47586 9517 6219 95
47587 9517 8528 19
47588 9517 9844 62
47589 9518 1535 98
47590 9518 8407 45
47591 9518 954 45
47592 9518 1315 79
47593 9518 5473 36
47594 9518 4261 61
47595 9518 4042 7
47596 9518 4050 34
47597 9519 15 61
47598 9519 8864 31
47599 9519 4628 28
47600 9520 1931 6
47601 9520 5873 65
47602 9520 9639 83
47603 9520 3903 62
47604 9521 5783 28
47605 9521 2370 25
47606 9521 9931 46
47607 9521 1267 20
47608 9521 8142 76
47609 9522 3047 88
47610 9522 8066 22
47611 9522 3708 10
47612 9523 7028 39
47613 9523 1902 7
47614 9523 7967 85
47615 9523 7944 36
47616 9523 9185 43
47617 9523 7693 38
47618 9524 5854 91
47619 9524 787 42
47620 9524 7116 58
47621 9525 355 50
47622 9525 4406 49
47623 9525 2653 62
47624 9525 8694 80
47625 9525 3952 15
47626 9525 5456 48
47627 9526 2422 76
47628 9526 1459 10
47629 9526 1979 65
47630 9526 970 23
47631 9526 5343 19
47632 9526 8079 2
47633 9527 6899 9
47634 9527 3244 87
47635 9527 1318 17
47636 9527 71 59
47637 9527 4486 39
47638 9527 1362 3
47639 9528 591 98
47640 9528 293 23
47641 9529 7726 24
47642 9529 6967 79
47643 9529 1221 58
47644 9529 301 48
47645 9529 8604 68
47646 9529 7451 71
47647 9529 4048 69
47648 9530 3630 37
47649 9530 7326 17
47650 9530 1859 30
47651 9530 415 56
47652 9530 3350 14
47653 9530 1716 9
47654 9530 6761 74
47655 9530 5845 93
47656 9530 3357 17
47657 9530 3531 3
47658 9530 9574 42
47659 9531 1927 4
47660 9531 4238 32
47661 9532 5472 80
47662 9533 8196 92
47663 9533 3338 93
47664 9533 8949 6
47665 9533 2228 67
47666 9533 523 19
47667 9533 7054 73
47668 9533 876 48
47669 9534 1034 35
47670 9534 8912 30
47671 9534 7964 82
47672 9534 6077 23
47673 9535 2355 54
47674 9535 1675 12
47675 9536 5074 8
47676 9536 4502 78
47677 9536 1735 88
47678 9537 2255 18
47679 9537 1707 41
47680 9537 8556 95
47681 9537 4586 65
47682 9537 1145 52
47683 9538 1522 6
47684 9538 6094 66
47685 9538 313 5
47686 9538 5049 44
47687 9539 7289 76
47688 9539 1448 86
47689 9539 2218 40
47690 9539 6649 93
47691 9539 1901 39
47692 9540 8925 8
47693 9540 6661 34
47694 9540 8395 46
47695 9540 8645 39
47696 9540 4304 7
47697 9541 660 24
47698 9541 1862 51
47699 9541 398 23
47700 9541 7558 16
47701 9542 8730 30
47702 9542 7487 39
47703 9543 3921 37
47704 9543 6520 53
47705 9543 7500 24
47706 9543 9241 19
47707 9543 8370 5
47708 9543 2368 1
47709 9543 3009 98
47710 9544 7663 96
47711 9544 8078 50
47712 9544 3453 78
47713 9544 5517 81
47714 9544 9158 47
47715 9545 4127 15
47716 9545 4257 50
47717 9545 8299 2
47718 9545 604 12
47719 9546 8525 79
47720 9546 7283 60
47721 9546 8362 43
47722 9547 9576 100
47723 9547 3619 74
47724 9547 7381 80
47725 9547 3697 21
47726 9547 9998 90
47727 9548 7593 9
47728 9548 3191 58
47729 9548 6766 94
47730 9548 6762 2
47731 9548 1698 8
47732 9548 5653 79
47733 9548 4911 77
47734 9549 5637 38
47735 9549 791 42
47736 9549 9233 73
47737 9549 9967 94
47738 9549 2332 10
47739 9549 1693 97
47740 9549 2782 24
47741 9549 7135 63
47742 9549 5195 50
47743 9549 1677 27
47744 9550 3220 1
47745 9550 9491 71
47746 9550 6114 66
47747 9551 7676 43
47748 9551 7300 99
47749 9551 4171 6
47750 9551 7062 18
47751 9551 3674 93
47752 9552 9160 78
47753 9552 7335 45
47754 9552 7378 92
47755 9552 5479 63
47756 9552 4414 93
47757 9552 6274 31
47758 9552 6468 68
47759 9553 9956 23
47760 9553 9134 79
47761 9554 5447 32
47762 9554 5768 25
47763 9554 6952 65
47764 9554 1667 50
47765 9554 1251 60
47766 9554 4631 48
47767 9554 2814 46
47768 9555 3131 2
47769 9555 6140 24
47770 9556 1946 43
47771 9556 3023 54
47772 9556 8606 7
47773 9556 5086 59
47774 9557 5407 22
47775 9557 4146 62
47776 9557 5655 86
47777 9557 5019 39
47778 9558 8763 68
47779 9558 7190 63
47780 9558 3747 91
47781 9558 171 76
47782 9558 1635 63
47783 9558 1250 28
47784 9559 4089 70
47785 9559 2861 60
47786 9559 9303 55
47787 9559 1697 68
47788 9560 4892 25
47789 9560 227 6
47790 9560 388 95
47791 9560 7417 69
47792 9560 1550 16
47793 9560 1183 50
47794 9561 6717 70
47795 9561 7641 45
47796 9561 3950 24
47797 9561 6916 84
47798 9562 8357 64
47799 9562 2380 62
47800 9562 7411 26
47801 9562 2734 21
47802 9562 9915 7
47803 9562 8225 63
47804 9562 9533 40
47805 9562 8696 66
47806 9562 6991 6
47807 9562 9341 27
47808 9563 4013 93
47809 9563 8805 30
47810 9563 5791 85
47811 9564 5558 33
47812 9564 9066 84
47813 9565 5419 100
47814 9565 4535 61
47815 9565 5616 44
47816 9565 891 75
47817 9565 6826 61
47818 9566 9815 95
47819 9566 1224 78
47820 9566 4694 73
47821 9566 8725 67
47822 9566 3049 10
47823 9566 1297 36
47824 9567 1936 62
47825 9567 1541 31
47826 9567 2427 66
47827 9567 6711 68
47828 9568 4340 45
47829 9568 2475 2
47830 9568 9650 62
47831 9569 24 10
47832 9569 3121 7
47833 9569 8165 76
47834 9569 8688 18
47835 9570 5224 31
47836 9570 9444 41
47837 9570 5219 11
47838 9570 8913 44
47839 9570 6165 82
47840 9570 3214 91
47841 9570 5678 54
47842 9570 4109 51
47843 9571 2952 66
47844 9572 3720 80
47845 9572 671 92
47846 9572 278 89
47847 9572 7753 72
47848 9573 9872 79
47849 9573 8373 93
47850 9573 6616 42
47851 9573 9002 92
47852 9573 4467 59
47853 9573 3810 99
47854 9573 9907 75
47855 9573 1364 58
47856 9573 5843 29
47857 9573 7906 33
47858 9574 4096 25
47859 9574 2024 93
47860 9574 1901 22
47861 9574 1243 8
47862 9574 8896 82
47863 9574 1118 80
47864 9574 8603 21
47865 9574 6216 79
47866 9574 3816 71
47867 9574 8442 11
47868 9575 7339 48
47869 9575 7186 12
47870 9575 4478 38
47871 9575 578 86
47872 9575 3102 69
47873 9575 9700 16
47874 9575 5027 62
47875 9576 520 2
47876 9576 3723 94
47877 9576 7173 89
47878 9576 4031 60
47879 9576 8108 57
47880 9576 1194 16
47881 9576 8367 46
47882 9576 525 96
47883 9577 1872 4
47884 9577 5294 47
47885 9577 4078 39
47886 9577 8694 36
47887 9577 9136 70
47888 9577 5357 95
47889 9577 6418 54
47890 9577 8017 68
47891 9577 3420 61
47892 9577 3228 90
47893 9577 543 80
47894 9577 6564 31
47895 9577 4681 85
47896 9578 290 20
47897 9578 3954 97
47898 9578 9202 18
47899 9578 6052 10
47900 9578 8353 96
47901 9579 9004 61
47902 9580 5963 56
47903 9580 9506 33
47904 9580 1058 64
47905 9581 3453 50
47906 9581 2286 3
47907 9581 4679 69
47908 9581 2206 54
47909 9581 8080 53
47910 9582 4085 45
47911 9582 7718 87
47912 9582 6779 89
47913 9583 2596 77
47914 9583 1316 13
47915 9583 5582 42
47916 9583 8320 40
47917 9583 9077 19
47918 9583 646 25
47919 9583 8053 12
47920 9583 9190 2
47921 9584 6493 51
47922 9584 8275 67
47923 9584 9609 62
47924 9584 1862 27
47925 9585 4764 65
47926 9585 8655 49
47927 9585 6176 68
47928 9585 7335 31
47929 9585 3151 100
47930 9586 1933 100
47931 9586 3759 6
47932 9586 7399 60
47933 9586 1808 36
47934 9586 1553 1
47935 9587 8139 85
47936 9588 4664 52
47937 9588 8403 50
47938 9589 5892 13
47939 9589 23 6
47940 9589 9761 68
47941 9589 3658 52
47942 9589 8030 89
47943 9589 4158 2
47944 9589 5605 37
47945 9589 8336 72
47946 9589 1670 92
47947 9590 6812 20
47948 9590 466 95
47949 9590 5483 34
47950 9590 9626 99
47951 9590 6001 53
47952 9590 806 56
47953 9590 9859 6
47954 9590 3750 1
47955 9591 7684 11
47956 9591 2016 39
47957 9591 5408 42
47958 9591 466 99
47959 9591 2366 43
47960 9591 5752 94
47961 9591 2516 10
47962 9591 695 12
47963 9591 5278 46
47964 9591 5352 4
47965 9592 7858 40
47966 9592 5981 83
47967 9592 347 6
47968 9592 5570 59
47969 9592 2071 89
47970 9592 4674 53
47971 9593 6192 25
47972 9593 7534 83
47973 9593 1694 13
47974 9593 2683 46
47975 9593 5640 51
47976 9593 1624 90
47977 9593 370 43
47978 9593 3907 71
47979 9594 4020 71
47980 9594 4549 85
47981 9594 6074 3
47982 9594 1338 59
47983 9594 3071 26
47984 9594 5387 72
47985 9594 6232 100
47986 9594 2478 56
47987 9594 2506 25
47988 9595 8947 33
47989 9595 2499 29
47990 9596 3603 72
47991 9596 8635 4
47992 9596 27 42
47993 9596 1793 84
47994 9596 225 50
47995 9596 8232 70
47996 9597 7042 27
47997 9598 7062 3
47998 9598 4816 47
47999 9598 6152 53
48000 9598 4714 21
48001 9598 7699 46
48002 9598 589 100
48003 9600 7842 71
48004 9600 7893 50
48005 9600 6995 71
48006 9600 729 34
48007 9600 9476 22
48008 9602 4225 91
48009 9602 394 86
48010 9602 4373 31
48011 9602 8092 94
48012 9602 95 61
48013 9602 1763 6
48014 9602 914 71
48015 9603 5797 21
48016 9603 9053 44
48017 9603 1945 23
48018 9603 2249 73
48019 9603 9842 66
48020 9603 3243 50
48021 9604 4432 55
48022 9605 7822 33
48023 9605 1636 30
48024 9605 5132 5
48025 9605 9678 64
48026 9605 9656 96
48027 9606 7975 10
48028 9606 2444 87
48029 9606 2071 89
48030 9606 4360 53
48031 9606 6824 79
48032 9607 182 86
48033 9607 7060 29
48034 9607 9312 20
48035 9607 2742 70
48036 9607 4034 61
48037 9607 5664 66
48038 9608 6512 10
48039 9608 280 47
48040 9608 5635 51
48041 9608 4934 71
48042 9608 9290 63
48043 9608 8712 3
48044 9609 1973 78
48045 9609 436 74
48046 9609 7386 53
48047 9610 6083 6
48048 9610 9824 79
48049 9610 9475 42
48050 9610 3733 47
48051 9610 320 18
48052 9611 729 50
48053 9611 3190 89
48054 9611 2050 66
48055 9611 9358 10
48056 9611 7969 21
48057 9611 8184 22
48058 9612 8011 23
48059 9612 9845 61
48060 9612 8223 83
48061 9612 9117 90
48062 9612 1364 40
48063 9612 9877 3
48064 9613 8882 93
48065 9613 4815 39
48066 9613 8071 27
48067 9613 1067 41
48068 9613 2103 79
48069 9614 1164 62
48070 9614 2632 27
48071 9614 7553 50
48072 9614 1780 25
48073 9614 4858 58
48074 9614 5578 72
48075 9614 8038 17
48076 9615 9849 8
48077 9615 2433 11
48078 9615 4352 83
48079 9615 1196 23
48080 9615 3586 4
48081 9615 5424 15
48082 9615 5630 32
48083 9616 4859 64
48084 9616 5205 27
48085 9616 93 68
48086 9617 1583 36
48087 9617 4880 11
48088 9617 7218 41
48089 9617 7086 33
48090 9617 7650 34
48091 9618 1843 93
48092 9618 3983 90
48093 9618 3995 58
48094 9618 9034 16
48095 9619 3289 42
48096 9619 6913 3
48097 9619 3758 12
48098 9619 8703 65
48099 9620 1707 76
48100 9620 5637 47
48101 9620 1311 85
48102 9621 2198 16
48103 9621 1345 42
48104 9621 3057 1
48105 9621 9406 80
48106 9622 158 46
48107 9622 2906 28
48108 9622 1275 15
48109 9623 6924 9
48110 9623 450 81
48111 9623 6793 43
48112 9623 3525 6
48113 9624 1265 14
48114 9625 1710 85
48115 9625 708 70
48116 9625 9096 80
48117 9625 2400 11
48118 9625 9241 73
48119 9626 9690 55
48120 9626 7920 13
48121 9626 7834 21
48122 9626 9130 54
48123 9626 8753 8
48124 9626 1622 100
48125 9627 558 86
48126 9627 1332 29
48127 9627 6358 33
48128 9627 5427 54
48129 9627 1479 41
48130 9627 6491 3
48131 9629 4520 61
48132 9629 4957 45
48133 9629 8285 96
48134 9629 732 37
48135 9629 4251 29
48136 9630 3891 24
48137 9630 5795 67
48138 9630 589 6
48139 9631 3749 34
48140 9631 2890 21
48141 9631 6433 42
48142 9631 222 2
48143 9632 191 83
48144 9632 7283 82
48145 9632 3207 15
48146 9632 1915 51
48147 9632 5950 98
48148 9632 2664 76
48149 9633 2919 18
48150 9633 6938 21
48151 9634 7207 70
48152 9634 2454 47
48153 9634 4633 73
48154 9634 636 50
48155 9634 4253 35
48156 9635 7767 63
48157 9635 7525 30
48158 9635 1261 70
48159 9635 8528 14
48160 9635 3291 59
48161 9635 2420 37
48162 9636 5602 76
48163 9636 9690 74
48164 9636 5422 77
48165 9636 7885 62
48166 9636 9118 17
48167 9636 699 83
48168 9637 5099 7
48169 9637 3543 60
48170 9637 5572 39
48171 9637 440 3
48172 9637 6888 32
48173 9637 5611 87
48174 9637 7352 91
48175 9638 4163 11
48176 9638 979 43
48177 9638 1864 93
48178 9638 1441 53
48179 9638 5911 22
48180 9638 7547 89
48181 9639 4527 2
48182 9639 9582 49
48183 9640 4875 4
48184 9640 7857 88
48185 9640 748 93
48186 9640 2533 41
48187 9641 1479 1
48188 9641 9702 85
48189 9641 5449 44
48190 9641 3126 20
48191 9641 1818 9
48192 9641 1755 11
48193 9641 6246 10
48194 9641 1234 72
48195 9641 5678 84
48196 9641 4105 95
48197 9641 8893 96
48198 9642 4671 84
48199 9643 6879 51
48200 9643 2302 31
48201 9643 8376 37
48202 9643 279 12
48203 9643 347 80
48204 9643 4306 85
48205 9643 7970 12
48206 9643 4930 21
48207 9643 4194 88
48208 9643 6171 18
48209 9644 8284 78
48210 9644 3448 83
48211 9644 8159 15
48212 9644 4024 5
48213 9644 7732 71
48214 9644 3413 56
48215 9645 2903 52
48216 9646 1313 76
48217 9646 1458 25
48218 9646 8588 9
48219 9646 3235 24
48220 9647 1279 37
48221 9647 1967 29
48222 9647 8589 48
48223 9647 4424 80
48224 9647 2977 31
48225 9647 1381 72
48226 9647 7600 63
48227 9648 4256 81
48228 9648 1906 97
48229 9648 3029 72
48230 9648 5398 26
48231 9648 60 8
48232 9648 1931 7
48233 9648 4886 73
48234 9648 7861 17
48235 9649 4282 61
48236 9649 2330 85
48237 9649 2686 79
48238 9649 3077 51
48239 9649 4558 59
48240 9649 2307 52
48241 9650 8793 9
48242 9650 6746 84
48243 9650 1272 43
48244 9650 9720 35
48245 9651 1371 82
48246 9651 8049 49
48247 9652 2803 76
48248 9652 547 24
48249 9652 8404 52
48250 9652 949 96
48251 9653 2962 26
48252 9653 100 1
48253 9653 3680 68
48254 9654 2740 18
48255 9654 4388 69
48256 9654 2141 51
48257 9654 1775 84
48258 9655 3970 89
48259 9655 1190 91
48260 9655 8213 23
48261 9655 5911 46
48262 9655 3038 4
48263 9656 7153 36
48264 9656 7854 58
48265 9656 9236 64
48266 9657 265 85
48267 9657 974 48
48268 9657 4556 74
48269 9657 550 81
48270 9658 3426 66
48271 9658 8942 85
48272 9658 468 97
48273 9658 2832 4
48274 9658 5895 27
48275 9658 7307 42
48276 9659 4978 44
48277 9659 1216 54
48278 9659 9299 89
48279 9659 6202 93
48280 9659 3957 68
48281 9659 4006 69
48282 9660 7968 1
48283 9660 9226 97
48284 9660 8039 90
48285 9660 3727 27
48286 9660 8337 75
48287 9661 1208 85
48288 9661 9530 28
48289 9661 4298 81
48290 9661 510 44
48291 9661 1021 30
48292 9662 431 80
48293 9662 1184 46
48294 9662 4123 22
48295 9663 8281 56
48296 9663 5739 25
48297 9663 1297 95
48298 9663 5529 14
48299 9664 3205 78
48300 9664 7856 82
48301 9664 5081 68
48302 9665 4141 68
48303 9665 4696 20
48304 9665 4270 18
48305 9665 2621 77
48306 9666 9019 5
48307 9666 9743 58
48308 9666 3286 9
48309 9666 6195 67
48310 9666 116 1
48311 9666 7328 1
48312 9666 6020 29
48313 9667 8085 36
48314 9667 1656 85
48315 9667 2297 24
48316 9667 9688 95
48317 9667 1104 40
48318 9667 6090 26
48319 9667 3728 34
48320 9667 3138 96
48321 9667 2953 41
48322 9667 209 46
48323 9668 32 53
48324 9668 7923 57
48325 9668 429 27
48326 9668 1518 47
48327 9668 1396 1
48328 9669 7023 18
48329 9669 2101 4
48330 9669 7710 67
48331 9669 1917 47
48332 9669 6832 4
48333 9669 4884 24
48334 9670 9352 11
48335 9670 7929 77
48336 9670 8762 30
48337 9670 8757 21
48338 9670 7593 24
48339 9670 7603 64
48340 9670 7477 20
48341 9671 8828 10
48342 9671 1729 45
48343 9671 1328 71
48344 9671 3491 80
48345 9672 6046 99
48346 9672 9201 14
48347 9672 8081 36
48348 9672 7259 6
48349 9672 4802 62
48350 9672 98 69
48351 9672 3370 24
48352 9672 4250 52
48353 9673 5339 46
48354 9673 6862 99
48355 9673 6632 12
48356 9673 3835 16
48357 9673 3919 50
48358 9674 7994 66
48359 9674 543 74
48360 9674 45 67
48361 9674 1707 49
48362 9674 5339 14
48363 9674 2176 27
48364 9675 4948 89
48365 9675 3133 83
48366 9675 4803 91
48367 9675 1370 91
48368 9675 1893 50
48369 9675 5786 77
48370 9675 1569 51
48371 9675 3658 85
48372 9675 4672 53
48373 9675 6957 14
48374 9675 5061 2
48375 9676 7414 93
48376 9676 6856 50
48377 9676 1817 62
48378 9676 5485 40
48379 9678 4827 80
48380 9678 8836 69
48381 9678 3079 71
48382 9678 2257 22
48383 9678 2998 2
48384 9678 5875 56
48385 9678 5628 69
48386 9679 812 75
48387 9679 875 43
48388 9679 9660 11
48389 9679 9884 47
48390 9679 2452 21
48391 9679 3872 87
48392 9679 5932 79
48393 9680 9477 12
48394 9680 28 83
48395 9680 5265 16
48396 9680 8403 99
48397 9680 8479 96
48398 9680 4017 1
48399 9680 7414 74
48400 9680 828 50
48401 9681 465 18
48402 9681 4431 45
48403 9682 4184 51
48404 9682 2734 31
48405 9682 7778 82
48406 9682 382 55
48407 9682 2013 27
48408 9682 7556 85
48409 9682 7847 78
48410 9682 592 45
48411 9683 4505 17
48412 9683 1630 58
48413 9683 8464 87
48414 9683 2890 72
48415 9684 3659 60
48416 9684 8582 71
48417 9684 2933 94
48418 9685 5871 54
48419 9685 7417 79
48420 9685 5530 3
48421 9685 3910 60
48422 9685 2125 21
48423 9685 1939 18
48424 9685 7663 78
48425 9685 1575 2
48426 9685 8885 26
48427 9686 1512 81
48428 9686 9838 25
48429 9686 1130 84
48430 9687 8989 23
48431 9688 2923 83
48432 9688 561 40
48433 9688 8386 30
48434 9688 8561 99
48435 9688 2983 58
48436 9689 2652 71
48437 9689 5594 66
48438 9689 9527 17
48439 9689 8447 67
48440 9689 4217 82
48441 9690 3515 94
48442 9690 7663 22
48443 9690 6684 71
48444 9690 7757 71
48445 9690 7712 87
48446 9691 5521 57
48447 9691 2128 50
48448 9691 7232 13
48449 9692 8456 29
48450 9692 1173 89
48451 9692 7010 89
48452 9692 3520 64
48453 9692 8793 82
48454 9692 1192 17
48455 9692 1712 69
48456 9693 9158 92
48457 9693 3159 96
48458 9693 2877 53
48459 9693 8447 58
48460 9693 913 12
48461 9694 5624 31
48462 9694 9702 89
48463 9694 8141 74
48464 9694 156 72
48465 9694 5982 19
48466 9695 640 14
48467 9695 581 23
48468 9695 1392 55
48469 9696 6898 53
48470 9696 8483 86
48471 9696 8909 9
48472 9696 6707 57
48473 9696 3857 84
48474 9696 9267 33
48475 9696 6872 47
48476 9696 5232 63
48477 9697 1134 40
48478 9697 9683 37
48479 9698 9763 29
48480 9698 1570 71
48481 9698 6346 25
48482 9699 9649 17
48483 9699 2661 74
48484 9700 3304 86
48485 9700 7283 54
48486 9700 7605 40
48487 9700 297 23
48488 9700 5616 84
48489 9700 8602 15
48490 9701 5161 90
48491 9701 7317 16
48492 9701 6979 40
48493 9701 4191 41
48494 9701 9718 76
48495 9701 1623 94
48496 9701 8635 75
48497 9702 6111 99
48498 9702 8799 33
48499 9702 8022 5
48500 9702 1559 64
48501 9703 7585 68
48502 9703 6783 49
48503 9703 7101 30
48504 9704 4751 35
48505 9704 1392 37
48506 9704 199 47
48507 9704 7083 13
48508 9704 2142 4
48509 9704 3983 6
48510 9705 9136 80
48511 9705 4320 59
48512 9705 7625 85
48513 9705 3848 74
48514 9705 2368 89
48515 9705 9102 53
48516 9705 6275 43
48517 9706 2701 47
48518 9706 9953 73
48519 9706 4404 85
48520 9706 4535 12
48521 9706 2085 55
48522 9707 4035 80
48523 9707 1415 44
48524 9707 317 62
48525 9707 3841 30
48526 9707 3540 77
48527 9707 3913 21
48528 9707 9628 86
48529 9708 271 27
48530 9708 3002 84
48531 9708 2278 72
48532 9708 351 68
48533 9709 4398 78
48534 9709 9806 92
48535 9709 2001 1
48536 9709 4226 65
48537 9709 4085 94
48538 9709 5848 50
48539 9709 5782 33
48540 9709 3122 28
48541 9709 8567 7
48542 9710 5059 49
48543 9710 8230 92
48544 9710 6278 42
48545 9710 6301 74
48546 9710 4362 4
48547 9710 8129 76
48548 9710 2319 67
48549 9710 4167 62
48550 9710 3430 85
48551 9711 9319 20
48552 9711 621 5
48553 9711 3946 12
48554 9711 4323 92
48555 9711 3525 82
48556 9711 4084 65
48557 9712 5969 71
48558 9712 3013 83
48559 9712 860 63
48560 9712 33 44
48561 9713 3925 49
48562 9713 5161 99
48563 9713 6852 39
48564 9713 2873 43
48565 9714 3179 11
48566 9714 4017 80
48567 9714 7559 86
48568 9714 7654 10
48569 9714 612 97
48570 9715 2516 69
48571 9715 961 97
48572 9715 6812 33
48573 9715 5138 22
48574 9716 2079 84
48575 9716 6930 18
48576 9716 9578 22
48577 9717 2531 67
48578 9717 8290 33
48579 9717 5986 78
48580 9717 6789 79
48581 9717 7579 51
48582 9717 3251 30
48583 9717 2131 58
48584 9718 3211 85
48585 9718 5109 80
48586 9718 4463 18
48587 9718 5929 17
48588 9718 5035 62
48589 9718 982 60
48590 9718 4133 20
48591 9718 6759 37
48592 9718 3521 97
48593 9718 7232 42
48594 9719 5266 1
48595 9719 8631 36
48596 9719 8552 72
48597 9719 1487 8
48598 9719 5107 59
48599 9720 9724 78
48600 9720 7292 85
48601 9720 3784 96
48602 9720 6044 33
48603 9720 6912 10
48604 9721 7808 65
48605 9721 6776 16
48606 9721 961 47
48607 9721 5509 41
48608 9721 3299 68
48609 9721 4797 54
48610 9721 3269 27
48611 9721 4721 93
48612 9722 2649 44
48613 9722 3678 19
48614 9722 3193 22
48615 9723 9520 37
48616 9723 8353 17
48617 9723 4463 75
48618 9723 4054 4
48619 9723 7935 2
48620 9724 1630 22
48621 9724 9784 33
48622 9724 5704 21
48623 9725 5434 83
48624 9725 8022 68
48625 9725 1411 82
48626 9725 4575 66
48627 9726 3798 69
48628 9726 3603 25
48629 9726 9792 9
48630 9726 3923 37
48631 9727 8039 50
48632 9727 2306 33
48633 9727 6570 94
48634 9727 6077 48
48635 9727 3644 68
48636 9727 982 63
48637 9728 9747 23
48638 9728 7319 51
48639 9728 1625 5
48640 9729 198 13
48641 9729 4288 19
48642 9729 6022 18
48643 9730 4721 72
48644 9730 6596 95
48645 9730 1012 91
48646 9730 5111 71
48647 9730 4077 63
48648 9731 430 81
48649 9731 5754 80
48650 9731 9462 64
48651 9731 2138 35
48652 9731 1822 71
48653 9731 1193 72
48654 9731 1530 38
48655 9731 2669 61
48656 9732 2430 16
48657 9732 9611 92
48658 9732 9733 58
48659 9732 7995 53
48660 9732 4194 99
48661 9732 3178 22
48662 9732 6436 39
48663 9732 3133 87
48664 9733 1227 65
48665 9733 585 28
48666 9733 5732 74
48667 9734 7156 5
48668 9734 7676 70
48669 9734 675 81
48670 9734 9883 61
48671 9734 9356 41
48672 9734 5327 86
48673 9734 4746 21
48674 9734 7194 40
48675 9735 9429 87
48676 9735 2821 74
48677 9735 3188 3
48678 9735 5408 7
48679 9735 3237 98
48680 9735 1916 66
48681 9736 14 18
48682 9736 2268 3
48683 9737 3546 55
48684 9737 6710 59
48685 9737 2230 24
48686 9737 2611 60
48687 9737 8002 10
48688 9737 3495 55
48689 9738 1906 9
48690 9738 2429 67
48691 9738 2004 14
48692 9738 5897 6
48693 9739 9901 23
48694 9739 9968 49
48695 9739 4750 37
48696 9739 579 32
48697 9739 9168 26
48698 9740 3608 68
48699 9740 514 17
48700 9741 5969 11
48701 9741 9528 73
48702 9741 1175 46
48703 9741 3893 85
48704 9741 5749 54
48705 9742 2605 30
48706 9742 3524 65
48707 9743 6386 23
48708 9743 9664 25
48709 9744 5801 16
48710 9744 5188 47
48711 9744 55 36
48712 9744 8562 18
48713 9744 1866 6
48714 9745 4727 93
48715 9745 5022 48
48716 9745 9193 22
48717 9745 4709 49
48718 9745 6910 28
48719 9745 280 51
48720 9745 898 81
48721 9745 6814 63
48722 9746 3828 70
48723 9746 4395 35
48724 9746 6002 97
48725 9746 201 92
48726 9746 5119 16
48727 9746 8055 35
48728 9746 4536 52
48729 9746 8329 63
48730 9746 5332 88
48731 9746 919 2
48732 9746 698 56
48733 9747 3430 90
48734 9747 6810 75
48735 9748 1058 2
48736 9748 2796 60
48737 9748 1362 42
48738 9748 556 84
48739 9749 684 35
48740 9749 2946 70
48741 9749 9978 37
48742 9749 1489 57
48743 9750 7683 14
48744 9750 7192 79
48745 9750 3849 87
48746 9750 9720 90
48747 9750 6919 62
48748 9751 2520 67
48749 9751 3029 74
48750 9751 9693 66
48751 9752 531 17
48752 9752 3224 22
48753 9752 686 88
48754 9752 3932 38
48755 9753 8099 45
48756 9753 1441 51
48757 9753 5369 28
48758 9753 2348 48
48759 9753 9946 70
48760 9753 5407 1
48761 9754 96 27
48762 9754 8325 6
48763 9754 2061 68
48764 9754 6783 55
48765 9754 160 20
48766 9755 5159 40
48767 9755 674 46
48768 9755 9085 19
48769 9755 3643 33
48770 9755 756 95
48771 9755 3720 99
48772 9755 700 16
48773 9755 7136 28
48774 9755 8275 97
48775 9756 1428 22
48776 9756 5929 53
48777 9756 689 19
48778 9756 7807 74
48779 9756 1237 72
48780 9756 5422 47
48781 9757 1619 55
48782 9757 7218 65
48783 9757 2424 98
48784 9757 5943 17
48785 9757 665 83
48786 9757 7351 91
48787 9758 997 23
48788 9758 6097 99
48789 9759 5620 77
48790 9759 5350 79
48791 9760 7200 19
48792 9760 166 52
48793 9760 1232 32
48794 9760 4671 92
48795 9760 5122 65
48796 9760 8012 63
48797 9761 2731 99
48798 9761 7007 73
48799 9761 7446 81
48800 9761 9637 43
48801 9762 4063 5
48802 9762 1289 78
48803 9762 2668 2
48804 9762 2001 85
48805 9762 9328 65
48806 9762 202 93
48807 9762 7422 24
48808 9762 273 18
48809 9763 6174 89
48810 9763 483 74
48811 9763 7779 100
48812 9763 8766 22
48813 9763 8920 51
48814 9763 7105 62
48815 9763 7867 73
48816 9763 3085 82
48817 9764 708 29
48818 9764 7525 68
48819 9764 3082 55
48820 9765 2322 35
48821 9765 1451 22
48822 9765 896 49
48823 9765 2941 83
48824 9765 804 2
48825 9765 1135 52
48826 9765 1375 81
48827 9765 4782 68
48828 9766 8274 5
48829 9766 8122 18
48830 9767 1492 76
48831 9767 2967 48
48832 9767 8529 96
48833 9768 2054 59
48834 9768 9360 86
48835 9768 3428 92
48836 9768 5358 32
48837 9768 8986 31
48838 9768 3143 56
48839 9768 3821 41
48840 9769 9822 89
48841 9769 8708 54
48842 9769 1598 38
48843 9769 2240 66
48844 9770 860 13
48845 9770 1963 27
48846 9770 5601 31
48847 9771 7390 97
48848 9771 6933 85
48849 9771 6499 95
48850 9771 9052 71
48851 9771 9230 2
48852 9771 8072 29
48853 9771 2268 14
48854 9772 5110 22
48855 9772 7015 80
48856 9772 1961 46
48857 9772 9414 95
48858 9773 6706 17
48859 9773 9293 62
48860 9773 9731 86
48861 9773 9231 3
48862 9773 617 1
48863 9773 1195 55
48864 9773 2272 89
48865 9774 7313 6
48866 9774 9746 85
48867 9774 3629 34
48868 9774 8754 80
48869 9774 7744 2
48870 9774 3659 51
48871 9774 3681 71
48872 9775 3044 40
48873 9775 159 12
48874 9775 2204 96
48875 9775 4389 93
48876 9775 2822 94
48877 9775 1784 43
48878 9776 1971 26
48879 9777 3342 55
48880 9777 2423 34
48881 9777 6508 96
48882 9777 5721 14
48883 9778 3739 30
48884 9778 7954 85
48885 9778 7353 7
48886 9778 630 21
48887 9778 4483 75
48888 9778 1137 18
48889 9779 6826 87
48890 9779 1146 37
48891 9779 2614 13
48892 9779 5688 28
48893 9780 1204 16
48894 9780 8457 4
48895 9780 3976 67
48896 9780 7828 78
48897 9780 7153 18
48898 9781 8052 52
48899 9781 6151 73
48900 9781 9074 56
48901 9781 9490 8
48902 9781 3530 69
48903 9781 5826 56
48904 9781 9025 10
48905 9782 2397 61
48906 9782 7869 77
48907 9782 8390 10
48908 9782 6335 96
48909 9782 1880 84
48910 9782 9192 61
48911 9783 7935 86
48912 9783 8158 87
48913 9783 3597 81
48914 9783 4380 32
48915 9784 5663 70
48916 9784 2024 93
48917 9784 1508 95
48918 9784 166 6
48919 9785 9131 40
48920 9785 4628 39
48921 9785 8497 44
48922 9785 4180 2
48923 9785 9899 100
48924 9785 297 80
48925 9786 8501 97
48926 9786 3724 100
48927 9786 4059 1
48928 9787 7922 10
48929 9787 3037 24
48930 9787 7442 64
48931 9787 9963 81
48932 9787 9496 80
48933 9787 8290 61
48934 9787 7654 39
48935 9788 9664 39
48936 9788 2952 42
48937 9789 5348 82
48938 9789 9714 16
48939 9789 5798 39
48940 9790 5997 54
48941 9790 8410 24
48942 9790 8012 96
48943 9790 9260 27
48944 9790 941 6
48945 9790 176 83
48946 9791 1714 11
48947 9791 9559 32
48948 9791 1575 61
48949 9792 2689 65
48950 9792 5711 39
48951 9792 7318 95
48952 9792 9704 57
48953 9792 670 38
48954 9793 5951 2
48955 9793 3281 11
48956 9793 1167 53
48957 9793 4196 76
48958 9793 3362 31
48959 9794 273 5
48960 9794 6620 70
48961 9794 9449 35
48962 9794 7105 30
48963 9794 5051 33
48964 9794 6863 62
48965 9794 4988 95
48966 9794 2382 77
48967 9794 2470 37
48968 9795 1069 36
48969 9795 3751 49
48970 9796 1346 12
48971 9796 8437 78
48972 9796 1748 82
48973 9797 2167 60
48974 9797 2631 79
48975 9797 1513 21
48976 9797 9962 43
48977 9797 3064 43
48978 9798 2123 43
48979 9798 4790 74
48980 9799 5533 34
48981 9799 1191 61
48982 9799 5658 39
48983 9800 7804 70
48984 9800 806 64
48985 9800 4208 6
48986 9800 5952 31
48987 9800 1457 33
48988 9801 1462 91
48989 9801 3713 39
48990 9802 3899 60
48991 9802 3517 15
48992 9802 7974 62
48993 9802 3183 90
48994 9803 1338 60
48995 9803 7523 9
48996 9803 2157 95
48997 9803 9359 92
48998 9803 2124 99
48999 9804 7824 25
49000 9804 5261 43
49001 9804 7321 40
49002 9804 9532 15
49003 9804 6905 18
49004 9805 6547 40
49005 9805 1102 67
49006 9805 6283 44
49007 9806 2629 34
49008 9806 3863 34
49009 9806 7404 86
49010 9806 4425 92
49011 9806 5591 33
49012 9806 1212 45
49013 9807 7278 97
49014 9807 344 72
49015 9807 9113 85
49016 9808 3745 68
49017 9808 6275 30
49018 9808 1125 14
49019 9808 9529 41
49020 9808 3826 86
49021 9808 2797 74
49022 9809 8550 68
49023 9809 1201 60
49024 9809 1678 98
49025 9809 9853 12
49026 9809 7719 34
49027 9810 4305 39
49028 9810 7774 34
49029 9810 2609 5
49030 9811 4074 5
49031 9811 7038 67
49032 9811 8704 21
49033 9811 4319 91
49034 9812 2514 12
49035 9812 1379 83
49036 9812 552 20
49037 9812 4325 13
49038 9813 4780 33
49039 9813 5839 69
49040 9814 5921 39
49041 9814 8701 90
49042 9814 4373 1
49043 9814 8162 42
49044 9814 8978 37
49045 9814 2853 67
49046 9814 5780 8
49047 9815 2983 97
49048 9815 8979 29
49049 9815 8348 76
49050 9815 2500 44
49051 9815 1168 71
49052 9815 6682 79
49053 9815 6879 28
49054 9816 1599 77
49055 9816 3675 47
49056 9816 3919 30
49057 9816 4202 57
49058 9816 7922 65
49059 9816 4929 91
49060 9816 1064 25
49061 9817 756 17
49062 9817 5402 32
49063 9817 3667 30
49064 9818 4368 27
49065 9818 7676 9
49066 9818 1723 96
49067 9818 5948 10
49068 9819 5844 40
49069 9819 3977 62
49070 9819 6600 47
49071 9819 1556 46
49072 9819 1244 59
49073 9820 1556 84
49074 9820 752 92
49075 9820 420 35
49076 9820 9207 5
49077 9820 3889 44
49078 9821 7887 50
49079 9821 4431 25
49080 9821 3331 45
49081 9821 8544 90
49082 9821 874 75
49083 9821 1065 70
49084 9821 6810 42
49085 9822 4473 83
49086 9822 6065 10
49087 9822 5890 47
49088 9822 4088 48
49089 9823 9475 95
49090 9823 3499 87
49091 9823 2781 35
49092 9823 3376 24
49093 9823 1284 87
49094 9823 5887 1
49095 9824 2111 6
49096 9824 4637 33
49097 9824 9701 61
49098 9824 5897 31
49099 9824 2917 36
49100 9824 8823 89
49101 9824 8845 19
49102 9825 1425 87
49103 9825 2594 96
49104 9825 6207 48
49105 9825 8773 97
49106 9825 4642 81
49107 9825 6987 23
49108 9825 5887 99
49109 9826 534 46
49110 9826 8070 36
49111 9826 5023 6
49112 9826 4220 18
49113 9826 3642 79
49114 9826 1037 79
49115 9826 8122 88
49116 9827 6176 31
49117 9827 9628 52
49118 9827 1056 86
49119 9828 3448 27
49120 9828 4671 64
49121 9828 447 48
49122 9828 1184 31
49123 9828 1020 31
49124 9828 6219 28
49125 9829 3957 69
49126 9829 835 60
49127 9829 8051 10
49128 9829 7683 30
49129 9829 4282 41
49130 9830 7802 38
49131 9830 1055 78
49132 9830 8346 7
49133 9830 401 46
49134 9830 7566 30
49135 9831 4991 94
49136 9831 8840 50
49137 9831 567 6
49138 9831 5050 35
49139 9831 1871 56
49140 9831 484 32
49141 9831 6658 53
49142 9831 5689 61
49143 9832 8157 65
49144 9832 1494 23
49145 9832 3768 98
49146 9832 8163 75
49147 9832 4939 23
49148 9833 922 64
49149 9834 1502 26
49150 9834 9007 13
49151 9834 7649 21
49152 9834 2247 91
49153 9834 2438 34
49154 9835 4925 61
49155 9835 5630 50
49156 9835 8487 35
49157 9835 4654 73
49158 9835 8846 82
49159 9836 7819 43
49160 9836 891 10
49161 9836 4271 91
49162 9836 5226 54
49163 9836 369 32
49164 9836 1367 35
49165 9836 4553 91
49166 9836 9688 70
49167 9837 1477 79
49168 9837 4636 42
49169 9837 8763 65
49170 9837 6094 6
49171 9837 122 47
49172 9838 977 28
49173 9838 9524 27
49174 9838 1245 11
49175 9838 3503 42
49176 9838 4504 88
49177 9838 6003 59
49178 9839 3124 24
49179 9839 6986 64
49180 9839 6479 39
49181 9839 5044 92
49182 9839 4345 32
49183 9840 3513 26
49184 9840 8966 4
49185 9840 277 78
49186 9840 5881 6
49187 9840 474 5
49188 9841 4665 38
49189 9841 2346 6
49190 9841 8279 96
49191 9842 6499 24
49192 9842 8064 21
49193 9842 97 25
49194 9842 7574 92
49195 9842 2806 9
49196 9843 6261 1
49197 9844 3849 74
49198 9844 1381 4
49199 9844 7434 65
49200 9844 6003 52
49201 9844 207 49
49202 9844 4414 40
49203 9844 8333 68
49204 9845 2334 88
49205 9845 4398 52
49206 9845 8586 37
49207 9845 5716 46
49208 9845 5502 100
49209 9845 2645 84
49210 9845 908 46
49211 9845 6139 33
49212 9846 6393 75
49213 9846 8997 46
49214 9846 1079 91
49215 9846 3319 13
49216 9847 5433 24
49217 9847 2449 74
49218 9847 760 2
49219 9847 6628 45
49220 9847 6301 50
49221 9848 5198 41
49222 9848 5984 92
49223 9848 8188 21
49224 9848 9265 4
49225 9848 6252 39
49226 9849 944 59
49227 9849 432 70
49228 9849 9331 92
49229 9849 3086 9
49230 9850 6345 19
49231 9850 8443 62
49232 9850 3899 11
49233 9851 9054 33
49234 9851 4784 11
49235 9851 7724 8
49236 9851 7174 37
49237 9852 6216 47
49238 9852 8056 79
49239 9852 289 62
49240 9852 4902 95
49241 9852 4466 67
49242 9852 7539 15
49243 9853 1521 26
49244 9853 6211 95
49245 9854 1182 99
49246 9854 1870 47
49247 9854 2053 80
49248 9854 9308 25
49249 9854 2441 32
49250 9855 9793 100
49251 9855 6392 16
49252 9856 708 80
49253 9856 6522 88
49254 9856 7050 46
49255 9856 9150 25
49256 9856 2479 49
49257 9856 4114 69
49258 9856 9610 27
49259 9856 3589 27
49260 9856 5104 67
49261 9856 9086 94
49262 9857 2158 4
49263 9857 320 100
49264 9858 4633 93
49265 9858 2671 28
49266 9858 5452 37
49267 9858 2415 87
49268 9858 5586 39
49269 9858 9351 88
49270 9859 4107 30
49271 9859 4457 23
49272 9859 5370 71
49273 9859 6685 27
49274 9859 6377 54
49275 9859 8196 78
49276 9859 2247 23
49277 9859 4217 25
49278 9860 2588 39
49279 9860 9765 3
49280 9860 5165 20
49281 9860 7039 20
49282 9860 5085 56
49283 9860 5251 44
49284 9860 7368 69
49285 9860 1083 39
49286 9861 7482 41
49287 9861 4993 30
49288 9861 2684 71
49289 9861 4821 80
49290 9861 6567 83
49291 9861 6342 37
49292 9861 957 86
49293 9862 7502 26
49294 9862 4482 23
49295 9862 3282 15
49296 9862 3261 8
49297 9862 5824 96
49298 9862 9327 17
49299 9863 1629 86
49300 9863 5906 71
49301 9863 3254 31
49302 9863 1536 58
49303 9863 4578 75
49304 9864 2179 60
49305 9864 1786 89
49306 9864 7117 44
49307 9864 1812 9
49308 9865 1477 16
49309 9865 7168 59
49310 9865 5466 91
49311 9865 8 71
49312 9866 487 7
49313 9866 2345 47
49314 9866 6563 68
49315 9866 2380 15
49316 9866 1196 2
49317 9866 9445 79
49318 9867 1783 63
49319 9867 9642 74
49320 9867 6288 38
49321 9868 584 48
49322 9868 5026 54
49323 9868 7341 77
49324 9868 9303 65
49325 9869 393 39
49326 9869 3330 38
49327 9869 5053 14
49328 9869 4 32
49329 9870 6317 48
49330 9870 180 55
49331 9870 6113 32
49332 9870 6023 36
49333 9870 3141 76
49334 9871 9900 26
49335 9871 6331 3
49336 9871 527 26
49337 9872 6681 57
49338 9872 1272 10
49339 9872 8997 54
49340 9872 5632 64
49341 9872 6548 70
49342 9872 1655 46
49343 9872 3249 5
49344 9873 5680 7
49345 9873 1790 7
49346 9873 2471 94
49347 9873 2333 90
49348 9873 9600 13
49349 9873 4816 29
49350 9873 1662 48
49351 9873 8961 18
49352 9873 6290 99
49353 9874 2313 39
49354 9874 7682 33
49355 9874 1778 52
49356 9874 6367 9
49357 9874 8800 16
49358 9874 7263 81
49359 9875 6714 63
49360 9875 7761 23
49361 9875 272 30
49362 9875 2200 44
49363 9876 3001 92
49364 9876 1997 86
49365 9876 7400 18
49366 9876 4977 59
49367 9876 8183 67
49368 9876 4281 93
49369 9877 4633 35
49370 9877 1291 14
49371 9877 7411 63
49372 9877 6304 47
49373 9877 2284 56
49374 9878 4441 67
49375 9878 6412 35
49376 9878 6947 31
49377 9878 8580 8
49378 9878 8274 31
49379 9878 6148 3
49380 9878 9503 63
49381 9878 6752 65
49382 9879 4733 54
49383 9879 9749 86
49384 9880 2136 76
49385 9880 9631 44
49386 9880 685 6
49387 9880 7681 84
49388 9881 4782 74
49389 9881 683 81
49390 9881 7189 13
49391 9881 2882 55
49392 9881 4528 10
49393 9881 8436 89
49394 9881 6062 100
49395 9881 2295 36
49396 9881 1877 81
49397 9881 1361 43
49398 9881 6102 19
49399 9882 3733 64
49400 9882 9069 56
49401 9884 9507 27
49402 9884 7200 85
49403 9884 7933 5
49404 9884 6359 47
49405 9884 6216 62
49406 9884 6283 88
49407 9885 3091 83
49408 9885 1889 73
49409 9885 8150 53
49410 9885 3303 35
49411 9885 3951 96
49412 9886 5688 63
49413 9886 6139 13
49414 9886 271 54
49415 9886 2813 7
49416 9886 349 100
49417 9886 8655 98
49418 9887 775 63
49419 9887 5859 9
49420 9887 5262 80
49421 9887 1095 73
49422 9887 2458 82
49423 9887 1020 95
49424 9888 4640 82
49425 9888 5260 1
49426 9888 5660 26
49427 9888 5451 74
49428 9888 9733 65
49429 9888 8435 17
49430 9888 450 9
49431 9888 6969 81
49432 9888 8236 77
49433 9888 8182 99
49434 9888 9283 87
49435 9888 4619 6
49436 9889 7004 74
49437 9889 4465 10
49438 9889 7958 50
49439 9890 6093 14
49440 9890 4298 8
49441 9890 9117 41
49442 9890 54 55
49443 9890 869 94
49444 9890 7050 77
49445 9890 718 32
49446 9890 5760 11
49447 9891 8389 84
49448 9891 1753 65
49449 9891 9437 90
49450 9891 8681 27
49451 9892 7349 9
49452 9892 8644 2
49453 9892 1314 1
49454 9892 4405 38
49455 9892 7755 66
49456 9892 9788 87
49457 9893 610 88
49458 9893 402 96
49459 9893 7609 91
49460 9893 735 56
49461 9894 8875 10
49462 9894 5807 13
49463 9894 6171 85
49464 9894 9775 26
49465 9894 2156 53
49466 9895 7189 60
49467 9895 4827 65
49468 9895 9500 53
49469 9896 2530 35
49470 9896 2970 45
49471 9896 3489 17
49472 9896 26 74
49473 9896 9233 14
49474 9896 3995 87
49475 9897 3185 48
49476 9897 951 66
49477 9897 5324 44
49478 9898 4309 68
49479 9898 9115 66
49480 9898 8875 19
49481 9898 6179 31
49482 9898 2201 94
49483 9898 7904 87
49484 9899 1011 75
49485 9900 794 65
49486 9900 5177 44
49487 9901 7047 88
49488 9901 5235 77
49489 9901 4645 35
49490 9901 4627 37
49491 9901 4969 7
49492 9902 6106 34
49493 9902 9150 57
49494 9902 5981 34
49495 9902 5155 48
49496 9902 38 99
49497 9902 8279 19
49498 9902 1618 11
49499 9902 5852 32
49500 9903 4654 11
49501 9903 6870 21
49502 9903 2499 57
49503 9903 1702 44
49504 9903 5922 2
49505 9904 7095 51
49506 9904 9897 65
49507 9904 2795 93
49508 9904 7604 29
49509 9905 7870 88
49510 9905 2152 26
49511 9905 6513 47
49512 9905 4142 78
49513 9905 5823 96
49514 9905 2672 28
49515 9905 4207 71
49516 9906 507 24
49517 9906 2034 54
49518 9906 9521 78
49519 9906 4205 13
49520 9907 9437 27
49521 9907 1075 90
49522 9907 2619 12
49523 9907 3653 35
49524 9907 2744 43
49525 9907 5676 6
49526 9907 9983 37
49527 9907 1408 53
49528 9908 5045 19
49529 9908 8662 87
49530 9909 2662 65
49531 9909 8939 76
49532 9910 2065 89
49533 9910 9737 48
49534 9910 9221 14
49535 9910 2090 93
49536 9910 5426 94
49537 9911 4284 37
49538 9911 7845 77
49539 9911 2816 29
49540 9911 5367 12
49541 9911 6441 64
49542 9911 601 29
49543 9911 8266 85
49544 9911 8312 86
49545 9911 8880 100
49546 9911 2174 75
49547 9912 7315 63
49548 9912 5111 99
49549 9912 3579 20
49550 9912 5027 66
49551 9912 1399 83
49552 9912 5475 54
49553 9912 2944 73
49554 9912 1642 91
49555 9913 7998 13
49556 9913 6643 81
49557 9913 2545 98
49558 9913 2707 50
49559 9913 5711 66
49560 9913 5955 75
49561 9913 247 40
49562 9913 4251 91
49563 9913 6461 53
49564 9914 2911 37
49565 9914 9706 86
49566 9915 2576 30
49567 9915 9740 66
49568 9915 8575 98
49569 9915 5723 26
49570 9916 6626 50
49571 9916 1287 100
49572 9916 4341 4
49573 9916 1767 18
49574 9916 313 52
49575 9916 6983 99
49576 9916 978 68
49577 9917 5959 14
49578 9917 839 49
49579 9917 93 12
49580 9918 3999 6
49581 9918 2 96
49582 9918 4164 15
49583 9918 5106 18
49584 9918 7691 87
49585 9918 9090 57
49586 9918 5096 39
49587 9919 5186 32
49588 9919 8814 53
49589 9919 1176 27
49590 9920 2444 74
49591 9920 1798 34
49592 9920 8929 69
49593 9921 3415 28
49594 9921 6253 97
49595 9921 9938 71
49596 9922 373 16
49597 9922 7565 69
49598 9922 9736 7
49599 9923 2431 51
49600 9923 341 96
49601 9924 7021 35
49602 9924 2572 46
49603 9924 5382 73
49604 9924 9154 94
49605 9924 4906 46
49606 9924 173 23
49607 9924 6249 11
49608 9925 758 48
49609 9925 3446 53
49610 9925 5013 34
49611 9925 1757 40
49612 9925 9566 94
49613 9926 4167 24
49614 9926 9479 17
49615 9926 7224 66
49616 9926 4999 31
49617 9927 5869 3
49618 9927 386 35
49619 9927 5871 25
49620 9927 8476 4
49621 9927 9929 64
49622 9927 3122 47
49623 9927 1975 60
49624 9927 5874 78
49625 9928 325 78
49626 9928 1112 77
49627 9928 8461 41
49628 9928 6144 71
49629 9928 4012 71
49630 9928 2021 68
49631 9928 3250 30
49632 9928 4252 49
49633 9930 6740 27
49634 9930 7111 6
49635 9930 2045 48
49636 9930 2472 54
49637 9931 7173 64
49638 9931 5619 98
49639 9931 7130 51
49640 9931 957 63
49641 9931 5326 48
49642 9931 6161 96
49643 9931 7382 23
49644 9932 263 25
49645 9932 8517 28
49646 9932 6453 60
49647 9933 6188 12
49648 9933 2322 42
49649 9933 8248 71
49650 9933 7684 52
49651 9933 1914 59
49652 9934 7901 36
49653 9934 8319 30
49654 9934 4041 19
49655 9934 7865 100
49656 9934 6381 53
49657 9934 4356 5
49658 9935 3724 56
49659 9935 6556 13
49660 9935 4574 7
49661 9935 6929 63
49662 9935 9651 83
49663 9935 4291 82
49664 9935 3687 44
49665 9936 1626 87
49666 9936 4803 69
49667 9936 7859 91
49668 9936 794 11
49669 9936 6289 13
49670 9936 5070 30
49671 9937 9252 37
49672 9937 8938 66
49673 9937 7283 6
49674 9937 7364 49
49675 9938 4851 45
49676 9938 4383 14
49677 9938 2338 70
49678 9938 7751 73
49679 9938 9256 70
49680 9938 7631 43
49681 9938 3402 64
49682 9938 3527 67
49683 9939 4011 23
49684 9939 7198 71
49685 9939 7900 65
49686 9939 5944 88
49687 9939 7729 69
49688 9939 8211 37
49689 9939 5967 86
49690 9939 6244 95
49691 9939 8317 27
49692 9939 4672 72
49693 9939 1768 9
49694 9940 9440 70
49695 9940 653 36
49696 9940 735 68
49697 9940 7476 31
49698 9940 822 46
49699 9941 593 60
49700 9941 2715 60
49701 9942 1301 3
49702 9942 6236 24
49703 9942 7972 80
49704 9942 3692 1
49705 9942 5196 84
49706 9942 9554 16
49707 9942 2000 88
49708 9942 3445 63
49709 9942 5830 78
49710 9942 7187 59
49711 9942 287 74
49712 9942 8807 70
49713 9942 861 86
49714 9943 460 12
49715 9943 8426 38
49716 9943 6484 28
49717 9943 815 55
49718 9944 4376 43
49719 9944 7334 29
49720 9945 3967 11
49721 9945 6973 71
49722 9945 2400 10
49723 9945 2791 75
49724 9945 1478 15
49725 9945 44 24
49726 9945 1201 88
49727 9945 7394 82
49728 9945 295 65
49729 9946 1955 81
49730 9946 4221 8
49731 9946 1455 15
49732 9946 7661 12
49733 9947 147 99
49734 9947 1145 11
49735 9948 6592 10
49736 9948 2147 71
49737 9948 7525 99
49738 9948 805 86
49739 9948 8441 64
49740 9948 4965 1
49741 9948 8849 59
49742 9948 218 82
49743 9948 6865 92
49744 9949 4034 66
49745 9949 5304 55
49746 9949 6816 22
49747 9949 2383 75
49748 9949 520 37
49749 9949 9775 86
49750 9949 1044 46
49751 9950 7966 85
49752 9950 3100 59
49753 9950 5823 76
49754 9950 1321 1
49755 9950 111 4
49756 9951 7748 31
49757 9951 3883 30
49758 9951 5120 66
49759 9951 7886 5
49760 9951 348 73
49761 9951 9342 90
49762 9951 3742 99
49763 9951 2871 4
49764 9952 3651 91
49765 9952 2023 50
49766 9952 3489 29
49767 9952 6577 81
49768 9952 1599 83
49769 9953 8863 39
49770 9953 6890 26
49771 9953 7750 52
49772 9953 9394 89
49773 9954 8092 28
49774 9954 6921 5
49775 9954 8384 100
49776 9954 1907 21
49777 9954 1678 12
49778 9954 9169 55
49779 9954 5379 35
49780 9955 9922 12
49781 9955 9897 45
49782 9955 2256 44
49783 9955 939 35
49784 9956 6394 5
49785 9956 4504 96
49786 9956 650 68
49787 9956 76 49
49788 9956 9639 19
49789 9956 4300 55
49790 9957 4461 91
49791 9957 6197 75
49792 9958 3900 58
49793 9958 9338 9
49794 9958 6756 72
49795 9958 2313 47
49796 9958 5979 62
49797 9958 4644 78
49798 9959 4338 95
49799 9959 3932 19
49800 9959 3533 68
49801 9959 5134 24
49802 9959 1381 44
49803 9959 9981 46
49804 9959 7842 9
49805 9960 6430 54
49806 9960 471 85
49807 9960 1063 12
49808 9960 9958 89
49809 9961 6009 29
49810 9961 9620 53
49811 9961 9312 68
49812 9961 6119 69
49813 9961 4823 13
49814 9961 312 4
49815 9961 6673 74
49816 9962 7851 61
49817 9962 5559 48
49818 9962 6493 95
49819 9962 5589 2
49820 9962 7657 27
49821 9963 1902 10
49822 9963 2895 78
49823 9963 3816 96
49824 9963 830 13
49825 9963 3459 72
49826 9964 8038 4
49827 9964 5148 30
49828 9964 3479 91
49829 9964 9124 23
49830 9964 8179 3
49831 9965 6009 1
49832 9965 190 3
49833 9965 5733 35
49834 9965 714 96
49835 9966 8562 55
49836 9966 5728 84
49837 9966 2386 83
49838 9966 1091 91
49839 9966 8115 63
49840 9967 2686 73
49841 9968 3881 86
49842 9968 36 74
49843 9968 154 28
49844 9968 373 57
49845 9968 4546 71
49846 9969 4328 64
49847 9969 4176 97
49848 9969 8778 64
49849 9969 8608 20
49850 9969 1638 23
49851 9969 564 6
49852 9970 7098 61
49853 9970 27 78
49854 9970 5489 50
49855 9970 4117 53
49856 9971 7663 67
49857 9971 7886 19
49858 9971 2559 97
49859 9972 3841 26
49860 9972 127 91
49861 9972 7561 56
49862 9973 1340 75
49863 9973 2061 82
49864 9974 4264 4
49865 9974 3579 7
49866 9974 5334 94
49867 9974 5192 1
49868 9975 5496 24
49869 9975 9853 36
49870 9975 9938 93
49871 9975 4728 62
49872 9975 1619 9
49873 9975 1035 12
49874 9976 516 76
49875 9976 293 59
49876 9976 6247 46
49877 9976 1924 95
49878 9976 2526 43
49879 9976 3944 57
49880 9976 9038 76
49881 9976 2180 94
49882 9977 4654 79
49883 9977 9799 88
49884 9977 1345 38
49885 9978 2051 77
49886 9978 569 24
49887 9978 5419 1
49888 9979 7596 99
49889 9979 5262 24
49890 9979 5782 66
49891 9979 5050 52
49892 9979 2611 98
49893 9979 4619 62
49894 9980 9322 4
49895 9980 312 7
49896 9980 5166 90
49897 9980 4414 61
49898 9980 7685 15
49899 9980 6511 83
49900 9981 3630 13
49901 9981 91 69
49902 9981 8881 18
49903 9981 7395 97
49904 9981 4245 55
49905 9982 4947 10
49906 9982 196 3
49907 9982 5831 14
49908 9982 6474 38
49909 9982 9398 9
49910 9982 8090 98
49911 9982 6872 53
49912 9983 8041 78
49913 9983 7565 57
49914 9983 3801 91
49915 9983 9916 15
49916 9983 8847 33
49917 9984 8395 50
49918 9984 2770 16
49919 9984 3020 13
49920 9984 5987 90
49921 9984 3093 59
49922 9984 1222 19
49923 9984 5203 34
49924 9984 6701 33
49925 9985 9063 12
49926 9985 5031 19
49927 9985 2403 24
49928 9985 7664 51
49929 9985 6269 40
49930 9985 5999 69
49931 9985 1486 51
49932 9985 335 63
49933 9986 402 1
49934 9986 9614 23
49935 9986 6442 65
49936 9986 2122 49
49937 9986 9259 81
49938 9986 3671 7
49939 9986 2212 21
49940 9987 3441 12
49941 9987 7476 24
49942 9987 2859 7
49943 9988 421 35
49944 9988 1517 29
49945 9988 290 44
49946 9989 4438 60
49947 9989 4080 91
49948 9989 598 32
49949 9989 5420 97
49950 9989 467 58
49951 9989 8473 29
49952 9989 8825 54
49953 9989 7003 67
49954 9989 2067 8
49955 9989 8785 75
49956 9990 887 54
49957 9990 2911 75
49958 9990 5587 74
49959 9990 578 61
49960 9990 6241 87
49961 9991 5026 62
49962 9991 1941 25
49963 9991 7403 16
49964 9992 6333 35
49965 9992 3350 24
49966 9992 1813 52
49967 9992 3257 97
49968 9992 3103 69
49969 9992 7699 21
49970 9993 9963 79
49971 9993 1769 55
49972 9993 1982 70
49973 9993 2245 83
49974 9994 4134 35
49975 9994 3645 60
49976 9995 3102 81
49977 9995 9669 76
49978 9995 6259 73
49979 9996 2307 59
49980 9996 9542 70
49981 9996 7042 10
49982 9996 2593 57
49983 9997 4988 40
49984 9997 8454 87
49985 9997 8886 51
49986 9997 2080 80
49987 9998 8600 44
49988 9998 3244 54
49989 9998 4472 28
49990 9998 2791 1
49991 9999 2347 78
49992 9999 2520 59
49993 9999 771 99
49994 9999 4676 10
49995 9999 3644 62
49996 9999 5006 28
49997 9999 8320 75
49998 9999 7459 3
49999 9999 9260 15
