# N=80, Total Nodes=6400
# Format: u v base_weight
0 1 1
0 80 1
1 2 3
1 81 2
1 0 2
2 3 2
2 82 1
2 1 5
3 4 1
3 83 5
3 2 4
4 5 1
4 84 1
4 3 1
5 6 2
5 85 2
5 4 5
6 7 5
6 86 1
6 5 5
7 8 2
7 87 5
7 6 4
8 9 2
8 88 4
8 7 5
9 10 3
9 89 1
9 8 2
10 11 4
10 90 3
10 9 3
11 12 2
11 91 2
11 10 3
12 13 1
12 92 1
12 11 4
13 14 1
13 93 3
13 12 3
14 15 5
14 94 3
14 13 1
15 16 4
15 95 5
15 14 1
16 17 4
16 96 1
16 15 5
17 18 3
17 97 5
17 16 3
18 19 5
18 98 2
18 17 1
19 20 1
19 99 2
19 18 3
20 21 1
20 100 2
20 19 1
21 22 4
21 101 3
21 20 4
22 23 3
22 102 2
22 21 3
23 24 3
23 103 2
23 22 3
24 25 1
24 104 5
24 23 2
25 26 5
25 105 2
25 24 2
26 27 4
26 106 4
26 25 3
27 28 5
27 107 2
27 26 3
28 29 1
28 108 2
28 27 1
29 30 3
29 109 4
29 28 3
30 31 1
30 110 2
30 29 5
31 32 3
31 111 2
31 30 4
32 33 4
32 112 4
32 31 2
33 34 3
33 113 2
33 32 2
34 35 5
34 114 5
34 33 3
35 36 5
35 115 4
35 34 5
36 37 4
36 116 3
36 35 2
37 38 2
37 117 5
37 36 4
38 39 1
38 118 1
38 37 1
39 40 2
39 119 2
39 38 4
40 41 5
40 120 1
40 39 4
41 42 4
41 121 5
41 40 4
42 43 5
42 122 3
42 41 5
43 44 1
43 123 1
43 42 5
44 45 3
44 124 3
44 43 1
45 46 3
45 125 4
45 44 2
46 47 4
46 126 1
46 45 3
47 48 5
47 127 2
47 46 5
48 49 1
48 128 3
48 47 5
49 50 5
49 129 2
49 48 2
50 51 3
50 130 2
50 49 5
51 52 5
51 131 1
51 50 5
52 53 3
52 132 4
52 51 1
53 54 1
53 133 3
53 52 3
54 55 2
54 134 1
54 53 2
55 56 5
55 135 1
55 54 1
56 57 4
56 136 1
56 55 5
57 58 2
57 137 2
57 56 4
58 59 5
58 138 2
58 57 3
59 60 5
59 139 5
59 58 4
60 61 2
60 140 5
60 59 2
61 62 3
61 141 4
61 60 3
62 63 4
62 142 5
62 61 4
63 64 1
63 143 2
63 62 2
64 65 1
64 144 3
64 63 1
65 66 5
65 145 5
65 64 2
66 67 5
66 146 2
66 65 1
67 68 1
67 147 1
67 66 2
68 69 1
68 148 1
68 67 3
69 70 1
69 149 5
69 68 2
70 71 3
70 150 4
70 69 2
71 72 5
71 151 2
71 70 5
72 73 5
72 152 4
72 71 2
73 74 4
73 153 4
73 72 2
74 75 1
74 154 1
74 73 4
75 76 3
75 155 4
75 74 4
76 77 4
76 156 1
76 75 1
77 78 1
77 157 4
77 76 3
78 79 1
78 158 2
78 77 2
79 159 2
79 78 5
80 0 4
80 81 2
80 160 4
81 1 2
81 82 3
81 161 4
81 80 2
82 2 1
82 83 4
82 162 5
82 81 1
83 3 1
83 84 5
83 163 1
83 82 1
84 4 2
84 85 2
84 164 4
84 83 4
85 5 4
85 86 2
85 165 4
85 84 1
86 6 2
86 87 4
86 166 1
86 85 4
87 7 3
87 88 4
87 167 3
87 86 4
88 8 5
88 89 4
88 168 2
88 87 2
89 9 3
89 90 2
89 169 1
89 88 5
90 10 5
90 91 1
90 170 3
90 89 1
91 11 1
91 92 5
91 171 4
91 90 5
92 12 5
92 93 2
92 172 1
92 91 5
93 13 1
93 94 2
93 173 1
93 92 5
94 14 1
94 95 2
94 174 4
94 93 1
95 15 5
95 96 2
95 175 5
95 94 5
96 16 1
96 97 5
96 176 1
96 95 4
97 17 5
97 98 5
97 177 5
97 96 3
98 18 3
98 99 2
98 178 3
98 97 2
99 19 3
99 100 4
99 179 2
99 98 3
100 20 4
100 101 3
100 180 1
100 99 1
101 21 4
101 102 5
101 181 5
101 100 1
102 22 1
102 103 5
102 182 2
102 101 5
103 23 3
103 104 2
103 183 3
103 102 1
104 24 2
104 105 3
104 184 3
104 103 2
105 25 4
105 106 5
105 185 3
105 104 5
106 26 5
106 107 1
106 186 5
106 105 3
107 27 1
107 108 2
107 187 3
107 106 1
108 28 1
108 109 5
108 188 2
108 107 3
109 29 3
109 110 5
109 189 2
109 108 3
110 30 2
110 111 3
110 190 5
110 109 4
111 31 3
111 112 1
111 191 1
111 110 4
112 32 3
112 113 1
112 192 1
112 111 3
113 33 2
113 114 3
113 193 2
113 112 4
114 34 5
114 115 4
114 194 5
114 113 1
115 35 1
115 116 1
115 195 2
115 114 5
116 36 1
116 117 3
116 196 5
116 115 5
117 37 2
117 118 4
117 197 2
117 116 1
118 38 3
118 119 3
118 198 1
118 117 3
119 39 2
119 120 2
119 199 1
119 118 3
120 40 5
120 121 4
120 200 5
120 119 2
121 41 2
121 122 2
121 201 2
121 120 4
122 42 1
122 123 2
122 202 3
122 121 4
123 43 2
123 124 3
123 203 2
123 122 1
124 44 4
124 125 1
124 204 4
124 123 2
125 45 2
125 126 4
125 205 3
125 124 3
126 46 2
126 127 2
126 206 1
126 125 2
127 47 4
127 128 3
127 207 3
127 126 1
128 48 3
128 129 3
128 208 5
128 127 4
129 49 5
129 130 3
129 209 1
129 128 1
130 50 3
130 131 2
130 210 5
130 129 3
131 51 1
131 132 1
131 211 5
131 130 4
132 52 3
132 133 3
132 212 4
132 131 5
133 53 5
133 134 1
133 213 4
133 132 5
134 54 2
134 135 3
134 214 1
134 133 4
135 55 1
135 136 5
135 215 5
135 134 2
136 56 3
136 137 4
136 216 1
136 135 3
137 57 5
137 138 3
137 217 1
137 136 3
138 58 5
138 139 3
138 218 4
138 137 3
139 59 4
139 140 3
139 219 5
139 138 2
140 60 2
140 141 4
140 220 4
140 139 2
141 61 5
141 142 5
141 221 3
141 140 4
142 62 5
142 143 1
142 222 3
142 141 3
143 63 2
143 144 4
143 223 5
143 142 5
144 64 3
144 145 4
144 224 4
144 143 4
145 65 2
145 146 5
145 225 4
145 144 2
146 66 1
146 147 3
146 226 5
146 145 5
147 67 3
147 148 1
147 227 2
147 146 3
148 68 2
148 149 2
148 228 2
148 147 1
149 69 1
149 150 2
149 229 4
149 148 5
150 70 1
150 151 4
150 230 4
150 149 5
151 71 2
151 152 4
151 231 4
151 150 4
152 72 2
152 153 2
152 232 1
152 151 1
153 73 4
153 154 2
153 233 2
153 152 5
154 74 4
154 155 1
154 234 5
154 153 2
155 75 1
155 156 4
155 235 2
155 154 4
156 76 5
156 157 5
156 236 5
156 155 3
157 77 4
157 158 5
157 237 5
157 156 4
158 78 5
158 159 4
158 238 2
158 157 4
159 79 4
159 239 3
159 158 2
160 80 3
160 161 5
160 240 4
161 81 2
161 162 3
161 241 4
161 160 1
162 82 3
162 163 2
162 242 3
162 161 3
163 83 3
163 164 5
163 243 1
163 162 2
164 84 2
164 165 2
164 244 4
164 163 2
165 85 2
165 166 1
165 245 4
165 164 4
166 86 3
166 167 5
166 246 4
166 165 4
167 87 1
167 168 2
167 247 4
167 166 4
168 88 5
168 169 1
168 248 5
168 167 4
169 89 4
169 170 1
169 249 3
169 168 3
170 90 4
170 171 4
170 250 5
170 169 5
171 91 5
171 172 2
171 251 4
171 170 2
172 92 3
172 173 4
172 252 4
172 171 1
173 93 4
173 174 3
173 253 4
173 172 2
174 94 4
174 175 2
174 254 5
174 173 5
175 95 1
175 176 4
175 255 5
175 174 5
176 96 1
176 177 1
176 256 4
176 175 2
177 97 4
177 178 2
177 257 1
177 176 3
178 98 4
178 179 3
178 258 2
178 177 4
179 99 3
179 180 3
179 259 4
179 178 3
180 100 4
180 181 3
180 260 1
180 179 4
181 101 1
181 182 5
181 261 1
181 180 3
182 102 2
182 183 1
182 262 1
182 181 1
183 103 2
183 184 2
183 263 1
183 182 5
184 104 2
184 185 2
184 264 2
184 183 4
185 105 1
185 186 5
185 265 2
185 184 4
186 106 3
186 187 3
186 266 2
186 185 5
187 107 5
187 188 1
187 267 2
187 186 3
188 108 1
188 189 5
188 268 1
188 187 3
189 109 5
189 190 4
189 269 4
189 188 2
190 110 1
190 191 5
190 270 2
190 189 1
191 111 3
191 192 5
191 271 1
191 190 5
192 112 1
192 193 3
192 272 5
192 191 4
193 113 3
193 194 1
193 273 5
193 192 3
194 114 1
194 195 4
194 274 4
194 193 1
195 115 4
195 196 3
195 275 4
195 194 2
196 116 4
196 197 2
196 276 5
196 195 3
197 117 5
197 198 5
197 277 4
197 196 4
198 118 4
198 199 5
198 278 3
198 197 3
199 119 2
199 200 1
199 279 3
199 198 4
200 120 2
200 201 4
200 280 5
200 199 5
201 121 4
201 202 3
201 281 1
201 200 4
202 122 3
202 203 2
202 282 4
202 201 2
203 123 3
203 204 3
203 283 3
203 202 3
204 124 5
204 205 3
204 284 5
204 203 1
205 125 5
205 206 2
205 285 1
205 204 2
206 126 4
206 207 4
206 286 5
206 205 2
207 127 4
207 208 4
207 287 4
207 206 1
208 128 1
208 209 3
208 288 2
208 207 4
209 129 2
209 210 3
209 289 5
209 208 3
210 130 4
210 211 5
210 290 5
210 209 3
211 131 4
211 212 5
211 291 3
211 210 3
212 132 4
212 213 3
212 292 3
212 211 3
213 133 2
213 214 1
213 293 2
213 212 3
214 134 1
214 215 5
214 294 2
214 213 2
215 135 2
215 216 4
215 295 3
215 214 5
216 136 5
216 217 5
216 296 3
216 215 1
217 137 2
217 218 3
217 297 2
217 216 3
218 138 2
218 219 3
218 298 1
218 217 5
219 139 2
219 220 3
219 299 1
219 218 1
220 140 5
220 221 3
220 300 2
220 219 4
221 141 1
221 222 1
221 301 5
221 220 3
222 142 4
222 223 4
222 302 4
222 221 3
223 143 2
223 224 1
223 303 3
223 222 4
224 144 1
224 225 1
224 304 4
224 223 4
225 145 1
225 226 5
225 305 1
225 224 2
226 146 2
226 227 5
226 306 3
226 225 1
227 147 2
227 228 1
227 307 5
227 226 4
228 148 5
228 229 5
228 308 5
228 227 2
229 149 5
229 230 4
229 309 4
229 228 4
230 150 3
230 231 5
230 310 4
230 229 3
231 151 5
231 232 5
231 311 1
231 230 5
232 152 1
232 233 2
232 312 2
232 231 3
233 153 1
233 234 2
233 313 2
233 232 2
234 154 5
234 235 1
234 314 2
234 233 1
235 155 4
235 236 4
235 315 5
235 234 4
236 156 3
236 237 1
236 316 2
236 235 3
237 157 3
237 238 4
237 317 1
237 236 2
238 158 3
238 239 5
238 318 2
238 237 4
239 159 1
239 319 5
239 238 2
240 160 2
240 241 3
240 320 2
241 161 1
241 242 1
241 321 2
241 240 3
242 162 5
242 243 5
242 322 3
242 241 4
243 163 1
243 244 4
243 323 3
243 242 4
244 164 3
244 245 5
244 324 5
244 243 4
245 165 4
245 246 1
245 325 5
245 244 1
246 166 4
246 247 3
246 326 5
246 245 3
247 167 1
247 248 1
247 327 2
247 246 5
248 168 5
248 249 1
248 328 3
248 247 5
249 169 1
249 250 2
249 329 4
249 248 5
250 170 4
250 251 3
250 330 2
250 249 5
251 171 4
251 252 4
251 331 1
251 250 4
252 172 3
252 253 4
252 332 3
252 251 3
253 173 1
253 254 2
253 333 3
253 252 4
254 174 4
254 255 3
254 334 4
254 253 5
255 175 1
255 256 4
255 335 1
255 254 3
256 176 3
256 257 3
256 336 1
256 255 4
257 177 5
257 258 1
257 337 5
257 256 4
258 178 4
258 259 1
258 338 2
258 257 5
259 179 3
259 260 5
259 339 4
259 258 4
260 180 1
260 261 2
260 340 3
260 259 5
261 181 2
261 262 3
261 341 4
261 260 4
262 182 1
262 263 1
262 342 5
262 261 2
263 183 2
263 264 3
263 343 5
263 262 1
264 184 5
264 265 4
264 344 1
264 263 2
265 185 1
265 266 4
265 345 1
265 264 2
266 186 4
266 267 3
266 346 5
266 265 3
267 187 4
267 268 4
267 347 4
267 266 2
268 188 4
268 269 5
268 348 2
268 267 4
269 189 2
269 270 5
269 349 5
269 268 2
270 190 1
270 271 3
270 350 4
270 269 3
271 191 5
271 272 3
271 351 1
271 270 3
272 192 3
272 273 5
272 352 5
272 271 4
273 193 2
273 274 4
273 353 5
273 272 4
274 194 3
274 275 3
274 354 5
274 273 5
275 195 4
275 276 4
275 355 3
275 274 2
276 196 2
276 277 5
276 356 4
276 275 2
277 197 4
277 278 1
277 357 3
277 276 4
278 198 4
278 279 4
278 358 2
278 277 4
279 199 1
279 280 2
279 359 5
279 278 5
280 200 3
280 281 1
280 360 4
280 279 1
281 201 5
281 282 4
281 361 1
281 280 2
282 202 4
282 283 2
282 362 1
282 281 4
283 203 3
283 284 3
283 363 5
283 282 4
284 204 1
284 285 3
284 364 5
284 283 4
285 205 3
285 286 4
285 365 5
285 284 1
286 206 5
286 287 1
286 366 2
286 285 3
287 207 2
287 288 1
287 367 4
287 286 1
288 208 1
288 289 4
288 368 2
288 287 3
289 209 1
289 290 1
289 369 3
289 288 1
290 210 3
290 291 3
290 370 3
290 289 4
291 211 2
291 292 2
291 371 5
291 290 4
292 212 5
292 293 2
292 372 2
292 291 2
293 213 1
293 294 5
293 373 4
293 292 5
294 214 2
294 295 4
294 374 5
294 293 2
295 215 2
295 296 4
295 375 3
295 294 4
296 216 3
296 297 1
296 376 4
296 295 3
297 217 5
297 298 2
297 377 1
297 296 4
298 218 3
298 299 5
298 378 3
298 297 4
299 219 3
299 300 4
299 379 3
299 298 2
300 220 4
300 301 4
300 380 1
300 299 2
301 221 4
301 302 5
301 381 3
301 300 5
302 222 3
302 303 3
302 382 1
302 301 4
303 223 3
303 304 1
303 383 5
303 302 1
304 224 5
304 305 4
304 384 3
304 303 2
305 225 5
305 306 3
305 385 2
305 304 2
306 226 5
306 307 3
306 386 2
306 305 1
307 227 1
307 308 3
307 387 4
307 306 1
308 228 5
308 309 3
308 388 2
308 307 1
309 229 3
309 310 3
309 389 4
309 308 2
310 230 2
310 311 2
310 390 5
310 309 3
311 231 5
311 312 5
311 391 3
311 310 2
312 232 3
312 313 4
312 392 3
312 311 3
313 233 1
313 314 4
313 393 1
313 312 2
314 234 2
314 315 4
314 394 5
314 313 3
315 235 1
315 316 4
315 395 1
315 314 3
316 236 5
316 317 1
316 396 4
316 315 3
317 237 3
317 318 5
317 397 4
317 316 3
318 238 1
318 319 2
318 398 4
318 317 1
319 239 5
319 399 5
319 318 3
320 240 5
320 321 2
320 400 1
321 241 4
321 322 3
321 401 4
321 320 1
322 242 2
322 323 1
322 402 1
322 321 3
323 243 4
323 324 1
323 403 1
323 322 2
324 244 5
324 325 2
324 404 4
324 323 4
325 245 3
325 326 5
325 405 4
325 324 5
326 246 2
326 327 4
326 406 1
326 325 4
327 247 5
327 328 4
327 407 3
327 326 1
328 248 3
328 329 2
328 408 4
328 327 4
329 249 2
329 330 3
329 409 1
329 328 3
330 250 5
330 331 3
330 410 1
330 329 4
331 251 3
331 332 2
331 411 1
331 330 4
332 252 1
332 333 2
332 412 5
332 331 1
333 253 1
333 334 3
333 413 2
333 332 2
334 254 5
334 335 2
334 414 1
334 333 5
335 255 2
335 336 5
335 415 2
335 334 2
336 256 3
336 337 2
336 416 5
336 335 1
337 257 3
337 338 2
337 417 2
337 336 5
338 258 3
338 339 2
338 418 1
338 337 1
339 259 2
339 340 1
339 419 3
339 338 2
340 260 5
340 341 3
340 420 1
340 339 2
341 261 3
341 342 1
341 421 2
341 340 4
342 262 5
342 343 1
342 422 1
342 341 4
343 263 4
343 344 3
343 423 5
343 342 5
344 264 1
344 345 4
344 424 5
344 343 2
345 265 5
345 346 1
345 425 5
345 344 3
346 266 4
346 347 1
346 426 1
346 345 4
347 267 4
347 348 4
347 427 1
347 346 4
348 268 4
348 349 1
348 428 1
348 347 3
349 269 5
349 350 2
349 429 1
349 348 2
350 270 3
350 351 5
350 430 5
350 349 5
351 271 3
351 352 4
351 431 5
351 350 5
352 272 3
352 353 4
352 432 5
352 351 5
353 273 4
353 354 1
353 433 1
353 352 5
354 274 2
354 355 4
354 434 4
354 353 2
355 275 4
355 356 3
355 435 4
355 354 4
356 276 4
356 357 1
356 436 3
356 355 4
357 277 3
357 358 3
357 437 3
357 356 2
358 278 4
358 359 1
358 438 1
358 357 1
359 279 1
359 360 4
359 439 1
359 358 3
360 280 2
360 361 5
360 440 1
360 359 5
361 281 5
361 362 5
361 441 3
361 360 1
362 282 4
362 363 3
362 442 4
362 361 1
363 283 3
363 364 5
363 443 3
363 362 3
364 284 1
364 365 5
364 444 5
364 363 2
365 285 2
365 366 4
365 445 2
365 364 1
366 286 3
366 367 5
366 446 3
366 365 1
367 287 3
367 368 5
367 447 2
367 366 4
368 288 5
368 369 5
368 448 5
368 367 5
369 289 1
369 370 5
369 449 3
369 368 1
370 290 2
370 371 3
370 450 3
370 369 3
371 291 3
371 372 1
371 451 2
371 370 2
372 292 5
372 373 4
372 452 1
372 371 2
373 293 1
373 374 1
373 453 5
373 372 2
374 294 4
374 375 4
374 454 4
374 373 3
375 295 2
375 376 3
375 455 3
375 374 3
376 296 5
376 377 5
376 456 1
376 375 1
377 297 2
377 378 2
377 457 5
377 376 1
378 298 1
378 379 3
378 458 4
378 377 4
379 299 4
379 380 5
379 459 4
379 378 4
380 300 3
380 381 2
380 460 5
380 379 1
381 301 3
381 382 4
381 461 1
381 380 3
382 302 5
382 383 4
382 462 5
382 381 3
383 303 1
383 384 2
383 463 4
383 382 5
384 304 1
384 385 1
384 464 2
384 383 3
385 305 2
385 386 2
385 465 3
385 384 3
386 306 3
386 387 1
386 466 1
386 385 4
387 307 4
387 388 2
387 467 2
387 386 4
388 308 5
388 389 2
388 468 5
388 387 5
389 309 3
389 390 1
389 469 4
389 388 1
390 310 4
390 391 1
390 470 4
390 389 1
391 311 3
391 392 5
391 471 4
391 390 5
392 312 4
392 393 4
392 472 3
392 391 1
393 313 4
393 394 1
393 473 3
393 392 2
394 314 5
394 395 4
394 474 3
394 393 1
395 315 4
395 396 1
395 475 2
395 394 4
396 316 5
396 397 4
396 476 5
396 395 1
397 317 4
397 398 3
397 477 3
397 396 2
398 318 3
398 399 2
398 478 1
398 397 5
399 319 1
399 479 5
399 398 5
400 320 2
400 401 3
400 480 3
401 321 2
401 402 2
401 481 1
401 400 2
402 322 3
402 403 2
402 482 2
402 401 5
403 323 2
403 404 1
403 483 2
403 402 4
404 324 4
404 405 5
404 484 5
404 403 4
405 325 5
405 406 5
405 485 3
405 404 3
406 326 2
406 407 4
406 486 1
406 405 4
407 327 4
407 408 3
407 487 3
407 406 5
408 328 1
408 409 3
408 488 5
408 407 1
409 329 3
409 410 4
409 489 4
409 408 1
410 330 1
410 411 3
410 490 3
410 409 1
411 331 1
411 412 5
411 491 5
411 410 5
412 332 4
412 413 4
412 492 5
412 411 5
413 333 1
413 414 4
413 493 5
413 412 2
414 334 3
414 415 5
414 494 4
414 413 5
415 335 2
415 416 1
415 495 4
415 414 1
416 336 3
416 417 1
416 496 5
416 415 2
417 337 1
417 418 2
417 497 4
417 416 4
418 338 5
418 419 5
418 498 5
418 417 2
419 339 3
419 420 3
419 499 3
419 418 4
420 340 4
420 421 3
420 500 5
420 419 1
421 341 3
421 422 1
421 501 3
421 420 1
422 342 5
422 423 4
422 502 3
422 421 3
423 343 5
423 424 2
423 503 3
423 422 1
424 344 5
424 425 2
424 504 3
424 423 3
425 345 4
425 426 2
425 505 5
425 424 1
426 346 3
426 427 5
426 506 4
426 425 3
427 347 2
427 428 5
427 507 1
427 426 4
428 348 5
428 429 3
428 508 1
428 427 3
429 349 3
429 430 2
429 509 2
429 428 3
430 350 4
430 431 2
430 510 2
430 429 2
431 351 2
431 432 1
431 511 3
431 430 1
432 352 5
432 433 5
432 512 5
432 431 1
433 353 3
433 434 5
433 513 2
433 432 5
434 354 4
434 435 2
434 514 2
434 433 2
435 355 5
435 436 2
435 515 4
435 434 1
436 356 4
436 437 3
436 516 2
436 435 4
437 357 5
437 438 3
437 517 4
437 436 2
438 358 5
438 439 2
438 518 3
438 437 4
439 359 2
439 440 3
439 519 5
439 438 4
440 360 4
440 441 3
440 520 4
440 439 5
441 361 5
441 442 4
441 521 2
441 440 2
442 362 5
442 443 2
442 522 3
442 441 1
443 363 4
443 444 3
443 523 5
443 442 1
444 364 5
444 445 1
444 524 3
444 443 1
445 365 2
445 446 3
445 525 4
445 444 5
446 366 2
446 447 4
446 526 1
446 445 2
447 367 4
447 448 3
447 527 1
447 446 4
448 368 1
448 449 4
448 528 5
448 447 3
449 369 2
449 450 4
449 529 1
449 448 3
450 370 2
450 451 1
450 530 3
450 449 1
451 371 3
451 452 2
451 531 2
451 450 1
452 372 3
452 453 4
452 532 2
452 451 4
453 373 4
453 454 5
453 533 1
453 452 1
454 374 1
454 455 3
454 534 2
454 453 2
455 375 5
455 456 5
455 535 5
455 454 4
456 376 1
456 457 3
456 536 2
456 455 3
457 377 1
457 458 1
457 537 2
457 456 4
458 378 5
458 459 4
458 538 1
458 457 1
459 379 4
459 460 5
459 539 5
459 458 1
460 380 5
460 461 5
460 540 2
460 459 2
461 381 3
461 462 4
461 541 1
461 460 5
462 382 3
462 463 2
462 542 5
462 461 4
463 383 2
463 464 1
463 543 5
463 462 3
464 384 1
464 465 5
464 544 5
464 463 5
465 385 5
465 466 5
465 545 1
465 464 4
466 386 4
466 467 1
466 546 4
466 465 3
467 387 3
467 468 1
467 547 3
467 466 1
468 388 3
468 469 2
468 548 1
468 467 5
469 389 3
469 470 2
469 549 1
469 468 3
470 390 5
470 471 3
470 550 2
470 469 4
471 391 4
471 472 2
471 551 2
471 470 1
472 392 4
472 473 1
472 552 3
472 471 2
473 393 1
473 474 2
473 553 1
473 472 3
474 394 3
474 475 5
474 554 4
474 473 5
475 395 4
475 476 3
475 555 1
475 474 2
476 396 3
476 477 3
476 556 1
476 475 3
477 397 3
477 478 1
477 557 3
477 476 4
478 398 4
478 479 4
478 558 4
478 477 3
479 399 2
479 559 4
479 478 4
480 400 3
480 481 5
480 560 3
481 401 1
481 482 4
481 561 1
481 480 4
482 402 5
482 483 2
482 562 5
482 481 3
483 403 3
483 484 1
483 563 1
483 482 3
484 404 3
484 485 3
484 564 4
484 483 5
485 405 4
485 486 2
485 565 4
485 484 3
486 406 4
486 487 1
486 566 3
486 485 5
487 407 4
487 488 3
487 567 1
487 486 1
488 408 4
488 489 3
488 568 5
488 487 2
489 409 1
489 490 2
489 569 5
489 488 4
490 410 1
490 491 2
490 570 1
490 489 2
491 411 3
491 492 3
491 571 4
491 490 5
492 412 1
492 493 5
492 572 2
492 491 4
493 413 3
493 494 3
493 573 4
493 492 1
494 414 5
494 495 2
494 574 5
494 493 3
495 415 4
495 496 3
495 575 3
495 494 2
496 416 1
496 497 1
496 576 2
496 495 4
497 417 5
497 498 4
497 577 5
497 496 1
498 418 3
498 499 3
498 578 4
498 497 2
499 419 5
499 500 3
499 579 4
499 498 2
500 420 1
500 501 2
500 580 1
500 499 4
501 421 2
501 502 4
501 581 1
501 500 3
502 422 3
502 503 1
502 582 5
502 501 5
503 423 3
503 504 3
503 583 2
503 502 2
504 424 3
504 505 5
504 584 2
504 503 1
505 425 2
505 506 2
505 585 2
505 504 4
506 426 1
506 507 3
506 586 5
506 505 5
507 427 3
507 508 4
507 587 5
507 506 2
508 428 5
508 509 1
508 588 1
508 507 3
509 429 4
509 510 4
509 589 5
509 508 4
510 430 4
510 511 5
510 590 1
510 509 2
511 431 3
511 512 1
511 591 4
511 510 4
512 432 5
512 513 3
512 592 2
512 511 5
513 433 5
513 514 2
513 593 2
513 512 4
514 434 5
514 515 1
514 594 1
514 513 5
515 435 2
515 516 3
515 595 2
515 514 2
516 436 3
516 517 2
516 596 3
516 515 5
517 437 3
517 518 1
517 597 3
517 516 2
518 438 5
518 519 3
518 598 2
518 517 3
519 439 5
519 520 5
519 599 1
519 518 5
520 440 2
520 521 5
520 600 5
520 519 2
521 441 2
521 522 5
521 601 5
521 520 3
522 442 5
522 523 1
522 602 1
522 521 1
523 443 1
523 524 5
523 603 3
523 522 2
524 444 5
524 525 4
524 604 5
524 523 1
525 445 4
525 526 5
525 605 3
525 524 3
526 446 4
526 527 2
526 606 4
526 525 3
527 447 4
527 528 1
527 607 1
527 526 2
528 448 4
528 529 4
528 608 4
528 527 4
529 449 2
529 530 3
529 609 5
529 528 2
530 450 3
530 531 3
530 610 3
530 529 4
531 451 2
531 532 3
531 611 5
531 530 5
532 452 1
532 533 3
532 612 2
532 531 4
533 453 1
533 534 3
533 613 4
533 532 2
534 454 2
534 535 1
534 614 1
534 533 3
535 455 4
535 536 5
535 615 4
535 534 2
536 456 2
536 537 3
536 616 5
536 535 3
537 457 2
537 538 2
537 617 4
537 536 5
538 458 4
538 539 4
538 618 3
538 537 4
539 459 1
539 540 1
539 619 4
539 538 5
540 460 4
540 541 2
540 620 2
540 539 5
541 461 3
541 542 1
541 621 1
541 540 3
542 462 4
542 543 5
542 622 4
542 541 3
543 463 5
543 544 1
543 623 1
543 542 4
544 464 2
544 545 3
544 624 3
544 543 4
545 465 3
545 546 1
545 625 4
545 544 1
546 466 5
546 547 5
546 626 2
546 545 3
547 467 5
547 548 3
547 627 1
547 546 4
548 468 5
548 549 4
548 628 5
548 547 3
549 469 5
549 550 5
549 629 1
549 548 2
550 470 1
550 551 4
550 630 3
550 549 3
551 471 5
551 552 3
551 631 2
551 550 2
552 472 5
552 553 5
552 632 4
552 551 5
553 473 1
553 554 1
553 633 1
553 552 2
554 474 3
554 555 4
554 634 5
554 553 4
555 475 2
555 556 5
555 635 5
555 554 2
556 476 3
556 557 5
556 636 3
556 555 2
557 477 4
557 558 5
557 637 3
557 556 5
558 478 3
558 559 5
558 638 5
558 557 5
559 479 4
559 639 5
559 558 3
560 480 4
560 561 1
560 640 3
561 481 3
561 562 1
561 641 4
561 560 5
562 482 3
562 563 1
562 642 5
562 561 4
563 483 3
563 564 5
563 643 5
563 562 2
564 484 1
564 565 5
564 644 4
564 563 2
565 485 5
565 566 5
565 645 4
565 564 2
566 486 2
566 567 1
566 646 5
566 565 1
567 487 2
567 568 1
567 647 4
567 566 3
568 488 4
568 569 2
568 648 4
568 567 2
569 489 4
569 570 5
569 649 5
569 568 4
570 490 1
570 571 2
570 650 5
570 569 2
571 491 5
571 572 3
571 651 4
571 570 5
572 492 4
572 573 3
572 652 2
572 571 4
573 493 5
573 574 3
573 653 5
573 572 3
574 494 3
574 575 5
574 654 4
574 573 2
575 495 2
575 576 3
575 655 5
575 574 3
576 496 2
576 577 3
576 656 3
576 575 2
577 497 4
577 578 3
577 657 4
577 576 3
578 498 5
578 579 3
578 658 3
578 577 1
579 499 5
579 580 5
579 659 4
579 578 4
580 500 3
580 581 2
580 660 3
580 579 1
581 501 3
581 582 1
581 661 3
581 580 4
582 502 3
582 583 4
582 662 2
582 581 2
583 503 5
583 584 3
583 663 5
583 582 3
584 504 2
584 585 1
584 664 5
584 583 5
585 505 2
585 586 2
585 665 1
585 584 5
586 506 2
586 587 2
586 666 1
586 585 1
587 507 4
587 588 3
587 667 4
587 586 1
588 508 2
588 589 1
588 668 5
588 587 2
589 509 4
589 590 4
589 669 4
589 588 2
590 510 3
590 591 3
590 670 3
590 589 1
591 511 1
591 592 5
591 671 2
591 590 5
592 512 1
592 593 2
592 672 4
592 591 2
593 513 1
593 594 4
593 673 4
593 592 2
594 514 3
594 595 1
594 674 1
594 593 3
595 515 5
595 596 5
595 675 1
595 594 3
596 516 3
596 597 4
596 676 5
596 595 5
597 517 4
597 598 2
597 677 5
597 596 4
598 518 3
598 599 2
598 678 1
598 597 3
599 519 2
599 600 4
599 679 3
599 598 2
600 520 1
600 601 3
600 680 3
600 599 5
601 521 2
601 602 2
601 681 5
601 600 4
602 522 4
602 603 5
602 682 3
602 601 1
603 523 4
603 604 1
603 683 2
603 602 2
604 524 4
604 605 3
604 684 2
604 603 1
605 525 3
605 606 4
605 685 2
605 604 4
606 526 3
606 607 3
606 686 3
606 605 5
607 527 5
607 608 1
607 687 3
607 606 3
608 528 2
608 609 1
608 688 1
608 607 4
609 529 3
609 610 2
609 689 4
609 608 5
610 530 3
610 611 1
610 690 3
610 609 3
611 531 5
611 612 2
611 691 2
611 610 2
612 532 4
612 613 2
612 692 4
612 611 5
613 533 3
613 614 4
613 693 5
613 612 4
614 534 5
614 615 2
614 694 2
614 613 5
615 535 1
615 616 5
615 695 4
615 614 5
616 536 3
616 617 1
616 696 5
616 615 1
617 537 1
617 618 5
617 697 5
617 616 2
618 538 5
618 619 5
618 698 2
618 617 2
619 539 3
619 620 5
619 699 4
619 618 1
620 540 2
620 621 5
620 700 4
620 619 1
621 541 5
621 622 4
621 701 1
621 620 4
622 542 2
622 623 5
622 702 4
622 621 4
623 543 5
623 624 1
623 703 5
623 622 4
624 544 3
624 625 1
624 704 4
624 623 3
625 545 1
625 626 2
625 705 5
625 624 1
626 546 1
626 627 4
626 706 3
626 625 1
627 547 5
627 628 1
627 707 1
627 626 4
628 548 1
628 629 3
628 708 4
628 627 2
629 549 2
629 630 4
629 709 3
629 628 4
630 550 4
630 631 4
630 710 4
630 629 1
631 551 5
631 632 2
631 711 3
631 630 1
632 552 2
632 633 5
632 712 4
632 631 5
633 553 2
633 634 2
633 713 1
633 632 1
634 554 3
634 635 4
634 714 5
634 633 4
635 555 5
635 636 4
635 715 2
635 634 2
636 556 4
636 637 3
636 716 2
636 635 3
637 557 2
637 638 1
637 717 1
637 636 4
638 558 5
638 639 1
638 718 2
638 637 2
639 559 1
639 719 1
639 638 5
640 560 1
640 641 4
640 720 5
641 561 1
641 642 2
641 721 1
641 640 4
642 562 4
642 643 2
642 722 5
642 641 2
643 563 1
643 644 2
643 723 5
643 642 3
644 564 2
644 645 5
644 724 3
644 643 5
645 565 5
645 646 3
645 725 2
645 644 3
646 566 2
646 647 5
646 726 2
646 645 4
647 567 3
647 648 3
647 727 1
647 646 5
648 568 5
648 649 2
648 728 4
648 647 5
649 569 4
649 650 1
649 729 3
649 648 4
650 570 5
650 651 3
650 730 4
650 649 4
651 571 2
651 652 3
651 731 4
651 650 2
652 572 5
652 653 4
652 732 2
652 651 2
653 573 3
653 654 2
653 733 4
653 652 1
654 574 5
654 655 4
654 734 4
654 653 5
655 575 5
655 656 2
655 735 4
655 654 2
656 576 3
656 657 2
656 736 3
656 655 1
657 577 4
657 658 3
657 737 1
657 656 5
658 578 2
658 659 1
658 738 3
658 657 4
659 579 5
659 660 5
659 739 1
659 658 1
660 580 2
660 661 5
660 740 5
660 659 2
661 581 4
661 662 2
661 741 3
661 660 3
662 582 1
662 663 2
662 742 2
662 661 1
663 583 4
663 664 2
663 743 5
663 662 2
664 584 4
664 665 2
664 744 5
664 663 3
665 585 3
665 666 4
665 745 4
665 664 5
666 586 3
666 667 3
666 746 3
666 665 3
667 587 5
667 668 4
667 747 4
667 666 1
668 588 4
668 669 3
668 748 2
668 667 3
669 589 3
669 670 4
669 749 1
669 668 5
670 590 2
670 671 2
670 750 1
670 669 3
671 591 5
671 672 5
671 751 5
671 670 4
672 592 3
672 673 2
672 752 2
672 671 3
673 593 2
673 674 4
673 753 5
673 672 2
674 594 4
674 675 5
674 754 3
674 673 3
675 595 4
675 676 4
675 755 4
675 674 2
676 596 3
676 677 2
676 756 2
676 675 5
677 597 4
677 678 2
677 757 5
677 676 1
678 598 5
678 679 1
678 758 1
678 677 1
679 599 1
679 680 4
679 759 2
679 678 2
680 600 1
680 681 2
680 760 1
680 679 2
681 601 5
681 682 4
681 761 3
681 680 1
682 602 5
682 683 5
682 762 4
682 681 4
683 603 1
683 684 1
683 763 5
683 682 5
684 604 4
684 685 1
684 764 1
684 683 5
685 605 3
685 686 5
685 765 3
685 684 1
686 606 5
686 687 4
686 766 2
686 685 1
687 607 1
687 688 5
687 767 2
687 686 2
688 608 2
688 689 5
688 768 5
688 687 3
689 609 3
689 690 3
689 769 4
689 688 1
690 610 3
690 691 4
690 770 4
690 689 5
691 611 2
691 692 2
691 771 3
691 690 1
692 612 1
692 693 1
692 772 4
692 691 4
693 613 4
693 694 5
693 773 4
693 692 1
694 614 1
694 695 2
694 774 1
694 693 4
695 615 4
695 696 3
695 775 5
695 694 1
696 616 5
696 697 1
696 776 2
696 695 2
697 617 5
697 698 4
697 777 3
697 696 1
698 618 1
698 699 3
698 778 5
698 697 5
699 619 1
699 700 2
699 779 3
699 698 1
700 620 2
700 701 5
700 780 2
700 699 4
701 621 1
701 702 3
701 781 2
701 700 5
702 622 2
702 703 5
702 782 4
702 701 5
703 623 3
703 704 4
703 783 2
703 702 1
704 624 5
704 705 3
704 784 1
704 703 1
705 625 4
705 706 2
705 785 1
705 704 3
706 626 5
706 707 5
706 786 5
706 705 4
707 627 3
707 708 1
707 787 3
707 706 4
708 628 4
708 709 2
708 788 3
708 707 5
709 629 4
709 710 4
709 789 2
709 708 5
710 630 4
710 711 1
710 790 5
710 709 3
711 631 2
711 712 1
711 791 1
711 710 3
712 632 2
712 713 4
712 792 2
712 711 4
713 633 3
713 714 3
713 793 1
713 712 1
714 634 1
714 715 3
714 794 4
714 713 3
715 635 3
715 716 1
715 795 2
715 714 1
716 636 2
716 717 4
716 796 4
716 715 5
717 637 5
717 718 5
717 797 4
717 716 1
718 638 1
718 719 1
718 798 3
718 717 5
719 639 1
719 799 5
719 718 5
720 640 3
720 721 4
720 800 1
721 641 3
721 722 4
721 801 4
721 720 1
722 642 5
722 723 2
722 802 5
722 721 5
723 643 2
723 724 4
723 803 2
723 722 2
724 644 3
724 725 3
724 804 3
724 723 4
725 645 2
725 726 1
725 805 2
725 724 4
726 646 3
726 727 4
726 806 3
726 725 4
727 647 1
727 728 3
727 807 3
727 726 2
728 648 4
728 729 5
728 808 5
728 727 2
729 649 4
729 730 1
729 809 2
729 728 3
730 650 1
730 731 4
730 810 3
730 729 5
731 651 4
731 732 3
731 811 4
731 730 3
732 652 4
732 733 5
732 812 2
732 731 3
733 653 3
733 734 5
733 813 2
733 732 4
734 654 3
734 735 2
734 814 4
734 733 3
735 655 3
735 736 4
735 815 5
735 734 2
736 656 3
736 737 4
736 816 3
736 735 4
737 657 3
737 738 1
737 817 5
737 736 2
738 658 5
738 739 5
738 818 2
738 737 5
739 659 1
739 740 4
739 819 2
739 738 4
740 660 3
740 741 1
740 820 4
740 739 4
741 661 2
741 742 3
741 821 2
741 740 3
742 662 2
742 743 4
742 822 4
742 741 1
743 663 4
743 744 5
743 823 4
743 742 5
744 664 4
744 745 5
744 824 5
744 743 4
745 665 5
745 746 1
745 825 3
745 744 5
746 666 5
746 747 1
746 826 1
746 745 2
747 667 3
747 748 2
747 827 5
747 746 1
748 668 5
748 749 4
748 828 3
748 747 4
749 669 1
749 750 1
749 829 1
749 748 3
750 670 2
750 751 5
750 830 5
750 749 5
751 671 5
751 752 5
751 831 2
751 750 4
752 672 3
752 753 4
752 832 4
752 751 5
753 673 5
753 754 2
753 833 3
753 752 1
754 674 4
754 755 1
754 834 3
754 753 4
755 675 1
755 756 1
755 835 2
755 754 3
756 676 3
756 757 3
756 836 4
756 755 2
757 677 5
757 758 4
757 837 3
757 756 4
758 678 1
758 759 4
758 838 4
758 757 3
759 679 1
759 760 3
759 839 1
759 758 1
760 680 1
760 761 3
760 840 1
760 759 2
761 681 2
761 762 5
761 841 2
761 760 5
762 682 2
762 763 3
762 842 5
762 761 4
763 683 4
763 764 2
763 843 4
763 762 2
764 684 2
764 765 4
764 844 4
764 763 1
765 685 5
765 766 2
765 845 4
765 764 5
766 686 4
766 767 4
766 846 1
766 765 2
767 687 2
767 768 3
767 847 1
767 766 5
768 688 1
768 769 5
768 848 2
768 767 3
769 689 3
769 770 2
769 849 4
769 768 1
770 690 3
770 771 4
770 850 5
770 769 3
771 691 5
771 772 4
771 851 5
771 770 4
772 692 5
772 773 1
772 852 3
772 771 3
773 693 4
773 774 5
773 853 2
773 772 3
774 694 5
774 775 5
774 854 1
774 773 2
775 695 3
775 776 1
775 855 2
775 774 3
776 696 1
776 777 2
776 856 3
776 775 2
777 697 5
777 778 4
777 857 4
777 776 5
778 698 2
778 779 5
778 858 4
778 777 4
779 699 2
779 780 4
779 859 5
779 778 2
780 700 5
780 781 2
780 860 4
780 779 3
781 701 2
781 782 2
781 861 3
781 780 4
782 702 5
782 783 1
782 862 3
782 781 1
783 703 4
783 784 2
783 863 2
783 782 4
784 704 5
784 785 5
784 864 4
784 783 4
785 705 4
785 786 4
785 865 4
785 784 4
786 706 2
786 787 1
786 866 5
786 785 1
787 707 2
787 788 3
787 867 1
787 786 3
788 708 2
788 789 5
788 868 3
788 787 2
789 709 4
789 790 5
789 869 4
789 788 5
790 710 5
790 791 1
790 870 5
790 789 1
791 711 3
791 792 5
791 871 3
791 790 5
792 712 1
792 793 4
792 872 5
792 791 2
793 713 4
793 794 1
793 873 2
793 792 3
794 714 1
794 795 4
794 874 3
794 793 3
795 715 1
795 796 4
795 875 1
795 794 2
796 716 2
796 797 5
796 876 3
796 795 5
797 717 4
797 798 2
797 877 5
797 796 2
798 718 2
798 799 2
798 878 1
798 797 5
799 719 3
799 879 5
799 798 3
800 720 5
800 801 5
800 880 2
801 721 3
801 802 3
801 881 3
801 800 5
802 722 3
802 803 5
802 882 1
802 801 2
803 723 4
803 804 1
803 883 3
803 802 2
804 724 2
804 805 2
804 884 2
804 803 3
805 725 2
805 806 4
805 885 4
805 804 2
806 726 5
806 807 3
806 886 4
806 805 4
807 727 4
807 808 1
807 887 1
807 806 4
808 728 5
808 809 3
808 888 3
808 807 4
809 729 4
809 810 3
809 889 5
809 808 1
810 730 1
810 811 4
810 890 3
810 809 1
811 731 5
811 812 4
811 891 2
811 810 4
812 732 2
812 813 4
812 892 3
812 811 3
813 733 3
813 814 3
813 893 5
813 812 5
814 734 2
814 815 5
814 894 4
814 813 3
815 735 1
815 816 1
815 895 1
815 814 4
816 736 1
816 817 1
816 896 2
816 815 4
817 737 4
817 818 1
817 897 4
817 816 2
818 738 2
818 819 3
818 898 2
818 817 3
819 739 1
819 820 3
819 899 3
819 818 1
820 740 3
820 821 2
820 900 1
820 819 4
821 741 3
821 822 2
821 901 4
821 820 1
822 742 1
822 823 1
822 902 2
822 821 4
823 743 1
823 824 2
823 903 5
823 822 2
824 744 5
824 825 4
824 904 1
824 823 1
825 745 3
825 826 1
825 905 4
825 824 2
826 746 4
826 827 1
826 906 2
826 825 4
827 747 1
827 828 1
827 907 1
827 826 3
828 748 3
828 829 3
828 908 2
828 827 4
829 749 2
829 830 2
829 909 1
829 828 5
830 750 5
830 831 1
830 910 5
830 829 2
831 751 4
831 832 3
831 911 2
831 830 2
832 752 4
832 833 5
832 912 4
832 831 2
833 753 1
833 834 1
833 913 2
833 832 1
834 754 5
834 835 4
834 914 3
834 833 4
835 755 3
835 836 2
835 915 2
835 834 3
836 756 1
836 837 2
836 916 5
836 835 5
837 757 5
837 838 5
837 917 3
837 836 1
838 758 3
838 839 2
838 918 5
838 837 5
839 759 5
839 840 2
839 919 4
839 838 3
840 760 1
840 841 2
840 920 4
840 839 4
841 761 1
841 842 2
841 921 4
841 840 5
842 762 1
842 843 5
842 922 1
842 841 3
843 763 3
843 844 2
843 923 4
843 842 5
844 764 4
844 845 3
844 924 5
844 843 2
845 765 4
845 846 1
845 925 1
845 844 5
846 766 1
846 847 1
846 926 3
846 845 2
847 767 1
847 848 1
847 927 4
847 846 5
848 768 3
848 849 5
848 928 4
848 847 4
849 769 4
849 850 1
849 929 5
849 848 5
850 770 5
850 851 2
850 930 3
850 849 1
851 771 3
851 852 1
851 931 5
851 850 2
852 772 2
852 853 5
852 932 3
852 851 4
853 773 5
853 854 1
853 933 3
853 852 4
854 774 2
854 855 1
854 934 2
854 853 1
855 775 4
855 856 1
855 935 4
855 854 5
856 776 5
856 857 1
856 936 3
856 855 2
857 777 1
857 858 1
857 937 2
857 856 1
858 778 2
858 859 4
858 938 3
858 857 5
859 779 5
859 860 3
859 939 2
859 858 3
860 780 2
860 861 3
860 940 1
860 859 1
861 781 3
861 862 4
861 941 3
861 860 5
862 782 1
862 863 3
862 942 5
862 861 1
863 783 4
863 864 4
863 943 5
863 862 3
864 784 1
864 865 4
864 944 5
864 863 2
865 785 3
865 866 2
865 945 3
865 864 1
866 786 5
866 867 1
866 946 2
866 865 5
867 787 1
867 868 1
867 947 1
867 866 2
868 788 1
868 869 4
868 948 3
868 867 4
869 789 2
869 870 2
869 949 1
869 868 5
870 790 4
870 871 2
870 950 3
870 869 2
871 791 4
871 872 3
871 951 3
871 870 1
872 792 5
872 873 3
872 952 1
872 871 5
873 793 1
873 874 2
873 953 2
873 872 5
874 794 1
874 875 4
874 954 1
874 873 4
875 795 3
875 876 3
875 955 3
875 874 1
876 796 5
876 877 4
876 956 1
876 875 3
877 797 2
877 878 3
877 957 5
877 876 3
878 798 5
878 879 2
878 958 4
878 877 3
879 799 5
879 959 4
879 878 2
880 800 5
880 881 2
880 960 2
881 801 1
881 882 4
881 961 1
881 880 2
882 802 5
882 883 3
882 962 1
882 881 3
883 803 1
883 884 4
883 963 3
883 882 1
884 804 2
884 885 5
884 964 2
884 883 4
885 805 4
885 886 1
885 965 2
885 884 3
886 806 1
886 887 1
886 966 2
886 885 5
887 807 4
887 888 3
887 967 4
887 886 1
888 808 5
888 889 1
888 968 5
888 887 2
889 809 4
889 890 1
889 969 5
889 888 5
890 810 1
890 891 4
890 970 2
890 889 2
891 811 3
891 892 3
891 971 3
891 890 4
892 812 3
892 893 3
892 972 4
892 891 3
893 813 2
893 894 1
893 973 2
893 892 2
894 814 5
894 895 1
894 974 2
894 893 1
895 815 2
895 896 4
895 975 4
895 894 3
896 816 4
896 897 1
896 976 5
896 895 3
897 817 2
897 898 4
897 977 3
897 896 4
898 818 3
898 899 1
898 978 1
898 897 2
899 819 3
899 900 5
899 979 1
899 898 2
900 820 3
900 901 2
900 980 1
900 899 2
901 821 3
901 902 4
901 981 5
901 900 1
902 822 3
902 903 3
902 982 2
902 901 1
903 823 4
903 904 4
903 983 5
903 902 5
904 824 2
904 905 1
904 984 4
904 903 1
905 825 2
905 906 1
905 985 1
905 904 1
906 826 2
906 907 2
906 986 2
906 905 4
907 827 3
907 908 1
907 987 5
907 906 5
908 828 3
908 909 1
908 988 1
908 907 1
909 829 2
909 910 4
909 989 2
909 908 1
910 830 3
910 911 1
910 990 1
910 909 4
911 831 1
911 912 2
911 991 5
911 910 4
912 832 4
912 913 4
912 992 1
912 911 4
913 833 4
913 914 2
913 993 3
913 912 2
914 834 2
914 915 3
914 994 3
914 913 4
915 835 2
915 916 1
915 995 5
915 914 5
916 836 5
916 917 2
916 996 3
916 915 4
917 837 4
917 918 5
917 997 4
917 916 1
918 838 1
918 919 3
918 998 4
918 917 2
919 839 4
919 920 2
919 999 5
919 918 2
920 840 5
920 921 1
920 1000 4
920 919 3
921 841 4
921 922 5
921 1001 4
921 920 3
922 842 5
922 923 5
922 1002 3
922 921 4
923 843 3
923 924 2
923 1003 1
923 922 3
924 844 5
924 925 2
924 1004 1
924 923 3
925 845 1
925 926 4
925 1005 5
925 924 3
926 846 5
926 927 2
926 1006 2
926 925 1
927 847 2
927 928 2
927 1007 3
927 926 5
928 848 1
928 929 2
928 1008 5
928 927 4
929 849 3
929 930 2
929 1009 2
929 928 2
930 850 5
930 931 3
930 1010 3
930 929 5
931 851 1
931 932 3
931 1011 5
931 930 5
932 852 2
932 933 5
932 1012 2
932 931 4
933 853 5
933 934 3
933 1013 2
933 932 4
934 854 1
934 935 1
934 1014 1
934 933 2
935 855 5
935 936 2
935 1015 1
935 934 5
936 856 4
936 937 1
936 1016 3
936 935 5
937 857 2
937 938 2
937 1017 3
937 936 2
938 858 3
938 939 1
938 1018 1
938 937 2
939 859 5
939 940 2
939 1019 1
939 938 5
940 860 3
940 941 1
940 1020 3
940 939 4
941 861 5
941 942 1
941 1021 3
941 940 3
942 862 3
942 943 2
942 1022 2
942 941 4
943 863 4
943 944 3
943 1023 2
943 942 5
944 864 5
944 945 3
944 1024 2
944 943 5
945 865 2
945 946 4
945 1025 3
945 944 3
946 866 2
946 947 2
946 1026 1
946 945 5
947 867 4
947 948 5
947 1027 1
947 946 2
948 868 5
948 949 3
948 1028 5
948 947 2
949 869 5
949 950 1
949 1029 4
949 948 2
950 870 3
950 951 1
950 1030 2
950 949 3
951 871 3
951 952 2
951 1031 1
951 950 3
952 872 4
952 953 1
952 1032 3
952 951 2
953 873 2
953 954 1
953 1033 3
953 952 3
954 874 1
954 955 1
954 1034 1
954 953 4
955 875 4
955 956 4
955 1035 2
955 954 4
956 876 4
956 957 4
956 1036 3
956 955 5
957 877 4
957 958 1
957 1037 4
957 956 5
958 878 2
958 959 2
958 1038 4
958 957 1
959 879 1
959 1039 3
959 958 1
960 880 3
960 961 3
960 1040 1
961 881 1
961 962 3
961 1041 2
961 960 4
962 882 2
962 963 1
962 1042 5
962 961 1
963 883 3
963 964 5
963 1043 5
963 962 4
964 884 1
964 965 4
964 1044 2
964 963 5
965 885 4
965 966 2
965 1045 1
965 964 1
966 886 3
966 967 2
966 1046 2
966 965 4
967 887 5
967 968 5
967 1047 3
967 966 3
968 888 3
968 969 2
968 1048 1
968 967 1
969 889 4
969 970 5
969 1049 5
969 968 4
970 890 2
970 971 1
970 1050 3
970 969 1
971 891 4
971 972 1
971 1051 3
971 970 5
972 892 4
972 973 2
972 1052 1
972 971 1
973 893 2
973 974 2
973 1053 3
973 972 1
974 894 4
974 975 1
974 1054 3
974 973 4
975 895 4
975 976 4
975 1055 3
975 974 1
976 896 5
976 977 4
976 1056 2
976 975 3
977 897 4
977 978 3
977 1057 2
977 976 4
978 898 1
978 979 3
978 1058 4
978 977 4
979 899 3
979 980 2
979 1059 3
979 978 5
980 900 1
980 981 2
980 1060 1
980 979 1
981 901 3
981 982 5
981 1061 4
981 980 5
982 902 2
982 983 5
982 1062 1
982 981 4
983 903 5
983 984 4
983 1063 5
983 982 4
984 904 5
984 985 2
984 1064 4
984 983 3
985 905 1
985 986 4
985 1065 1
985 984 5
986 906 5
986 987 5
986 1066 5
986 985 5
987 907 2
987 988 1
987 1067 4
987 986 2
988 908 2
988 989 2
988 1068 2
988 987 2
989 909 1
989 990 4
989 1069 1
989 988 4
990 910 2
990 991 2
990 1070 5
990 989 3
991 911 3
991 992 1
991 1071 1
991 990 4
992 912 5
992 993 4
992 1072 5
992 991 3
993 913 3
993 994 5
993 1073 4
993 992 1
994 914 5
994 995 5
994 1074 5
994 993 4
995 915 1
995 996 4
995 1075 2
995 994 2
996 916 5
996 997 5
996 1076 5
996 995 1
997 917 1
997 998 5
997 1077 1
997 996 3
998 918 5
998 999 3
998 1078 4
998 997 3
999 919 4
999 1000 4
999 1079 5
999 998 5
1000 920 4
1000 1001 1
1000 1080 2
1000 999 3
1001 921 4
1001 1002 2
1001 1081 5
1001 1000 5
1002 922 4
1002 1003 1
1002 1082 4
1002 1001 3
1003 923 2
1003 1004 1
1003 1083 4
1003 1002 3
1004 924 3
1004 1005 1
1004 1084 3
1004 1003 3
1005 925 3
1005 1006 3
1005 1085 4
1005 1004 1
1006 926 2
1006 1007 2
1006 1086 3
1006 1005 4
1007 927 3
1007 1008 3
1007 1087 4
1007 1006 5
1008 928 1
1008 1009 2
1008 1088 4
1008 1007 2
1009 929 4
1009 1010 4
1009 1089 5
1009 1008 3
1010 930 1
1010 1011 5
1010 1090 2
1010 1009 1
1011 931 3
1011 1012 5
1011 1091 4
1011 1010 2
1012 932 5
1012 1013 5
1012 1092 1
1012 1011 2
1013 933 2
1013 1014 2
1013 1093 1
1013 1012 2
1014 934 1
1014 1015 4
1014 1094 1
1014 1013 3
1015 935 2
1015 1016 3
1015 1095 3
1015 1014 4
1016 936 5
1016 1017 4
1016 1096 1
1016 1015 1
1017 937 2
1017 1018 3
1017 1097 4
1017 1016 5
1018 938 4
1018 1019 2
1018 1098 4
1018 1017 5
1019 939 5
1019 1020 3
1019 1099 3
1019 1018 2
1020 940 3
1020 1021 1
1020 1100 3
1020 1019 1
1021 941 4
1021 1022 1
1021 1101 2
1021 1020 5
1022 942 2
1022 1023 2
1022 1102 2
1022 1021 2
1023 943 3
1023 1024 4
1023 1103 5
1023 1022 1
1024 944 1
1024 1025 4
1024 1104 2
1024 1023 2
1025 945 5
1025 1026 1
1025 1105 2
1025 1024 3
1026 946 5
1026 1027 3
1026 1106 3
1026 1025 4
1027 947 4
1027 1028 3
1027 1107 4
1027 1026 3
1028 948 2
1028 1029 4
1028 1108 3
1028 1027 5
1029 949 5
1029 1030 4
1029 1109 5
1029 1028 1
1030 950 1
1030 1031 5
1030 1110 3
1030 1029 5
1031 951 5
1031 1032 5
1031 1111 3
1031 1030 3
1032 952 1
1032 1033 4
1032 1112 1
1032 1031 3
1033 953 3
1033 1034 3
1033 1113 3
1033 1032 3
1034 954 3
1034 1035 2
1034 1114 2
1034 1033 5
1035 955 2
1035 1036 1
1035 1115 5
1035 1034 4
1036 956 3
1036 1037 2
1036 1116 1
1036 1035 4
1037 957 3
1037 1038 3
1037 1117 4
1037 1036 4
1038 958 4
1038 1039 1
1038 1118 5
1038 1037 5
1039 959 2
1039 1119 3
1039 1038 2
1040 960 5
1040 1041 4
1040 1120 3
1041 961 5
1041 1042 3
1041 1121 2
1041 1040 5
1042 962 2
1042 1043 3
1042 1122 1
1042 1041 4
1043 963 2
1043 1044 3
1043 1123 5
1043 1042 2
1044 964 3
1044 1045 1
1044 1124 2
1044 1043 3
1045 965 2
1045 1046 3
1045 1125 4
1045 1044 3
1046 966 3
1046 1047 3
1046 1126 5
1046 1045 3
1047 967 4
1047 1048 1
1047 1127 4
1047 1046 1
1048 968 5
1048 1049 5
1048 1128 5
1048 1047 1
1049 969 4
1049 1050 2
1049 1129 5
1049 1048 1
1050 970 4
1050 1051 5
1050 1130 3
1050 1049 4
1051 971 1
1051 1052 2
1051 1131 2
1051 1050 2
1052 972 3
1052 1053 4
1052 1132 5
1052 1051 4
1053 973 2
1053 1054 3
1053 1133 2
1053 1052 1
1054 974 4
1054 1055 3
1054 1134 2
1054 1053 3
1055 975 1
1055 1056 1
1055 1135 4
1055 1054 3
1056 976 2
1056 1057 2
1056 1136 5
1056 1055 2
1057 977 4
1057 1058 1
1057 1137 2
1057 1056 5
1058 978 4
1058 1059 4
1058 1138 4
1058 1057 4
1059 979 4
1059 1060 4
1059 1139 1
1059 1058 1
1060 980 5
1060 1061 2
1060 1140 3
1060 1059 1
1061 981 3
1061 1062 5
1061 1141 2
1061 1060 1
1062 982 1
1062 1063 2
1062 1142 2
1062 1061 3
1063 983 3
1063 1064 2
1063 1143 1
1063 1062 4
1064 984 5
1064 1065 5
1064 1144 3
1064 1063 2
1065 985 1
1065 1066 1
1065 1145 3
1065 1064 3
1066 986 4
1066 1067 5
1066 1146 5
1066 1065 5
1067 987 3
1067 1068 4
1067 1147 2
1067 1066 3
1068 988 4
1068 1069 3
1068 1148 2
1068 1067 2
1069 989 4
1069 1070 1
1069 1149 2
1069 1068 2
1070 990 2
1070 1071 2
1070 1150 1
1070 1069 5
1071 991 5
1071 1072 2
1071 1151 1
1071 1070 3
1072 992 1
1072 1073 4
1072 1152 3
1072 1071 5
1073 993 5
1073 1074 1
1073 1153 5
1073 1072 1
1074 994 1
1074 1075 1
1074 1154 1
1074 1073 1
1075 995 4
1075 1076 4
1075 1155 4
1075 1074 1
1076 996 5
1076 1077 3
1076 1156 4
1076 1075 2
1077 997 2
1077 1078 1
1077 1157 3
1077 1076 4
1078 998 1
1078 1079 5
1078 1158 3
1078 1077 5
1079 999 5
1079 1080 2
1079 1159 4
1079 1078 1
1080 1000 5
1080 1081 5
1080 1160 1
1080 1079 3
1081 1001 1
1081 1082 1
1081 1161 4
1081 1080 2
1082 1002 5
1082 1083 2
1082 1162 3
1082 1081 5
1083 1003 2
1083 1084 3
1083 1163 4
1083 1082 3
1084 1004 2
1084 1085 1
1084 1164 5
1084 1083 4
1085 1005 2
1085 1086 4
1085 1165 3
1085 1084 2
1086 1006 1
1086 1087 1
1086 1166 1
1086 1085 1
1087 1007 5
1087 1088 4
1087 1167 2
1087 1086 1
1088 1008 5
1088 1089 1
1088 1168 1
1088 1087 3
1089 1009 2
1089 1090 4
1089 1169 3
1089 1088 3
1090 1010 4
1090 1091 1
1090 1170 1
1090 1089 2
1091 1011 1
1091 1092 3
1091 1171 3
1091 1090 3
1092 1012 4
1092 1093 1
1092 1172 1
1092 1091 1
1093 1013 1
1093 1094 2
1093 1173 2
1093 1092 3
1094 1014 3
1094 1095 4
1094 1174 5
1094 1093 3
1095 1015 1
1095 1096 3
1095 1175 3
1095 1094 2
1096 1016 1
1096 1097 4
1096 1176 4
1096 1095 4
1097 1017 3
1097 1098 4
1097 1177 4
1097 1096 4
1098 1018 2
1098 1099 1
1098 1178 2
1098 1097 1
1099 1019 2
1099 1100 1
1099 1179 4
1099 1098 5
1100 1020 4
1100 1101 5
1100 1180 4
1100 1099 2
1101 1021 5
1101 1102 4
1101 1181 3
1101 1100 5
1102 1022 1
1102 1103 2
1102 1182 4
1102 1101 4
1103 1023 1
1103 1104 4
1103 1183 4
1103 1102 1
1104 1024 1
1104 1105 3
1104 1184 3
1104 1103 1
1105 1025 5
1105 1106 5
1105 1185 5
1105 1104 2
1106 1026 3
1106 1107 5
1106 1186 5
1106 1105 5
1107 1027 1
1107 1108 4
1107 1187 2
1107 1106 4
1108 1028 3
1108 1109 4
1108 1188 2
1108 1107 5
1109 1029 5
1109 1110 1
1109 1189 1
1109 1108 2
1110 1030 5
1110 1111 4
1110 1190 4
1110 1109 2
1111 1031 1
1111 1112 4
1111 1191 3
1111 1110 2
1112 1032 3
1112 1113 3
1112 1192 1
1112 1111 5
1113 1033 2
1113 1114 5
1113 1193 4
1113 1112 4
1114 1034 2
1114 1115 1
1114 1194 4
1114 1113 4
1115 1035 5
1115 1116 4
1115 1195 1
1115 1114 4
1116 1036 4
1116 1117 3
1116 1196 1
1116 1115 4
1117 1037 1
1117 1118 1
1117 1197 4
1117 1116 4
1118 1038 1
1118 1119 5
1118 1198 5
1118 1117 1
1119 1039 1
1119 1199 5
1119 1118 5
1120 1040 3
1120 1121 5
1120 1200 5
1121 1041 2
1121 1122 4
1121 1201 3
1121 1120 3
1122 1042 1
1122 1123 2
1122 1202 4
1122 1121 3
1123 1043 5
1123 1124 5
1123 1203 5
1123 1122 4
1124 1044 3
1124 1125 4
1124 1204 1
1124 1123 1
1125 1045 2
1125 1126 1
1125 1205 3
1125 1124 3
1126 1046 3
1126 1127 5
1126 1206 5
1126 1125 3
1127 1047 1
1127 1128 1
1127 1207 2
1127 1126 4
1128 1048 2
1128 1129 4
1128 1208 1
1128 1127 3
1129 1049 5
1129 1130 2
1129 1209 2
1129 1128 1
1130 1050 4
1130 1131 2
1130 1210 4
1130 1129 2
1131 1051 3
1131 1132 1
1131 1211 4
1131 1130 1
1132 1052 5
1132 1133 1
1132 1212 4
1132 1131 4
1133 1053 5
1133 1134 5
1133 1213 2
1133 1132 4
1134 1054 1
1134 1135 5
1134 1214 1
1134 1133 5
1135 1055 4
1135 1136 5
1135 1215 4
1135 1134 5
1136 1056 2
1136 1137 5
1136 1216 2
1136 1135 2
1137 1057 1
1137 1138 4
1137 1217 5
1137 1136 5
1138 1058 3
1138 1139 5
1138 1218 4
1138 1137 4
1139 1059 5
1139 1140 2
1139 1219 3
1139 1138 4
1140 1060 3
1140 1141 3
1140 1220 4
1140 1139 2
1141 1061 2
1141 1142 4
1141 1221 5
1141 1140 5
1142 1062 3
1142 1143 5
1142 1222 3
1142 1141 5
1143 1063 2
1143 1144 2
1143 1223 2
1143 1142 5
1144 1064 3
1144 1145 3
1144 1224 2
1144 1143 2
1145 1065 5
1145 1146 5
1145 1225 3
1145 1144 1
1146 1066 3
1146 1147 5
1146 1226 4
1146 1145 5
1147 1067 5
1147 1148 4
1147 1227 5
1147 1146 3
1148 1068 4
1148 1149 1
1148 1228 5
1148 1147 1
1149 1069 1
1149 1150 4
1149 1229 2
1149 1148 1
1150 1070 1
1150 1151 2
1150 1230 3
1150 1149 2
1151 1071 3
1151 1152 3
1151 1231 2
1151 1150 1
1152 1072 3
1152 1153 2
1152 1232 5
1152 1151 1
1153 1073 3
1153 1154 4
1153 1233 1
1153 1152 5
1154 1074 5
1154 1155 2
1154 1234 5
1154 1153 4
1155 1075 2
1155 1156 5
1155 1235 3
1155 1154 1
1156 1076 4
1156 1157 4
1156 1236 4
1156 1155 3
1157 1077 5
1157 1158 1
1157 1237 1
1157 1156 3
1158 1078 2
1158 1159 5
1158 1238 4
1158 1157 2
1159 1079 3
1159 1160 5
1159 1239 5
1159 1158 5
1160 1080 2
1160 1161 2
1160 1240 3
1160 1159 4
1161 1081 2
1161 1162 1
1161 1241 2
1161 1160 2
1162 1082 5
1162 1163 1
1162 1242 4
1162 1161 1
1163 1083 4
1163 1164 3
1163 1243 5
1163 1162 3
1164 1084 2
1164 1165 2
1164 1244 5
1164 1163 3
1165 1085 1
1165 1166 3
1165 1245 4
1165 1164 2
1166 1086 1
1166 1167 2
1166 1246 3
1166 1165 5
1167 1087 1
1167 1168 5
1167 1247 3
1167 1166 4
1168 1088 5
1168 1169 5
1168 1248 3
1168 1167 1
1169 1089 3
1169 1170 5
1169 1249 2
1169 1168 2
1170 1090 5
1170 1171 1
1170 1250 5
1170 1169 2
1171 1091 4
1171 1172 5
1171 1251 5
1171 1170 4
1172 1092 1
1172 1173 3
1172 1252 2
1172 1171 2
1173 1093 3
1173 1174 3
1173 1253 3
1173 1172 3
1174 1094 2
1174 1175 5
1174 1254 5
1174 1173 4
1175 1095 5
1175 1176 1
1175 1255 1
1175 1174 3
1176 1096 4
1176 1177 2
1176 1256 5
1176 1175 5
1177 1097 2
1177 1178 1
1177 1257 3
1177 1176 4
1178 1098 1
1178 1179 4
1178 1258 3
1178 1177 5
1179 1099 3
1179 1180 1
1179 1259 5
1179 1178 3
1180 1100 5
1180 1181 5
1180 1260 4
1180 1179 4
1181 1101 1
1181 1182 3
1181 1261 2
1181 1180 3
1182 1102 5
1182 1183 1
1182 1262 1
1182 1181 2
1183 1103 5
1183 1184 5
1183 1263 1
1183 1182 1
1184 1104 2
1184 1185 2
1184 1264 4
1184 1183 1
1185 1105 2
1185 1186 5
1185 1265 4
1185 1184 1
1186 1106 2
1186 1187 1
1186 1266 4
1186 1185 3
1187 1107 1
1187 1188 1
1187 1267 1
1187 1186 1
1188 1108 2
1188 1189 3
1188 1268 5
1188 1187 1
1189 1109 5
1189 1190 2
1189 1269 3
1189 1188 4
1190 1110 4
1190 1191 4
1190 1270 4
1190 1189 4
1191 1111 3
1191 1192 1
1191 1271 4
1191 1190 1
1192 1112 5
1192 1193 1
1192 1272 5
1192 1191 1
1193 1113 5
1193 1194 1
1193 1273 1
1193 1192 3
1194 1114 5
1194 1195 1
1194 1274 3
1194 1193 3
1195 1115 5
1195 1196 1
1195 1275 3
1195 1194 4
1196 1116 4
1196 1197 4
1196 1276 1
1196 1195 4
1197 1117 2
1197 1198 5
1197 1277 2
1197 1196 2
1198 1118 4
1198 1199 5
1198 1278 3
1198 1197 2
1199 1119 3
1199 1279 3
1199 1198 1
1200 1120 5
1200 1201 5
1200 1280 2
1201 1121 1
1201 1202 1
1201 1281 1
1201 1200 5
1202 1122 5
1202 1203 4
1202 1282 5
1202 1201 5
1203 1123 1
1203 1204 3
1203 1283 2
1203 1202 3
1204 1124 2
1204 1205 4
1204 1284 5
1204 1203 2
1205 1125 2
1205 1206 2
1205 1285 2
1205 1204 5
1206 1126 3
1206 1207 2
1206 1286 1
1206 1205 2
1207 1127 5
1207 1208 1
1207 1287 5
1207 1206 4
1208 1128 5
1208 1209 1
1208 1288 3
1208 1207 1
1209 1129 3
1209 1210 1
1209 1289 2
1209 1208 5
1210 1130 4
1210 1211 3
1210 1290 3
1210 1209 2
1211 1131 2
1211 1212 1
1211 1291 3
1211 1210 5
1212 1132 1
1212 1213 2
1212 1292 3
1212 1211 4
1213 1133 4
1213 1214 3
1213 1293 5
1213 1212 3
1214 1134 5
1214 1215 2
1214 1294 5
1214 1213 5
1215 1135 3
1215 1216 3
1215 1295 4
1215 1214 2
1216 1136 1
1216 1217 3
1216 1296 2
1216 1215 2
1217 1137 4
1217 1218 3
1217 1297 3
1217 1216 2
1218 1138 3
1218 1219 4
1218 1298 4
1218 1217 4
1219 1139 3
1219 1220 3
1219 1299 4
1219 1218 5
1220 1140 1
1220 1221 2
1220 1300 5
1220 1219 1
1221 1141 3
1221 1222 2
1221 1301 5
1221 1220 2
1222 1142 3
1222 1223 1
1222 1302 1
1222 1221 1
1223 1143 5
1223 1224 1
1223 1303 5
1223 1222 5
1224 1144 4
1224 1225 5
1224 1304 2
1224 1223 1
1225 1145 5
1225 1226 3
1225 1305 5
1225 1224 5
1226 1146 4
1226 1227 2
1226 1306 3
1226 1225 4
1227 1147 2
1227 1228 5
1227 1307 3
1227 1226 2
1228 1148 4
1228 1229 5
1228 1308 5
1228 1227 1
1229 1149 4
1229 1230 3
1229 1309 5
1229 1228 1
1230 1150 2
1230 1231 5
1230 1310 2
1230 1229 5
1231 1151 2
1231 1232 4
1231 1311 2
1231 1230 2
1232 1152 5
1232 1233 5
1232 1312 2
1232 1231 4
1233 1153 3
1233 1234 1
1233 1313 2
1233 1232 4
1234 1154 2
1234 1235 1
1234 1314 3
1234 1233 3
1235 1155 2
1235 1236 1
1235 1315 2
1235 1234 5
1236 1156 3
1236 1237 4
1236 1316 4
1236 1235 4
1237 1157 1
1237 1238 1
1237 1317 3
1237 1236 1
1238 1158 5
1238 1239 3
1238 1318 3
1238 1237 5
1239 1159 5
1239 1240 5
1239 1319 2
1239 1238 4
1240 1160 4
1240 1241 3
1240 1320 5
1240 1239 1
1241 1161 5
1241 1242 3
1241 1321 4
1241 1240 2
1242 1162 5
1242 1243 4
1242 1322 3
1242 1241 3
1243 1163 4
1243 1244 4
1243 1323 5
1243 1242 1
1244 1164 5
1244 1245 2
1244 1324 4
1244 1243 2
1245 1165 2
1245 1246 1
1245 1325 5
1245 1244 3
1246 1166 2
1246 1247 2
1246 1326 2
1246 1245 2
1247 1167 3
1247 1248 5
1247 1327 1
1247 1246 2
1248 1168 4
1248 1249 3
1248 1328 1
1248 1247 4
1249 1169 4
1249 1250 4
1249 1329 2
1249 1248 5
1250 1170 2
1250 1251 4
1250 1330 1
1250 1249 2
1251 1171 1
1251 1252 2
1251 1331 5
1251 1250 5
1252 1172 2
1252 1253 2
1252 1332 5
1252 1251 1
1253 1173 5
1253 1254 2
1253 1333 1
1253 1252 2
1254 1174 3
1254 1255 2
1254 1334 5
1254 1253 4
1255 1175 5
1255 1256 5
1255 1335 1
1255 1254 3
1256 1176 1
1256 1257 2
1256 1336 4
1256 1255 5
1257 1177 4
1257 1258 4
1257 1337 2
1257 1256 2
1258 1178 4
1258 1259 5
1258 1338 2
1258 1257 5
1259 1179 2
1259 1260 5
1259 1339 5
1259 1258 3
1260 1180 2
1260 1261 3
1260 1340 4
1260 1259 5
1261 1181 5
1261 1262 1
1261 1341 2
1261 1260 4
1262 1182 4
1262 1263 2
1262 1342 1
1262 1261 1
1263 1183 2
1263 1264 5
1263 1343 5
1263 1262 4
1264 1184 2
1264 1265 5
1264 1344 1
1264 1263 2
1265 1185 4
1265 1266 5
1265 1345 5
1265 1264 1
1266 1186 5
1266 1267 5
1266 1346 1
1266 1265 1
1267 1187 4
1267 1268 2
1267 1347 5
1267 1266 5
1268 1188 1
1268 1269 4
1268 1348 5
1268 1267 4
1269 1189 3
1269 1270 1
1269 1349 5
1269 1268 4
1270 1190 2
1270 1271 4
1270 1350 4
1270 1269 3
1271 1191 5
1271 1272 5
1271 1351 1
1271 1270 4
1272 1192 2
1272 1273 3
1272 1352 4
1272 1271 2
1273 1193 1
1273 1274 3
1273 1353 5
1273 1272 5
1274 1194 4
1274 1275 3
1274 1354 2
1274 1273 1
1275 1195 1
1275 1276 5
1275 1355 5
1275 1274 1
1276 1196 5
1276 1277 1
1276 1356 4
1276 1275 2
1277 1197 3
1277 1278 4
1277 1357 3
1277 1276 1
1278 1198 2
1278 1279 4
1278 1358 5
1278 1277 3
1279 1199 3
1279 1359 5
1279 1278 4
1280 1200 5
1280 1281 3
1280 1360 5
1281 1201 3
1281 1282 4
1281 1361 2
1281 1280 4
1282 1202 5
1282 1283 5
1282 1362 4
1282 1281 2
1283 1203 3
1283 1284 5
1283 1363 5
1283 1282 4
1284 1204 3
1284 1285 3
1284 1364 5
1284 1283 3
1285 1205 4
1285 1286 2
1285 1365 1
1285 1284 2
1286 1206 4
1286 1287 2
1286 1366 1
1286 1285 2
1287 1207 5
1287 1288 4
1287 1367 3
1287 1286 5
1288 1208 5
1288 1289 1
1288 1368 2
1288 1287 4
1289 1209 1
1289 1290 1
1289 1369 2
1289 1288 4
1290 1210 5
1290 1291 4
1290 1370 1
1290 1289 1
1291 1211 3
1291 1292 2
1291 1371 3
1291 1290 1
1292 1212 5
1292 1293 1
1292 1372 4
1292 1291 4
1293 1213 5
1293 1294 5
1293 1373 3
1293 1292 5
1294 1214 1
1294 1295 2
1294 1374 4
1294 1293 4
1295 1215 1
1295 1296 2
1295 1375 5
1295 1294 3
1296 1216 2
1296 1297 1
1296 1376 5
1296 1295 5
1297 1217 5
1297 1298 2
1297 1377 5
1297 1296 2
1298 1218 1
1298 1299 3
1298 1378 2
1298 1297 1
1299 1219 2
1299 1300 1
1299 1379 3
1299 1298 4
1300 1220 3
1300 1301 4
1300 1380 4
1300 1299 5
1301 1221 2
1301 1302 5
1301 1381 1
1301 1300 1
1302 1222 1
1302 1303 5
1302 1382 3
1302 1301 5
1303 1223 5
1303 1304 3
1303 1383 3
1303 1302 3
1304 1224 2
1304 1305 5
1304 1384 2
1304 1303 4
1305 1225 4
1305 1306 5
1305 1385 1
1305 1304 3
1306 1226 2
1306 1307 4
1306 1386 5
1306 1305 1
1307 1227 5
1307 1308 1
1307 1387 5
1307 1306 3
1308 1228 3
1308 1309 1
1308 1388 5
1308 1307 3
1309 1229 5
1309 1310 5
1309 1389 3
1309 1308 4
1310 1230 4
1310 1311 5
1310 1390 4
1310 1309 2
1311 1231 3
1311 1312 4
1311 1391 4
1311 1310 5
1312 1232 1
1312 1313 4
1312 1392 1
1312 1311 3
1313 1233 1
1313 1314 4
1313 1393 2
1313 1312 2
1314 1234 3
1314 1315 4
1314 1394 3
1314 1313 5
1315 1235 5
1315 1316 1
1315 1395 3
1315 1314 2
1316 1236 3
1316 1317 1
1316 1396 4
1316 1315 3
1317 1237 1
1317 1318 5
1317 1397 2
1317 1316 4
1318 1238 3
1318 1319 3
1318 1398 2
1318 1317 5
1319 1239 3
1319 1320 2
1319 1399 2
1319 1318 4
1320 1240 2
1320 1321 2
1320 1400 2
1320 1319 3
1321 1241 2
1321 1322 2
1321 1401 2
1321 1320 2
1322 1242 5
1322 1323 3
1322 1402 2
1322 1321 1
1323 1243 1
1323 1324 1
1323 1403 4
1323 1322 5
1324 1244 1
1324 1325 5
1324 1404 1
1324 1323 4
1325 1245 3
1325 1326 5
1325 1405 3
1325 1324 4
1326 1246 5
1326 1327 3
1326 1406 4
1326 1325 2
1327 1247 5
1327 1328 3
1327 1407 4
1327 1326 2
1328 1248 5
1328 1329 2
1328 1408 1
1328 1327 5
1329 1249 4
1329 1330 4
1329 1409 5
1329 1328 1
1330 1250 5
1330 1331 3
1330 1410 4
1330 1329 2
1331 1251 4
1331 1332 1
1331 1411 5
1331 1330 4
1332 1252 3
1332 1333 1
1332 1412 1
1332 1331 2
1333 1253 4
1333 1334 5
1333 1413 1
1333 1332 3
1334 1254 3
1334 1335 5
1334 1414 3
1334 1333 2
1335 1255 5
1335 1336 3
1335 1415 2
1335 1334 3
1336 1256 4
1336 1337 5
1336 1416 3
1336 1335 3
1337 1257 2
1337 1338 4
1337 1417 4
1337 1336 2
1338 1258 4
1338 1339 3
1338 1418 3
1338 1337 4
1339 1259 3
1339 1340 4
1339 1419 2
1339 1338 5
1340 1260 2
1340 1341 5
1340 1420 2
1340 1339 1
1341 1261 3
1341 1342 2
1341 1421 5
1341 1340 4
1342 1262 4
1342 1343 2
1342 1422 2
1342 1341 2
1343 1263 4
1343 1344 1
1343 1423 2
1343 1342 4
1344 1264 4
1344 1345 2
1344 1424 5
1344 1343 5
1345 1265 3
1345 1346 4
1345 1425 3
1345 1344 3
1346 1266 5
1346 1347 5
1346 1426 1
1346 1345 4
1347 1267 1
1347 1348 2
1347 1427 1
1347 1346 2
1348 1268 3
1348 1349 4
1348 1428 1
1348 1347 4
1349 1269 3
1349 1350 3
1349 1429 3
1349 1348 3
1350 1270 5
1350 1351 5
1350 1430 3
1350 1349 3
1351 1271 1
1351 1352 4
1351 1431 1
1351 1350 3
1352 1272 5
1352 1353 2
1352 1432 5
1352 1351 5
1353 1273 5
1353 1354 2
1353 1433 3
1353 1352 3
1354 1274 3
1354 1355 5
1354 1434 4
1354 1353 4
1355 1275 1
1355 1356 4
1355 1435 5
1355 1354 3
1356 1276 4
1356 1357 2
1356 1436 2
1356 1355 3
1357 1277 4
1357 1358 5
1357 1437 5
1357 1356 4
1358 1278 1
1358 1359 1
1358 1438 2
1358 1357 3
1359 1279 2
1359 1439 3
1359 1358 3
1360 1280 3
1360 1361 3
1360 1440 5
1361 1281 4
1361 1362 3
1361 1441 4
1361 1360 3
1362 1282 5
1362 1363 5
1362 1442 4
1362 1361 4
1363 1283 2
1363 1364 2
1363 1443 1
1363 1362 2
1364 1284 2
1364 1365 3
1364 1444 1
1364 1363 2
1365 1285 2
1365 1366 4
1365 1445 1
1365 1364 1
1366 1286 1
1366 1367 4
1366 1446 5
1366 1365 1
1367 1287 1
1367 1368 4
1367 1447 5
1367 1366 1
1368 1288 1
1368 1369 3
1368 1448 5
1368 1367 2
1369 1289 1
1369 1370 4
1369 1449 3
1369 1368 2
1370 1290 2
1370 1371 3
1370 1450 4
1370 1369 2
1371 1291 2
1371 1372 5
1371 1451 2
1371 1370 1
1372 1292 1
1372 1373 3
1372 1452 3
1372 1371 4
1373 1293 4
1373 1374 5
1373 1453 3
1373 1372 5
1374 1294 4
1374 1375 2
1374 1454 5
1374 1373 2
1375 1295 5
1375 1376 5
1375 1455 4
1375 1374 5
1376 1296 4
1376 1377 5
1376 1456 5
1376 1375 3
1377 1297 3
1377 1378 4
1377 1457 5
1377 1376 2
1378 1298 1
1378 1379 4
1378 1458 3
1378 1377 3
1379 1299 4
1379 1380 3
1379 1459 2
1379 1378 3
1380 1300 1
1380 1381 1
1380 1460 5
1380 1379 2
1381 1301 3
1381 1382 3
1381 1461 4
1381 1380 5
1382 1302 1
1382 1383 4
1382 1462 4
1382 1381 3
1383 1303 1
1383 1384 4
1383 1463 3
1383 1382 5
1384 1304 2
1384 1385 1
1384 1464 5
1384 1383 3
1385 1305 2
1385 1386 4
1385 1465 5
1385 1384 4
1386 1306 4
1386 1387 2
1386 1466 2
1386 1385 4
1387 1307 4
1387 1388 2
1387 1467 3
1387 1386 1
1388 1308 4
1388 1389 2
1388 1468 5
1388 1387 5
1389 1309 3
1389 1390 3
1389 1469 5
1389 1388 3
1390 1310 4
1390 1391 2
1390 1470 1
1390 1389 2
1391 1311 2
1391 1392 3
1391 1471 1
1391 1390 4
1392 1312 5
1392 1393 4
1392 1472 3
1392 1391 5
1393 1313 4
1393 1394 2
1393 1473 3
1393 1392 1
1394 1314 2
1394 1395 1
1394 1474 5
1394 1393 1
1395 1315 2
1395 1396 1
1395 1475 3
1395 1394 3
1396 1316 2
1396 1397 4
1396 1476 1
1396 1395 2
1397 1317 1
1397 1398 2
1397 1477 1
1397 1396 4
1398 1318 2
1398 1399 3
1398 1478 4
1398 1397 3
1399 1319 4
1399 1400 3
1399 1479 4
1399 1398 1
1400 1320 3
1400 1401 1
1400 1480 2
1400 1399 1
1401 1321 3
1401 1402 4
1401 1481 1
1401 1400 5
1402 1322 4
1402 1403 2
1402 1482 2
1402 1401 3
1403 1323 4
1403 1404 1
1403 1483 1
1403 1402 2
1404 1324 4
1404 1405 4
1404 1484 2
1404 1403 1
1405 1325 2
1405 1406 4
1405 1485 1
1405 1404 5
1406 1326 2
1406 1407 4
1406 1486 4
1406 1405 3
1407 1327 3
1407 1408 2
1407 1487 1
1407 1406 5
1408 1328 5
1408 1409 1
1408 1488 3
1408 1407 4
1409 1329 3
1409 1410 2
1409 1489 3
1409 1408 1
1410 1330 2
1410 1411 1
1410 1490 2
1410 1409 4
1411 1331 3
1411 1412 1
1411 1491 2
1411 1410 3
1412 1332 5
1412 1413 1
1412 1492 4
1412 1411 2
1413 1333 1
1413 1414 1
1413 1493 5
1413 1412 4
1414 1334 5
1414 1415 2
1414 1494 3
1414 1413 1
1415 1335 2
1415 1416 2
1415 1495 4
1415 1414 1
1416 1336 5
1416 1417 3
1416 1496 1
1416 1415 1
1417 1337 3
1417 1418 2
1417 1497 5
1417 1416 1
1418 1338 2
1418 1419 4
1418 1498 2
1418 1417 3
1419 1339 5
1419 1420 3
1419 1499 4
1419 1418 2
1420 1340 1
1420 1421 4
1420 1500 3
1420 1419 2
1421 1341 3
1421 1422 1
1421 1501 4
1421 1420 4
1422 1342 5
1422 1423 3
1422 1502 5
1422 1421 4
1423 1343 2
1423 1424 5
1423 1503 2
1423 1422 5
1424 1344 3
1424 1425 3
1424 1504 4
1424 1423 3
1425 1345 5
1425 1426 5
1425 1505 2
1425 1424 1
1426 1346 5
1426 1427 2
1426 1506 4
1426 1425 3
1427 1347 3
1427 1428 5
1427 1507 3
1427 1426 4
1428 1348 1
1428 1429 5
1428 1508 4
1428 1427 2
1429 1349 1
1429 1430 5
1429 1509 3
1429 1428 5
1430 1350 2
1430 1431 3
1430 1510 1
1430 1429 5
1431 1351 4
1431 1432 2
1431 1511 5
1431 1430 4
1432 1352 5
1432 1433 2
1432 1512 5
1432 1431 3
1433 1353 3
1433 1434 4
1433 1513 3
1433 1432 1
1434 1354 1
1434 1435 5
1434 1514 1
1434 1433 1
1435 1355 2
1435 1436 2
1435 1515 1
1435 1434 2
1436 1356 1
1436 1437 4
1436 1516 2
1436 1435 1
1437 1357 1
1437 1438 5
1437 1517 4
1437 1436 4
1438 1358 5
1438 1439 5
1438 1518 5
1438 1437 3
1439 1359 1
1439 1519 3
1439 1438 2
1440 1360 5
1440 1441 1
1440 1520 1
1441 1361 2
1441 1442 4
1441 1521 1
1441 1440 4
1442 1362 1
1442 1443 3
1442 1522 5
1442 1441 4
1443 1363 3
1443 1444 1
1443 1523 5
1443 1442 3
1444 1364 5
1444 1445 1
1444 1524 1
1444 1443 3
1445 1365 1
1445 1446 2
1445 1525 5
1445 1444 1
1446 1366 1
1446 1447 2
1446 1526 5
1446 1445 4
1447 1367 2
1447 1448 2
1447 1527 5
1447 1446 2
1448 1368 5
1448 1449 2
1448 1528 5
1448 1447 5
1449 1369 4
1449 1450 1
1449 1529 5
1449 1448 3
1450 1370 4
1450 1451 4
1450 1530 1
1450 1449 2
1451 1371 2
1451 1452 5
1451 1531 4
1451 1450 5
1452 1372 3
1452 1453 2
1452 1532 5
1452 1451 5
1453 1373 4
1453 1454 3
1453 1533 3
1453 1452 5
1454 1374 3
1454 1455 3
1454 1534 4
1454 1453 4
1455 1375 3
1455 1456 5
1455 1535 2
1455 1454 5
1456 1376 5
1456 1457 2
1456 1536 4
1456 1455 5
1457 1377 3
1457 1458 3
1457 1537 4
1457 1456 4
1458 1378 4
1458 1459 1
1458 1538 1
1458 1457 3
1459 1379 5
1459 1460 1
1459 1539 5
1459 1458 2
1460 1380 3
1460 1461 1
1460 1540 3
1460 1459 2
1461 1381 2
1461 1462 3
1461 1541 1
1461 1460 3
1462 1382 5
1462 1463 5
1462 1542 5
1462 1461 5
1463 1383 5
1463 1464 2
1463 1543 1
1463 1462 1
1464 1384 4
1464 1465 3
1464 1544 2
1464 1463 2
1465 1385 3
1465 1466 3
1465 1545 5
1465 1464 2
1466 1386 2
1466 1467 3
1466 1546 3
1466 1465 1
1467 1387 5
1467 1468 4
1467 1547 5
1467 1466 2
1468 1388 1
1468 1469 3
1468 1548 4
1468 1467 2
1469 1389 4
1469 1470 5
1469 1549 1
1469 1468 5
1470 1390 3
1470 1471 1
1470 1550 5
1470 1469 4
1471 1391 1
1471 1472 1
1471 1551 3
1471 1470 3
1472 1392 4
1472 1473 4
1472 1552 1
1472 1471 2
1473 1393 5
1473 1474 1
1473 1553 4
1473 1472 1
1474 1394 3
1474 1475 5
1474 1554 1
1474 1473 3
1475 1395 5
1475 1476 5
1475 1555 2
1475 1474 3
1476 1396 5
1476 1477 2
1476 1556 2
1476 1475 1
1477 1397 4
1477 1478 4
1477 1557 5
1477 1476 5
1478 1398 5
1478 1479 1
1478 1558 2
1478 1477 4
1479 1399 3
1479 1480 4
1479 1559 2
1479 1478 2
1480 1400 3
1480 1481 1
1480 1560 4
1480 1479 5
1481 1401 1
1481 1482 5
1481 1561 4
1481 1480 3
1482 1402 1
1482 1483 4
1482 1562 5
1482 1481 4
1483 1403 2
1483 1484 2
1483 1563 4
1483 1482 5
1484 1404 2
1484 1485 4
1484 1564 4
1484 1483 5
1485 1405 2
1485 1486 5
1485 1565 5
1485 1484 5
1486 1406 2
1486 1487 2
1486 1566 1
1486 1485 3
1487 1407 4
1487 1488 3
1487 1567 5
1487 1486 1
1488 1408 1
1488 1489 4
1488 1568 4
1488 1487 3
1489 1409 3
1489 1490 2
1489 1569 3
1489 1488 3
1490 1410 5
1490 1491 1
1490 1570 3
1490 1489 2
1491 1411 3
1491 1492 5
1491 1571 4
1491 1490 5
1492 1412 2
1492 1493 4
1492 1572 1
1492 1491 2
1493 1413 2
1493 1494 3
1493 1573 2
1493 1492 1
1494 1414 1
1494 1495 1
1494 1574 2
1494 1493 5
1495 1415 2
1495 1496 3
1495 1575 1
1495 1494 3
1496 1416 1
1496 1497 3
1496 1576 4
1496 1495 4
1497 1417 1
1497 1498 3
1497 1577 2
1497 1496 5
1498 1418 2
1498 1499 2
1498 1578 5
1498 1497 5
1499 1419 3
1499 1500 5
1499 1579 4
1499 1498 5
1500 1420 2
1500 1501 1
1500 1580 4
1500 1499 5
1501 1421 5
1501 1502 1
1501 1581 3
1501 1500 2
1502 1422 1
1502 1503 3
1502 1582 2
1502 1501 5
1503 1423 3
1503 1504 1
1503 1583 4
1503 1502 1
1504 1424 1
1504 1505 4
1504 1584 3
1504 1503 3
1505 1425 1
1505 1506 1
1505 1585 3
1505 1504 4
1506 1426 2
1506 1507 4
1506 1586 5
1506 1505 1
1507 1427 3
1507 1508 4
1507 1587 5
1507 1506 5
1508 1428 1
1508 1509 2
1508 1588 2
1508 1507 5
1509 1429 4
1509 1510 5
1509 1589 1
1509 1508 1
1510 1430 2
1510 1511 5
1510 1590 3
1510 1509 3
1511 1431 4
1511 1512 4
1511 1591 2
1511 1510 1
1512 1432 3
1512 1513 3
1512 1592 3
1512 1511 3
1513 1433 2
1513 1514 5
1513 1593 3
1513 1512 1
1514 1434 3
1514 1515 4
1514 1594 1
1514 1513 5
1515 1435 3
1515 1516 2
1515 1595 2
1515 1514 3
1516 1436 4
1516 1517 2
1516 1596 1
1516 1515 4
1517 1437 5
1517 1518 5
1517 1597 2
1517 1516 4
1518 1438 2
1518 1519 5
1518 1598 2
1518 1517 4
1519 1439 3
1519 1599 5
1519 1518 3
1520 1440 4
1520 1521 5
1520 1600 2
1521 1441 2
1521 1522 2
1521 1601 5
1521 1520 5
1522 1442 2
1522 1523 2
1522 1602 3
1522 1521 5
1523 1443 2
1523 1524 4
1523 1603 2
1523 1522 5
1524 1444 2
1524 1525 3
1524 1604 1
1524 1523 5
1525 1445 5
1525 1526 1
1525 1605 2
1525 1524 3
1526 1446 2
1526 1527 1
1526 1606 3
1526 1525 4
1527 1447 4
1527 1528 3
1527 1607 4
1527 1526 3
1528 1448 2
1528 1529 2
1528 1608 1
1528 1527 2
1529 1449 2
1529 1530 1
1529 1609 5
1529 1528 5
1530 1450 3
1530 1531 5
1530 1610 5
1530 1529 5
1531 1451 2
1531 1532 5
1531 1611 2
1531 1530 2
1532 1452 1
1532 1533 3
1532 1612 1
1532 1531 4
1533 1453 2
1533 1534 5
1533 1613 5
1533 1532 4
1534 1454 3
1534 1535 2
1534 1614 4
1534 1533 4
1535 1455 4
1535 1536 2
1535 1615 2
1535 1534 2
1536 1456 2
1536 1537 1
1536 1616 4
1536 1535 1
1537 1457 3
1537 1538 4
1537 1617 2
1537 1536 2
1538 1458 2
1538 1539 1
1538 1618 2
1538 1537 4
1539 1459 5
1539 1540 4
1539 1619 3
1539 1538 4
1540 1460 2
1540 1541 4
1540 1620 4
1540 1539 1
1541 1461 5
1541 1542 4
1541 1621 3
1541 1540 4
1542 1462 5
1542 1543 5
1542 1622 5
1542 1541 5
1543 1463 5
1543 1544 1
1543 1623 5
1543 1542 1
1544 1464 4
1544 1545 4
1544 1624 1
1544 1543 2
1545 1465 5
1545 1546 5
1545 1625 4
1545 1544 1
1546 1466 5
1546 1547 4
1546 1626 5
1546 1545 1
1547 1467 2
1547 1548 3
1547 1627 4
1547 1546 4
1548 1468 3
1548 1549 3
1548 1628 4
1548 1547 2
1549 1469 4
1549 1550 3
1549 1629 5
1549 1548 1
1550 1470 5
1550 1551 2
1550 1630 4
1550 1549 4
1551 1471 1
1551 1552 5
1551 1631 1
1551 1550 2
1552 1472 5
1552 1553 5
1552 1632 2
1552 1551 4
1553 1473 4
1553 1554 3
1553 1633 4
1553 1552 1
1554 1474 2
1554 1555 4
1554 1634 5
1554 1553 2
1555 1475 4
1555 1556 1
1555 1635 3
1555 1554 3
1556 1476 2
1556 1557 1
1556 1636 1
1556 1555 1
1557 1477 4
1557 1558 3
1557 1637 1
1557 1556 5
1558 1478 4
1558 1559 5
1558 1638 5
1558 1557 2
1559 1479 4
1559 1560 5
1559 1639 4
1559 1558 1
1560 1480 2
1560 1561 3
1560 1640 5
1560 1559 2
1561 1481 2
1561 1562 2
1561 1641 2
1561 1560 1
1562 1482 4
1562 1563 3
1562 1642 3
1562 1561 4
1563 1483 3
1563 1564 2
1563 1643 1
1563 1562 2
1564 1484 2
1564 1565 1
1564 1644 5
1564 1563 3
1565 1485 1
1565 1566 4
1565 1645 4
1565 1564 4
1566 1486 5
1566 1567 1
1566 1646 5
1566 1565 4
1567 1487 2
1567 1568 2
1567 1647 5
1567 1566 4
1568 1488 4
1568 1569 4
1568 1648 4
1568 1567 1
1569 1489 5
1569 1570 5
1569 1649 1
1569 1568 2
1570 1490 5
1570 1571 3
1570 1650 5
1570 1569 5
1571 1491 2
1571 1572 1
1571 1651 2
1571 1570 2
1572 1492 1
1572 1573 3
1572 1652 1
1572 1571 2
1573 1493 1
1573 1574 5
1573 1653 5
1573 1572 3
1574 1494 3
1574 1575 1
1574 1654 1
1574 1573 1
1575 1495 4
1575 1576 2
1575 1655 2
1575 1574 3
1576 1496 5
1576 1577 5
1576 1656 5
1576 1575 5
1577 1497 2
1577 1578 4
1577 1657 5
1577 1576 3
1578 1498 1
1578 1579 1
1578 1658 3
1578 1577 3
1579 1499 3
1579 1580 4
1579 1659 1
1579 1578 4
1580 1500 5
1580 1581 1
1580 1660 3
1580 1579 4
1581 1501 2
1581 1582 1
1581 1661 3
1581 1580 3
1582 1502 5
1582 1583 4
1582 1662 5
1582 1581 2
1583 1503 2
1583 1584 5
1583 1663 1
1583 1582 1
1584 1504 5
1584 1585 5
1584 1664 1
1584 1583 4
1585 1505 5
1585 1586 3
1585 1665 4
1585 1584 5
1586 1506 3
1586 1587 3
1586 1666 5
1586 1585 5
1587 1507 5
1587 1588 3
1587 1667 2
1587 1586 5
1588 1508 5
1588 1589 4
1588 1668 5
1588 1587 4
1589 1509 4
1589 1590 2
1589 1669 5
1589 1588 2
1590 1510 3
1590 1591 2
1590 1670 1
1590 1589 1
1591 1511 1
1591 1592 4
1591 1671 1
1591 1590 2
1592 1512 5
1592 1593 4
1592 1672 4
1592 1591 1
1593 1513 3
1593 1594 3
1593 1673 5
1593 1592 2
1594 1514 1
1594 1595 2
1594 1674 3
1594 1593 3
1595 1515 1
1595 1596 3
1595 1675 3
1595 1594 5
1596 1516 5
1596 1597 3
1596 1676 1
1596 1595 1
1597 1517 3
1597 1598 3
1597 1677 4
1597 1596 5
1598 1518 5
1598 1599 1
1598 1678 2
1598 1597 2
1599 1519 3
1599 1679 3
1599 1598 4
1600 1520 4
1600 1601 1
1600 1680 2
1601 1521 4
1601 1602 2
1601 1681 4
1601 1600 5
1602 1522 3
1602 1603 4
1602 1682 4
1602 1601 1
1603 1523 5
1603 1604 3
1603 1683 5
1603 1602 3
1604 1524 5
1604 1605 5
1604 1684 1
1604 1603 2
1605 1525 5
1605 1606 3
1605 1685 3
1605 1604 1
1606 1526 2
1606 1607 3
1606 1686 1
1606 1605 3
1607 1527 4
1607 1608 5
1607 1687 2
1607 1606 5
1608 1528 5
1608 1609 4
1608 1688 2
1608 1607 5
1609 1529 1
1609 1610 3
1609 1689 3
1609 1608 1
1610 1530 3
1610 1611 4
1610 1690 1
1610 1609 4
1611 1531 2
1611 1612 3
1611 1691 4
1611 1610 3
1612 1532 2
1612 1613 5
1612 1692 3
1612 1611 2
1613 1533 1
1613 1614 3
1613 1693 1
1613 1612 2
1614 1534 1
1614 1615 4
1614 1694 5
1614 1613 1
1615 1535 4
1615 1616 5
1615 1695 2
1615 1614 2
1616 1536 3
1616 1617 4
1616 1696 5
1616 1615 3
1617 1537 3
1617 1618 2
1617 1697 1
1617 1616 5
1618 1538 2
1618 1619 2
1618 1698 1
1618 1617 4
1619 1539 4
1619 1620 5
1619 1699 1
1619 1618 1
1620 1540 3
1620 1621 1
1620 1700 5
1620 1619 1
1621 1541 3
1621 1622 4
1621 1701 1
1621 1620 1
1622 1542 5
1622 1623 3
1622 1702 1
1622 1621 5
1623 1543 3
1623 1624 2
1623 1703 3
1623 1622 2
1624 1544 2
1624 1625 3
1624 1704 3
1624 1623 5
1625 1545 3
1625 1626 4
1625 1705 1
1625 1624 3
1626 1546 2
1626 1627 2
1626 1706 3
1626 1625 1
1627 1547 1
1627 1628 5
1627 1707 5
1627 1626 5
1628 1548 1
1628 1629 2
1628 1708 5
1628 1627 3
1629 1549 5
1629 1630 3
1629 1709 3
1629 1628 2
1630 1550 3
1630 1631 5
1630 1710 2
1630 1629 2
1631 1551 1
1631 1632 3
1631 1711 5
1631 1630 3
1632 1552 5
1632 1633 4
1632 1712 1
1632 1631 2
1633 1553 1
1633 1634 4
1633 1713 1
1633 1632 1
1634 1554 4
1634 1635 1
1634 1714 1
1634 1633 4
1635 1555 4
1635 1636 2
1635 1715 5
1635 1634 5
1636 1556 4
1636 1637 5
1636 1716 3
1636 1635 3
1637 1557 3
1637 1638 2
1637 1717 5
1637 1636 1
1638 1558 4
1638 1639 5
1638 1718 2
1638 1637 1
1639 1559 4
1639 1640 1
1639 1719 4
1639 1638 3
1640 1560 4
1640 1641 4
1640 1720 2
1640 1639 2
1641 1561 2
1641 1642 5
1641 1721 3
1641 1640 3
1642 1562 4
1642 1643 2
1642 1722 3
1642 1641 3
1643 1563 4
1643 1644 4
1643 1723 1
1643 1642 1
1644 1564 4
1644 1645 1
1644 1724 3
1644 1643 4
1645 1565 4
1645 1646 2
1645 1725 3
1645 1644 3
1646 1566 5
1646 1647 5
1646 1726 2
1646 1645 5
1647 1567 1
1647 1648 4
1647 1727 1
1647 1646 3
1648 1568 5
1648 1649 1
1648 1728 3
1648 1647 5
1649 1569 4
1649 1650 4
1649 1729 5
1649 1648 4
1650 1570 2
1650 1651 5
1650 1730 2
1650 1649 5
1651 1571 2
1651 1652 4
1651 1731 4
1651 1650 1
1652 1572 3
1652 1653 2
1652 1732 5
1652 1651 4
1653 1573 4
1653 1654 5
1653 1733 3
1653 1652 5
1654 1574 2
1654 1655 2
1654 1734 1
1654 1653 5
1655 1575 4
1655 1656 1
1655 1735 5
1655 1654 5
1656 1576 4
1656 1657 3
1656 1736 5
1656 1655 1
1657 1577 4
1657 1658 2
1657 1737 3
1657 1656 4
1658 1578 1
1658 1659 5
1658 1738 1
1658 1657 5
1659 1579 4
1659 1660 3
1659 1739 4
1659 1658 1
1660 1580 1
1660 1661 2
1660 1740 2
1660 1659 5
1661 1581 1
1661 1662 2
1661 1741 2
1661 1660 4
1662 1582 5
1662 1663 3
1662 1742 4
1662 1661 5
1663 1583 5
1663 1664 4
1663 1743 2
1663 1662 2
1664 1584 3
1664 1665 3
1664 1744 5
1664 1663 3
1665 1585 4
1665 1666 3
1665 1745 1
1665 1664 5
1666 1586 1
1666 1667 5
1666 1746 5
1666 1665 4
1667 1587 2
1667 1668 3
1667 1747 1
1667 1666 3
1668 1588 5
1668 1669 1
1668 1748 1
1668 1667 5
1669 1589 3
1669 1670 1
1669 1749 3
1669 1668 1
1670 1590 2
1670 1671 4
1670 1750 5
1670 1669 4
1671 1591 3
1671 1672 4
1671 1751 4
1671 1670 4
1672 1592 4
1672 1673 5
1672 1752 2
1672 1671 2
1673 1593 4
1673 1674 2
1673 1753 2
1673 1672 5
1674 1594 4
1674 1675 3
1674 1754 4
1674 1673 2
1675 1595 3
1675 1676 2
1675 1755 2
1675 1674 1
1676 1596 1
1676 1677 1
1676 1756 2
1676 1675 4
1677 1597 4
1677 1678 2
1677 1757 1
1677 1676 2
1678 1598 4
1678 1679 4
1678 1758 5
1678 1677 4
1679 1599 5
1679 1759 2
1679 1678 4
1680 1600 5
1680 1681 4
1680 1760 5
1681 1601 4
1681 1682 4
1681 1761 3
1681 1680 2
1682 1602 2
1682 1683 4
1682 1762 5
1682 1681 1
1683 1603 5
1683 1684 4
1683 1763 2
1683 1682 5
1684 1604 3
1684 1685 4
1684 1764 5
1684 1683 5
1685 1605 3
1685 1686 1
1685 1765 1
1685 1684 5
1686 1606 4
1686 1687 3
1686 1766 1
1686 1685 5
1687 1607 4
1687 1688 1
1687 1767 2
1687 1686 5
1688 1608 3
1688 1689 4
1688 1768 5
1688 1687 1
1689 1609 5
1689 1690 5
1689 1769 1
1689 1688 2
1690 1610 4
1690 1691 1
1690 1770 5
1690 1689 5
1691 1611 3
1691 1692 5
1691 1771 1
1691 1690 3
1692 1612 5
1692 1693 1
1692 1772 4
1692 1691 4
1693 1613 5
1693 1694 4
1693 1773 5
1693 1692 3
1694 1614 4
1694 1695 3
1694 1774 3
1694 1693 3
1695 1615 2
1695 1696 1
1695 1775 5
1695 1694 3
1696 1616 5
1696 1697 3
1696 1776 1
1696 1695 4
1697 1617 5
1697 1698 2
1697 1777 5
1697 1696 1
1698 1618 3
1698 1699 5
1698 1778 1
1698 1697 3
1699 1619 4
1699 1700 1
1699 1779 2
1699 1698 5
1700 1620 1
1700 1701 3
1700 1780 3
1700 1699 2
1701 1621 5
1701 1702 3
1701 1781 3
1701 1700 3
1702 1622 1
1702 1703 1
1702 1782 5
1702 1701 2
1703 1623 5
1703 1704 2
1703 1783 4
1703 1702 3
1704 1624 2
1704 1705 3
1704 1784 2
1704 1703 4
1705 1625 2
1705 1706 5
1705 1785 1
1705 1704 3
1706 1626 1
1706 1707 2
1706 1786 5
1706 1705 2
1707 1627 4
1707 1708 4
1707 1787 4
1707 1706 2
1708 1628 4
1708 1709 2
1708 1788 2
1708 1707 5
1709 1629 3
1709 1710 1
1709 1789 3
1709 1708 1
1710 1630 1
1710 1711 2
1710 1790 4
1710 1709 4
1711 1631 4
1711 1712 3
1711 1791 4
1711 1710 5
1712 1632 2
1712 1713 4
1712 1792 4
1712 1711 4
1713 1633 3
1713 1714 2
1713 1793 5
1713 1712 4
1714 1634 1
1714 1715 3
1714 1794 4
1714 1713 4
1715 1635 3
1715 1716 5
1715 1795 1
1715 1714 1
1716 1636 5
1716 1717 3
1716 1796 4
1716 1715 5
1717 1637 3
1717 1718 3
1717 1797 3
1717 1716 3
1718 1638 1
1718 1719 3
1718 1798 5
1718 1717 4
1719 1639 4
1719 1720 2
1719 1799 5
1719 1718 2
1720 1640 5
1720 1721 3
1720 1800 2
1720 1719 3
1721 1641 5
1721 1722 1
1721 1801 1
1721 1720 1
1722 1642 1
1722 1723 4
1722 1802 1
1722 1721 5
1723 1643 1
1723 1724 4
1723 1803 3
1723 1722 2
1724 1644 3
1724 1725 3
1724 1804 2
1724 1723 1
1725 1645 1
1725 1726 5
1725 1805 1
1725 1724 1
1726 1646 5
1726 1727 2
1726 1806 5
1726 1725 1
1727 1647 1
1727 1728 1
1727 1807 5
1727 1726 2
1728 1648 4
1728 1729 5
1728 1808 2
1728 1727 1
1729 1649 2
1729 1730 3
1729 1809 3
1729 1728 4
1730 1650 1
1730 1731 4
1730 1810 3
1730 1729 4
1731 1651 3
1731 1732 3
1731 1811 2
1731 1730 1
1732 1652 3
1732 1733 1
1732 1812 4
1732 1731 4
1733 1653 3
1733 1734 1
1733 1813 3
1733 1732 3
1734 1654 2
1734 1735 4
1734 1814 1
1734 1733 4
1735 1655 2
1735 1736 5
1735 1815 4
1735 1734 2
1736 1656 4
1736 1737 1
1736 1816 2
1736 1735 5
1737 1657 4
1737 1738 2
1737 1817 5
1737 1736 1
1738 1658 4
1738 1739 3
1738 1818 1
1738 1737 1
1739 1659 1
1739 1740 1
1739 1819 5
1739 1738 3
1740 1660 4
1740 1741 1
1740 1820 4
1740 1739 2
1741 1661 1
1741 1742 1
1741 1821 4
1741 1740 3
1742 1662 2
1742 1743 3
1742 1822 4
1742 1741 5
1743 1663 1
1743 1744 5
1743 1823 4
1743 1742 4
1744 1664 4
1744 1745 4
1744 1824 1
1744 1743 5
1745 1665 2
1745 1746 1
1745 1825 4
1745 1744 4
1746 1666 1
1746 1747 5
1746 1826 5
1746 1745 3
1747 1667 3
1747 1748 3
1747 1827 4
1747 1746 1
1748 1668 1
1748 1749 3
1748 1828 5
1748 1747 3
1749 1669 1
1749 1750 4
1749 1829 3
1749 1748 2
1750 1670 2
1750 1751 5
1750 1830 1
1750 1749 4
1751 1671 2
1751 1752 3
1751 1831 4
1751 1750 1
1752 1672 3
1752 1753 4
1752 1832 1
1752 1751 4
1753 1673 2
1753 1754 2
1753 1833 1
1753 1752 2
1754 1674 1
1754 1755 5
1754 1834 2
1754 1753 4
1755 1675 4
1755 1756 1
1755 1835 5
1755 1754 3
1756 1676 4
1756 1757 5
1756 1836 4
1756 1755 1
1757 1677 1
1757 1758 3
1757 1837 1
1757 1756 3
1758 1678 1
1758 1759 4
1758 1838 1
1758 1757 2
1759 1679 5
1759 1839 4
1759 1758 5
1760 1680 2
1760 1761 5
1760 1840 2
1761 1681 1
1761 1762 1
1761 1841 2
1761 1760 4
1762 1682 1
1762 1763 4
1762 1842 5
1762 1761 1
1763 1683 2
1763 1764 2
1763 1843 1
1763 1762 2
1764 1684 1
1764 1765 3
1764 1844 1
1764 1763 4
1765 1685 5
1765 1766 2
1765 1845 5
1765 1764 1
1766 1686 1
1766 1767 1
1766 1846 4
1766 1765 5
1767 1687 5
1767 1768 2
1767 1847 1
1767 1766 2
1768 1688 4
1768 1769 3
1768 1848 4
1768 1767 3
1769 1689 1
1769 1770 5
1769 1849 5
1769 1768 2
1770 1690 3
1770 1771 2
1770 1850 1
1770 1769 5
1771 1691 2
1771 1772 3
1771 1851 1
1771 1770 1
1772 1692 3
1772 1773 2
1772 1852 4
1772 1771 2
1773 1693 3
1773 1774 5
1773 1853 2
1773 1772 4
1774 1694 2
1774 1775 5
1774 1854 1
1774 1773 2
1775 1695 1
1775 1776 5
1775 1855 4
1775 1774 2
1776 1696 1
1776 1777 4
1776 1856 1
1776 1775 1
1777 1697 1
1777 1778 2
1777 1857 1
1777 1776 5
1778 1698 3
1778 1779 4
1778 1858 4
1778 1777 2
1779 1699 2
1779 1780 2
1779 1859 3
1779 1778 5
1780 1700 4
1780 1781 4
1780 1860 2
1780 1779 2
1781 1701 5
1781 1782 1
1781 1861 5
1781 1780 2
1782 1702 4
1782 1783 5
1782 1862 1
1782 1781 3
1783 1703 3
1783 1784 4
1783 1863 1
1783 1782 5
1784 1704 2
1784 1785 2
1784 1864 1
1784 1783 5
1785 1705 1
1785 1786 5
1785 1865 3
1785 1784 5
1786 1706 5
1786 1787 2
1786 1866 4
1786 1785 2
1787 1707 3
1787 1788 1
1787 1867 2
1787 1786 1
1788 1708 2
1788 1789 4
1788 1868 4
1788 1787 2
1789 1709 2
1789 1790 1
1789 1869 1
1789 1788 3
1790 1710 3
1790 1791 2
1790 1870 4
1790 1789 3
1791 1711 3
1791 1792 5
1791 1871 4
1791 1790 1
1792 1712 1
1792 1793 1
1792 1872 5
1792 1791 2
1793 1713 2
1793 1794 1
1793 1873 4
1793 1792 5
1794 1714 1
1794 1795 1
1794 1874 2
1794 1793 4
1795 1715 5
1795 1796 5
1795 1875 3
1795 1794 4
1796 1716 2
1796 1797 3
1796 1876 2
1796 1795 1
1797 1717 3
1797 1798 2
1797 1877 1
1797 1796 2
1798 1718 4
1798 1799 2
1798 1878 4
1798 1797 2
1799 1719 1
1799 1800 4
1799 1879 5
1799 1798 4
1800 1720 1
1800 1801 4
1800 1880 2
1800 1799 2
1801 1721 5
1801 1802 4
1801 1881 2
1801 1800 4
1802 1722 3
1802 1803 2
1802 1882 4
1802 1801 2
1803 1723 3
1803 1804 3
1803 1883 2
1803 1802 3
1804 1724 2
1804 1805 1
1804 1884 5
1804 1803 1
1805 1725 3
1805 1806 2
1805 1885 1
1805 1804 4
1806 1726 4
1806 1807 4
1806 1886 2
1806 1805 3
1807 1727 2
1807 1808 3
1807 1887 5
1807 1806 2
1808 1728 5
1808 1809 2
1808 1888 5
1808 1807 5
1809 1729 2
1809 1810 1
1809 1889 4
1809 1808 5
1810 1730 4
1810 1811 2
1810 1890 5
1810 1809 4
1811 1731 4
1811 1812 3
1811 1891 1
1811 1810 4
1812 1732 2
1812 1813 2
1812 1892 3
1812 1811 4
1813 1733 5
1813 1814 2
1813 1893 5
1813 1812 2
1814 1734 5
1814 1815 1
1814 1894 4
1814 1813 1
1815 1735 1
1815 1816 4
1815 1895 5
1815 1814 1
1816 1736 4
1816 1817 5
1816 1896 4
1816 1815 4
1817 1737 1
1817 1818 4
1817 1897 4
1817 1816 2
1818 1738 1
1818 1819 5
1818 1898 1
1818 1817 4
1819 1739 2
1819 1820 2
1819 1899 3
1819 1818 3
1820 1740 2
1820 1821 1
1820 1900 1
1820 1819 4
1821 1741 3
1821 1822 2
1821 1901 4
1821 1820 5
1822 1742 5
1822 1823 1
1822 1902 4
1822 1821 4
1823 1743 2
1823 1824 4
1823 1903 2
1823 1822 3
1824 1744 4
1824 1825 1
1824 1904 1
1824 1823 4
1825 1745 3
1825 1826 5
1825 1905 1
1825 1824 3
1826 1746 4
1826 1827 3
1826 1906 5
1826 1825 5
1827 1747 5
1827 1828 2
1827 1907 1
1827 1826 5
1828 1748 3
1828 1829 1
1828 1908 5
1828 1827 3
1829 1749 1
1829 1830 1
1829 1909 4
1829 1828 3
1830 1750 4
1830 1831 5
1830 1910 1
1830 1829 3
1831 1751 3
1831 1832 2
1831 1911 5
1831 1830 1
1832 1752 5
1832 1833 2
1832 1912 2
1832 1831 3
1833 1753 2
1833 1834 5
1833 1913 1
1833 1832 4
1834 1754 5
1834 1835 2
1834 1914 2
1834 1833 3
1835 1755 3
1835 1836 3
1835 1915 5
1835 1834 4
1836 1756 3
1836 1837 1
1836 1916 1
1836 1835 3
1837 1757 3
1837 1838 4
1837 1917 4
1837 1836 5
1838 1758 5
1838 1839 1
1838 1918 4
1838 1837 5
1839 1759 5
1839 1919 3
1839 1838 4
1840 1760 5
1840 1841 3
1840 1920 1
1841 1761 2
1841 1842 4
1841 1921 1
1841 1840 1
1842 1762 4
1842 1843 2
1842 1922 3
1842 1841 1
1843 1763 1
1843 1844 2
1843 1923 3
1843 1842 1
1844 1764 2
1844 1845 4
1844 1924 2
1844 1843 2
1845 1765 5
1845 1846 1
1845 1925 3
1845 1844 4
1846 1766 5
1846 1847 2
1846 1926 4
1846 1845 3
1847 1767 4
1847 1848 4
1847 1927 1
1847 1846 3
1848 1768 2
1848 1849 1
1848 1928 1
1848 1847 2
1849 1769 5
1849 1850 3
1849 1929 4
1849 1848 5
1850 1770 3
1850 1851 3
1850 1930 4
1850 1849 5
1851 1771 5
1851 1852 5
1851 1931 4
1851 1850 4
1852 1772 3
1852 1853 5
1852 1932 2
1852 1851 3
1853 1773 2
1853 1854 3
1853 1933 2
1853 1852 4
1854 1774 3
1854 1855 3
1854 1934 1
1854 1853 2
1855 1775 3
1855 1856 3
1855 1935 4
1855 1854 2
1856 1776 5
1856 1857 2
1856 1936 5
1856 1855 3
1857 1777 2
1857 1858 2
1857 1937 2
1857 1856 2
1858 1778 2
1858 1859 1
1858 1938 1
1858 1857 3
1859 1779 5
1859 1860 2
1859 1939 4
1859 1858 3
1860 1780 3
1860 1861 2
1860 1940 2
1860 1859 5
1861 1781 1
1861 1862 3
1861 1941 3
1861 1860 2
1862 1782 3
1862 1863 4
1862 1942 5
1862 1861 2
1863 1783 5
1863 1864 3
1863 1943 1
1863 1862 1
1864 1784 4
1864 1865 4
1864 1944 2
1864 1863 4
1865 1785 3
1865 1866 2
1865 1945 1
1865 1864 5
1866 1786 5
1866 1867 3
1866 1946 3
1866 1865 4
1867 1787 3
1867 1868 5
1867 1947 2
1867 1866 5
1868 1788 4
1868 1869 3
1868 1948 1
1868 1867 4
1869 1789 1
1869 1870 2
1869 1949 5
1869 1868 1
1870 1790 3
1870 1871 1
1870 1950 4
1870 1869 5
1871 1791 2
1871 1872 4
1871 1951 3
1871 1870 1
1872 1792 3
1872 1873 1
1872 1952 5
1872 1871 2
1873 1793 5
1873 1874 5
1873 1953 2
1873 1872 3
1874 1794 2
1874 1875 1
1874 1954 1
1874 1873 5
1875 1795 4
1875 1876 1
1875 1955 5
1875 1874 4
1876 1796 2
1876 1877 4
1876 1956 3
1876 1875 5
1877 1797 5
1877 1878 5
1877 1957 1
1877 1876 3
1878 1798 4
1878 1879 2
1878 1958 4
1878 1877 3
1879 1799 4
1879 1880 3
1879 1959 1
1879 1878 3
1880 1800 3
1880 1881 3
1880 1960 3
1880 1879 4
1881 1801 5
1881 1882 1
1881 1961 2
1881 1880 4
1882 1802 4
1882 1883 4
1882 1962 3
1882 1881 2
1883 1803 4
1883 1884 4
1883 1963 2
1883 1882 5
1884 1804 5
1884 1885 1
1884 1964 2
1884 1883 2
1885 1805 3
1885 1886 4
1885 1965 5
1885 1884 3
1886 1806 1
1886 1887 5
1886 1966 4
1886 1885 1
1887 1807 1
1887 1888 4
1887 1967 3
1887 1886 4
1888 1808 2
1888 1889 5
1888 1968 4
1888 1887 5
1889 1809 2
1889 1890 2
1889 1969 2
1889 1888 4
1890 1810 3
1890 1891 5
1890 1970 4
1890 1889 1
1891 1811 3
1891 1892 5
1891 1971 3
1891 1890 4
1892 1812 5
1892 1893 4
1892 1972 2
1892 1891 1
1893 1813 1
1893 1894 2
1893 1973 3
1893 1892 3
1894 1814 4
1894 1895 1
1894 1974 3
1894 1893 4
1895 1815 2
1895 1896 4
1895 1975 2
1895 1894 1
1896 1816 1
1896 1897 3
1896 1976 4
1896 1895 1
1897 1817 5
1897 1898 3
1897 1977 5
1897 1896 4
1898 1818 5
1898 1899 4
1898 1978 3
1898 1897 4
1899 1819 1
1899 1900 3
1899 1979 5
1899 1898 5
1900 1820 1
1900 1901 3
1900 1980 2
1900 1899 5
1901 1821 1
1901 1902 2
1901 1981 3
1901 1900 4
1902 1822 2
1902 1903 3
1902 1982 2
1902 1901 1
1903 1823 3
1903 1904 3
1903 1983 4
1903 1902 3
1904 1824 1
1904 1905 3
1904 1984 3
1904 1903 5
1905 1825 1
1905 1906 5
1905 1985 2
1905 1904 2
1906 1826 1
1906 1907 5
1906 1986 2
1906 1905 5
1907 1827 3
1907 1908 3
1907 1987 3
1907 1906 3
1908 1828 3
1908 1909 1
1908 1988 5
1908 1907 5
1909 1829 3
1909 1910 2
1909 1989 1
1909 1908 2
1910 1830 5
1910 1911 3
1910 1990 3
1910 1909 4
1911 1831 4
1911 1912 3
1911 1991 2
1911 1910 1
1912 1832 2
1912 1913 2
1912 1992 5
1912 1911 2
1913 1833 2
1913 1914 5
1913 1993 5
1913 1912 5
1914 1834 5
1914 1915 5
1914 1994 1
1914 1913 4
1915 1835 4
1915 1916 1
1915 1995 1
1915 1914 2
1916 1836 1
1916 1917 4
1916 1996 3
1916 1915 3
1917 1837 3
1917 1918 2
1917 1997 4
1917 1916 5
1918 1838 5
1918 1919 3
1918 1998 2
1918 1917 3
1919 1839 1
1919 1999 1
1919 1918 2
1920 1840 2
1920 1921 2
1920 2000 2
1921 1841 3
1921 1922 2
1921 2001 2
1921 1920 2
1922 1842 1
1922 1923 4
1922 2002 1
1922 1921 1
1923 1843 1
1923 1924 4
1923 2003 4
1923 1922 1
1924 1844 2
1924 1925 1
1924 2004 1
1924 1923 5
1925 1845 5
1925 1926 1
1925 2005 4
1925 1924 1
1926 1846 3
1926 1927 1
1926 2006 1
1926 1925 3
1927 1847 1
1927 1928 1
1927 2007 1
1927 1926 5
1928 1848 2
1928 1929 5
1928 2008 2
1928 1927 2
1929 1849 3
1929 1930 1
1929 2009 1
1929 1928 2
1930 1850 3
1930 1931 5
1930 2010 3
1930 1929 3
1931 1851 2
1931 1932 5
1931 2011 5
1931 1930 2
1932 1852 5
1932 1933 5
1932 2012 1
1932 1931 1
1933 1853 5
1933 1934 1
1933 2013 5
1933 1932 2
1934 1854 2
1934 1935 3
1934 2014 2
1934 1933 5
1935 1855 1
1935 1936 1
1935 2015 2
1935 1934 5
1936 1856 4
1936 1937 3
1936 2016 5
1936 1935 2
1937 1857 4
1937 1938 1
1937 2017 2
1937 1936 3
1938 1858 4
1938 1939 4
1938 2018 2
1938 1937 5
1939 1859 2
1939 1940 4
1939 2019 1
1939 1938 3
1940 1860 1
1940 1941 4
1940 2020 1
1940 1939 5
1941 1861 2
1941 1942 4
1941 2021 3
1941 1940 3
1942 1862 5
1942 1943 1
1942 2022 1
1942 1941 3
1943 1863 4
1943 1944 1
1943 2023 4
1943 1942 3
1944 1864 4
1944 1945 5
1944 2024 3
1944 1943 4
1945 1865 2
1945 1946 5
1945 2025 4
1945 1944 3
1946 1866 4
1946 1947 2
1946 2026 1
1946 1945 4
1947 1867 3
1947 1948 2
1947 2027 1
1947 1946 4
1948 1868 1
1948 1949 4
1948 2028 4
1948 1947 5
1949 1869 1
1949 1950 1
1949 2029 2
1949 1948 4
1950 1870 4
1950 1951 5
1950 2030 1
1950 1949 2
1951 1871 1
1951 1952 3
1951 2031 2
1951 1950 3
1952 1872 2
1952 1953 5
1952 2032 4
1952 1951 1
1953 1873 2
1953 1954 4
1953 2033 4
1953 1952 3
1954 1874 5
1954 1955 5
1954 2034 3
1954 1953 4
1955 1875 3
1955 1956 4
1955 2035 5
1955 1954 4
1956 1876 4
1956 1957 5
1956 2036 3
1956 1955 2
1957 1877 4
1957 1958 1
1957 2037 1
1957 1956 3
1958 1878 4
1958 1959 4
1958 2038 2
1958 1957 2
1959 1879 1
1959 1960 1
1959 2039 1
1959 1958 1
1960 1880 4
1960 1961 1
1960 2040 2
1960 1959 4
1961 1881 5
1961 1962 3
1961 2041 2
1961 1960 3
1962 1882 5
1962 1963 5
1962 2042 1
1962 1961 1
1963 1883 5
1963 1964 4
1963 2043 4
1963 1962 2
1964 1884 3
1964 1965 4
1964 2044 4
1964 1963 5
1965 1885 3
1965 1966 5
1965 2045 3
1965 1964 5
1966 1886 5
1966 1967 1
1966 2046 1
1966 1965 4
1967 1887 1
1967 1968 4
1967 2047 4
1967 1966 3
1968 1888 4
1968 1969 4
1968 2048 4
1968 1967 1
1969 1889 1
1969 1970 2
1969 2049 5
1969 1968 3
1970 1890 2
1970 1971 4
1970 2050 4
1970 1969 2
1971 1891 3
1971 1972 4
1971 2051 4
1971 1970 1
1972 1892 5
1972 1973 4
1972 2052 5
1972 1971 5
1973 1893 5
1973 1974 4
1973 2053 4
1973 1972 5
1974 1894 2
1974 1975 5
1974 2054 1
1974 1973 4
1975 1895 3
1975 1976 4
1975 2055 5
1975 1974 4
1976 1896 5
1976 1977 3
1976 2056 3
1976 1975 3
1977 1897 1
1977 1978 1
1977 2057 5
1977 1976 1
1978 1898 2
1978 1979 3
1978 2058 3
1978 1977 5
1979 1899 1
1979 1980 3
1979 2059 4
1979 1978 1
1980 1900 4
1980 1981 3
1980 2060 3
1980 1979 4
1981 1901 3
1981 1982 1
1981 2061 2
1981 1980 2
1982 1902 2
1982 1983 3
1982 2062 5
1982 1981 1
1983 1903 1
1983 1984 3
1983 2063 1
1983 1982 3
1984 1904 2
1984 1985 1
1984 2064 5
1984 1983 3
1985 1905 1
1985 1986 4
1985 2065 4
1985 1984 5
1986 1906 5
1986 1987 4
1986 2066 3
1986 1985 1
1987 1907 4
1987 1988 5
1987 2067 1
1987 1986 3
1988 1908 4
1988 1989 5
1988 2068 4
1988 1987 3
1989 1909 5
1989 1990 1
1989 2069 4
1989 1988 1
1990 1910 2
1990 1991 3
1990 2070 4
1990 1989 5
1991 1911 3
1991 1992 2
1991 2071 5
1991 1990 3
1992 1912 3
1992 1993 4
1992 2072 2
1992 1991 4
1993 1913 1
1993 1994 5
1993 2073 2
1993 1992 3
1994 1914 3
1994 1995 1
1994 2074 3
1994 1993 5
1995 1915 4
1995 1996 2
1995 2075 5
1995 1994 1
1996 1916 5
1996 1997 1
1996 2076 5
1996 1995 3
1997 1917 3
1997 1998 1
1997 2077 5
1997 1996 5
1998 1918 4
1998 1999 4
1998 2078 2
1998 1997 3
1999 1919 1
1999 2079 3
1999 1998 5
2000 1920 3
2000 2001 4
2000 2080 5
2001 1921 3
2001 2002 2
2001 2081 4
2001 2000 4
2002 1922 3
2002 2003 5
2002 2082 5
2002 2001 4
2003 1923 5
2003 2004 2
2003 2083 1
2003 2002 5
2004 1924 2
2004 2005 5
2004 2084 4
2004 2003 2
2005 1925 4
2005 2006 3
2005 2085 5
2005 2004 5
2006 1926 4
2006 2007 5
2006 2086 1
2006 2005 5
2007 1927 2
2007 2008 3
2007 2087 4
2007 2006 2
2008 1928 2
2008 2009 2
2008 2088 3
2008 2007 4
2009 1929 4
2009 2010 3
2009 2089 1
2009 2008 2
2010 1930 4
2010 2011 3
2010 2090 3
2010 2009 2
2011 1931 3
2011 2012 5
2011 2091 2
2011 2010 4
2012 1932 2
2012 2013 1
2012 2092 2
2012 2011 2
2013 1933 1
2013 2014 2
2013 2093 3
2013 2012 4
2014 1934 4
2014 2015 5
2014 2094 4
2014 2013 4
2015 1935 1
2015 2016 2
2015 2095 2
2015 2014 3
2016 1936 2
2016 2017 1
2016 2096 3
2016 2015 3
2017 1937 5
2017 2018 2
2017 2097 1
2017 2016 4
2018 1938 1
2018 2019 1
2018 2098 1
2018 2017 3
2019 1939 5
2019 2020 3
2019 2099 1
2019 2018 4
2020 1940 3
2020 2021 1
2020 2100 4
2020 2019 2
2021 1941 2
2021 2022 1
2021 2101 5
2021 2020 5
2022 1942 1
2022 2023 5
2022 2102 5
2022 2021 5
2023 1943 3
2023 2024 4
2023 2103 1
2023 2022 2
2024 1944 5
2024 2025 1
2024 2104 3
2024 2023 3
2025 1945 5
2025 2026 4
2025 2105 2
2025 2024 4
2026 1946 2
2026 2027 2
2026 2106 1
2026 2025 2
2027 1947 2
2027 2028 3
2027 2107 4
2027 2026 4
2028 1948 3
2028 2029 5
2028 2108 1
2028 2027 4
2029 1949 5
2029 2030 3
2029 2109 1
2029 2028 3
2030 1950 5
2030 2031 4
2030 2110 4
2030 2029 2
2031 1951 3
2031 2032 2
2031 2111 3
2031 2030 4
2032 1952 3
2032 2033 3
2032 2112 1
2032 2031 5
2033 1953 1
2033 2034 1
2033 2113 2
2033 2032 3
2034 1954 5
2034 2035 4
2034 2114 3
2034 2033 3
2035 1955 1
2035 2036 5
2035 2115 2
2035 2034 4
2036 1956 4
2036 2037 1
2036 2116 4
2036 2035 3
2037 1957 3
2037 2038 1
2037 2117 2
2037 2036 3
2038 1958 2
2038 2039 2
2038 2118 4
2038 2037 3
2039 1959 4
2039 2040 1
2039 2119 3
2039 2038 1
2040 1960 4
2040 2041 4
2040 2120 4
2040 2039 3
2041 1961 4
2041 2042 1
2041 2121 2
2041 2040 3
2042 1962 5
2042 2043 1
2042 2122 3
2042 2041 4
2043 1963 5
2043 2044 5
2043 2123 3
2043 2042 4
2044 1964 1
2044 2045 1
2044 2124 2
2044 2043 4
2045 1965 2
2045 2046 1
2045 2125 4
2045 2044 2
2046 1966 3
2046 2047 3
2046 2126 5
2046 2045 1
2047 1967 1
2047 2048 2
2047 2127 2
2047 2046 5
2048 1968 2
2048 2049 5
2048 2128 4
2048 2047 3
2049 1969 4
2049 2050 4
2049 2129 2
2049 2048 3
2050 1970 2
2050 2051 5
2050 2130 3
2050 2049 3
2051 1971 2
2051 2052 1
2051 2131 4
2051 2050 3
2052 1972 2
2052 2053 4
2052 2132 4
2052 2051 5
2053 1973 2
2053 2054 1
2053 2133 1
2053 2052 5
2054 1974 5
2054 2055 2
2054 2134 1
2054 2053 4
2055 1975 2
2055 2056 3
2055 2135 2
2055 2054 1
2056 1976 4
2056 2057 5
2056 2136 4
2056 2055 5
2057 1977 3
2057 2058 2
2057 2137 1
2057 2056 3
2058 1978 2
2058 2059 5
2058 2138 1
2058 2057 1
2059 1979 5
2059 2060 4
2059 2139 4
2059 2058 4
2060 1980 1
2060 2061 2
2060 2140 2
2060 2059 2
2061 1981 3
2061 2062 3
2061 2141 4
2061 2060 4
2062 1982 2
2062 2063 4
2062 2142 2
2062 2061 5
2063 1983 2
2063 2064 3
2063 2143 2
2063 2062 4
2064 1984 2
2064 2065 4
2064 2144 2
2064 2063 1
2065 1985 3
2065 2066 3
2065 2145 2
2065 2064 5
2066 1986 4
2066 2067 2
2066 2146 3
2066 2065 5
2067 1987 4
2067 2068 1
2067 2147 1
2067 2066 4
2068 1988 2
2068 2069 3
2068 2148 4
2068 2067 2
2069 1989 4
2069 2070 4
2069 2149 5
2069 2068 3
2070 1990 1
2070 2071 1
2070 2150 5
2070 2069 1
2071 1991 1
2071 2072 3
2071 2151 2
2071 2070 4
2072 1992 3
2072 2073 5
2072 2152 5
2072 2071 1
2073 1993 1
2073 2074 3
2073 2153 5
2073 2072 5
2074 1994 4
2074 2075 3
2074 2154 4
2074 2073 3
2075 1995 2
2075 2076 5
2075 2155 1
2075 2074 5
2076 1996 2
2076 2077 3
2076 2156 2
2076 2075 5
2077 1997 4
2077 2078 3
2077 2157 4
2077 2076 2
2078 1998 1
2078 2079 3
2078 2158 5
2078 2077 4
2079 1999 2
2079 2159 3
2079 2078 1
2080 2000 3
2080 2081 1
2080 2160 2
2081 2001 4
2081 2082 3
2081 2161 3
2081 2080 4
2082 2002 3
2082 2083 3
2082 2162 5
2082 2081 3
2083 2003 5
2083 2084 3
2083 2163 4
2083 2082 2
2084 2004 3
2084 2085 4
2084 2164 2
2084 2083 5
2085 2005 4
2085 2086 1
2085 2165 2
2085 2084 2
2086 2006 1
2086 2087 2
2086 2166 2
2086 2085 1
2087 2007 4
2087 2088 3
2087 2167 2
2087 2086 4
2088 2008 4
2088 2089 1
2088 2168 4
2088 2087 1
2089 2009 4
2089 2090 3
2089 2169 5
2089 2088 4
2090 2010 4
2090 2091 4
2090 2170 1
2090 2089 2
2091 2011 1
2091 2092 3
2091 2171 1
2091 2090 2
2092 2012 3
2092 2093 2
2092 2172 2
2092 2091 5
2093 2013 3
2093 2094 5
2093 2173 5
2093 2092 2
2094 2014 5
2094 2095 1
2094 2174 5
2094 2093 5
2095 2015 2
2095 2096 4
2095 2175 1
2095 2094 2
2096 2016 4
2096 2097 1
2096 2176 3
2096 2095 1
2097 2017 3
2097 2098 1
2097 2177 4
2097 2096 3
2098 2018 5
2098 2099 1
2098 2178 3
2098 2097 2
2099 2019 1
2099 2100 1
2099 2179 4
2099 2098 4
2100 2020 4
2100 2101 3
2100 2180 5
2100 2099 1
2101 2021 3
2101 2102 1
2101 2181 5
2101 2100 4
2102 2022 3
2102 2103 5
2102 2182 2
2102 2101 2
2103 2023 1
2103 2104 3
2103 2183 3
2103 2102 1
2104 2024 1
2104 2105 5
2104 2184 5
2104 2103 4
2105 2025 1
2105 2106 4
2105 2185 3
2105 2104 2
2106 2026 2
2106 2107 4
2106 2186 1
2106 2105 1
2107 2027 2
2107 2108 2
2107 2187 4
2107 2106 4
2108 2028 3
2108 2109 2
2108 2188 1
2108 2107 3
2109 2029 4
2109 2110 4
2109 2189 3
2109 2108 5
2110 2030 2
2110 2111 3
2110 2190 1
2110 2109 3
2111 2031 5
2111 2112 2
2111 2191 4
2111 2110 4
2112 2032 4
2112 2113 4
2112 2192 3
2112 2111 5
2113 2033 5
2113 2114 4
2113 2193 1
2113 2112 4
2114 2034 3
2114 2115 5
2114 2194 2
2114 2113 4
2115 2035 4
2115 2116 1
2115 2195 1
2115 2114 5
2116 2036 3
2116 2117 4
2116 2196 2
2116 2115 2
2117 2037 4
2117 2118 5
2117 2197 5
2117 2116 1
2118 2038 3
2118 2119 4
2118 2198 4
2118 2117 1
2119 2039 4
2119 2120 3
2119 2199 2
2119 2118 2
2120 2040 3
2120 2121 2
2120 2200 5
2120 2119 4
2121 2041 3
2121 2122 5
2121 2201 1
2121 2120 5
2122 2042 1
2122 2123 1
2122 2202 5
2122 2121 1
2123 2043 5
2123 2124 4
2123 2203 4
2123 2122 1
2124 2044 4
2124 2125 5
2124 2204 3
2124 2123 3
2125 2045 3
2125 2126 5
2125 2205 1
2125 2124 5
2126 2046 1
2126 2127 1
2126 2206 4
2126 2125 2
2127 2047 2
2127 2128 4
2127 2207 1
2127 2126 1
2128 2048 4
2128 2129 3
2128 2208 3
2128 2127 5
2129 2049 4
2129 2130 4
2129 2209 5
2129 2128 3
2130 2050 3
2130 2131 2
2130 2210 2
2130 2129 2
2131 2051 1
2131 2132 5
2131 2211 3
2131 2130 1
2132 2052 4
2132 2133 5
2132 2212 1
2132 2131 1
2133 2053 4
2133 2134 1
2133 2213 1
2133 2132 2
2134 2054 4
2134 2135 4
2134 2214 4
2134 2133 5
2135 2055 4
2135 2136 3
2135 2215 5
2135 2134 5
2136 2056 3
2136 2137 4
2136 2216 3
2136 2135 1
2137 2057 2
2137 2138 2
2137 2217 1
2137 2136 2
2138 2058 1
2138 2139 1
2138 2218 2
2138 2137 1
2139 2059 2
2139 2140 4
2139 2219 2
2139 2138 2
2140 2060 4
2140 2141 5
2140 2220 2
2140 2139 1
2141 2061 3
2141 2142 4
2141 2221 2
2141 2140 4
2142 2062 4
2142 2143 1
2142 2222 1
2142 2141 2
2143 2063 2
2143 2144 4
2143 2223 4
2143 2142 4
2144 2064 1
2144 2145 4
2144 2224 5
2144 2143 2
2145 2065 2
2145 2146 3
2145 2225 5
2145 2144 4
2146 2066 1
2146 2147 3
2146 2226 1
2146 2145 1
2147 2067 4
2147 2148 4
2147 2227 4
2147 2146 5
2148 2068 5
2148 2149 5
2148 2228 3
2148 2147 1
2149 2069 4
2149 2150 4
2149 2229 4
2149 2148 5
2150 2070 5
2150 2151 5
2150 2230 4
2150 2149 2
2151 2071 1
2151 2152 5
2151 2231 1
2151 2150 4
2152 2072 5
2152 2153 3
2152 2232 5
2152 2151 1
2153 2073 3
2153 2154 4
2153 2233 4
2153 2152 1
2154 2074 4
2154 2155 5
2154 2234 3
2154 2153 4
2155 2075 4
2155 2156 1
2155 2235 2
2155 2154 3
2156 2076 2
2156 2157 4
2156 2236 3
2156 2155 4
2157 2077 2
2157 2158 5
2157 2237 2
2157 2156 5
2158 2078 3
2158 2159 5
2158 2238 4
2158 2157 2
2159 2079 3
2159 2239 4
2159 2158 4
2160 2080 3
2160 2161 4
2160 2240 2
2161 2081 5
2161 2162 2
2161 2241 3
2161 2160 1
2162 2082 4
2162 2163 2
2162 2242 2
2162 2161 2
2163 2083 2
2163 2164 5
2163 2243 4
2163 2162 1
2164 2084 4
2164 2165 4
2164 2244 3
2164 2163 2
2165 2085 2
2165 2166 5
2165 2245 1
2165 2164 1
2166 2086 3
2166 2167 3
2166 2246 3
2166 2165 2
2167 2087 2
2167 2168 5
2167 2247 1
2167 2166 1
2168 2088 3
2168 2169 4
2168 2248 1
2168 2167 5
2169 2089 2
2169 2170 1
2169 2249 5
2169 2168 2
2170 2090 4
2170 2171 3
2170 2250 3
2170 2169 3
2171 2091 1
2171 2172 5
2171 2251 3
2171 2170 2
2172 2092 5
2172 2173 5
2172 2252 1
2172 2171 1
2173 2093 4
2173 2174 4
2173 2253 1
2173 2172 1
2174 2094 5
2174 2175 5
2174 2254 1
2174 2173 5
2175 2095 1
2175 2176 5
2175 2255 1
2175 2174 2
2176 2096 1
2176 2177 2
2176 2256 3
2176 2175 2
2177 2097 3
2177 2178 4
2177 2257 5
2177 2176 4
2178 2098 1
2178 2179 2
2178 2258 3
2178 2177 3
2179 2099 2
2179 2180 1
2179 2259 2
2179 2178 4
2180 2100 4
2180 2181 1
2180 2260 2
2180 2179 4
2181 2101 3
2181 2182 3
2181 2261 5
2181 2180 2
2182 2102 1
2182 2183 3
2182 2262 3
2182 2181 4
2183 2103 3
2183 2184 2
2183 2263 2
2183 2182 5
2184 2104 4
2184 2185 2
2184 2264 2
2184 2183 4
2185 2105 4
2185 2186 4
2185 2265 4
2185 2184 5
2186 2106 3
2186 2187 1
2186 2266 4
2186 2185 2
2187 2107 1
2187 2188 5
2187 2267 1
2187 2186 1
2188 2108 3
2188 2189 3
2188 2268 4
2188 2187 2
2189 2109 4
2189 2190 1
2189 2269 4
2189 2188 1
2190 2110 2
2190 2191 5
2190 2270 1
2190 2189 5
2191 2111 3
2191 2192 4
2191 2271 4
2191 2190 5
2192 2112 3
2192 2193 3
2192 2272 3
2192 2191 1
2193 2113 3
2193 2194 5
2193 2273 5
2193 2192 2
2194 2114 4
2194 2195 4
2194 2274 2
2194 2193 5
2195 2115 5
2195 2196 5
2195 2275 4
2195 2194 3
2196 2116 4
2196 2197 2
2196 2276 3
2196 2195 1
2197 2117 1
2197 2198 5
2197 2277 3
2197 2196 4
2198 2118 2
2198 2199 5
2198 2278 5
2198 2197 3
2199 2119 2
2199 2200 1
2199 2279 5
2199 2198 5
2200 2120 3
2200 2201 5
2200 2280 3
2200 2199 2
2201 2121 1
2201 2202 1
2201 2281 5
2201 2200 5
2202 2122 3
2202 2203 2
2202 2282 3
2202 2201 4
2203 2123 5
2203 2204 1
2203 2283 1
2203 2202 3
2204 2124 3
2204 2205 5
2204 2284 3
2204 2203 1
2205 2125 1
2205 2206 1
2205 2285 4
2205 2204 3
2206 2126 5
2206 2207 1
2206 2286 4
2206 2205 3
2207 2127 2
2207 2208 5
2207 2287 5
2207 2206 5
2208 2128 5
2208 2209 2
2208 2288 3
2208 2207 3
2209 2129 3
2209 2210 5
2209 2289 2
2209 2208 4
2210 2130 5
2210 2211 2
2210 2290 1
2210 2209 3
2211 2131 5
2211 2212 5
2211 2291 2
2211 2210 3
2212 2132 4
2212 2213 1
2212 2292 2
2212 2211 4
2213 2133 4
2213 2214 1
2213 2293 1
2213 2212 1
2214 2134 4
2214 2215 2
2214 2294 4
2214 2213 2
2215 2135 4
2215 2216 1
2215 2295 3
2215 2214 5
2216 2136 4
2216 2217 5
2216 2296 5
2216 2215 5
2217 2137 4
2217 2218 3
2217 2297 5
2217 2216 4
2218 2138 4
2218 2219 4
2218 2298 4
2218 2217 4
2219 2139 2
2219 2220 2
2219 2299 5
2219 2218 2
2220 2140 4
2220 2221 4
2220 2300 2
2220 2219 5
2221 2141 5
2221 2222 1
2221 2301 2
2221 2220 4
2222 2142 4
2222 2223 1
2222 2302 2
2222 2221 5
2223 2143 3
2223 2224 1
2223 2303 5
2223 2222 4
2224 2144 1
2224 2225 1
2224 2304 3
2224 2223 5
2225 2145 3
2225 2226 1
2225 2305 5
2225 2224 2
2226 2146 1
2226 2227 3
2226 2306 3
2226 2225 3
2227 2147 3
2227 2228 3
2227 2307 4
2227 2226 1
2228 2148 2
2228 2229 2
2228 2308 5
2228 2227 4
2229 2149 1
2229 2230 3
2229 2309 3
2229 2228 2
2230 2150 2
2230 2231 4
2230 2310 1
2230 2229 1
2231 2151 5
2231 2232 3
2231 2311 1
2231 2230 1
2232 2152 4
2232 2233 4
2232 2312 5
2232 2231 3
2233 2153 5
2233 2234 4
2233 2313 3
2233 2232 4
2234 2154 4
2234 2235 5
2234 2314 2
2234 2233 2
2235 2155 5
2235 2236 4
2235 2315 4
2235 2234 4
2236 2156 2
2236 2237 3
2236 2316 1
2236 2235 5
2237 2157 5
2237 2238 4
2237 2317 4
2237 2236 2
2238 2158 4
2238 2239 3
2238 2318 5
2238 2237 1
2239 2159 4
2239 2319 3
2239 2238 1
2240 2160 2
2240 2241 1
2240 2320 5
2241 2161 3
2241 2242 5
2241 2321 1
2241 2240 5
2242 2162 1
2242 2243 2
2242 2322 5
2242 2241 5
2243 2163 5
2243 2244 1
2243 2323 5
2243 2242 5
2244 2164 2
2244 2245 4
2244 2324 5
2244 2243 1
2245 2165 1
2245 2246 5
2245 2325 2
2245 2244 1
2246 2166 3
2246 2247 2
2246 2326 2
2246 2245 5
2247 2167 4
2247 2248 1
2247 2327 5
2247 2246 5
2248 2168 3
2248 2249 4
2248 2328 5
2248 2247 1
2249 2169 4
2249 2250 1
2249 2329 3
2249 2248 4
2250 2170 2
2250 2251 4
2250 2330 1
2250 2249 5
2251 2171 3
2251 2252 4
2251 2331 3
2251 2250 1
2252 2172 1
2252 2253 1
2252 2332 5
2252 2251 2
2253 2173 3
2253 2254 2
2253 2333 2
2253 2252 3
2254 2174 1
2254 2255 2
2254 2334 3
2254 2253 4
2255 2175 2
2255 2256 1
2255 2335 5
2255 2254 3
2256 2176 2
2256 2257 1
2256 2336 1
2256 2255 3
2257 2177 4
2257 2258 1
2257 2337 3
2257 2256 2
2258 2178 4
2258 2259 3
2258 2338 3
2258 2257 4
2259 2179 1
2259 2260 1
2259 2339 2
2259 2258 2
2260 2180 5
2260 2261 5
2260 2340 2
2260 2259 4
2261 2181 5
2261 2262 5
2261 2341 4
2261 2260 1
2262 2182 3
2262 2263 1
2262 2342 3
2262 2261 4
2263 2183 5
2263 2264 4
2263 2343 1
2263 2262 4
2264 2184 1
2264 2265 4
2264 2344 2
2264 2263 1
2265 2185 3
2265 2266 5
2265 2345 5
2265 2264 1
2266 2186 2
2266 2267 5
2266 2346 2
2266 2265 3
2267 2187 5
2267 2268 4
2267 2347 4
2267 2266 1
2268 2188 5
2268 2269 2
2268 2348 2
2268 2267 3
2269 2189 5
2269 2270 2
2269 2349 2
2269 2268 5
2270 2190 4
2270 2271 5
2270 2350 4
2270 2269 1
2271 2191 1
2271 2272 4
2271 2351 5
2271 2270 3
2272 2192 2
2272 2273 1
2272 2352 1
2272 2271 4
2273 2193 3
2273 2274 5
2273 2353 3
2273 2272 4
2274 2194 3
2274 2275 2
2274 2354 5
2274 2273 5
2275 2195 3
2275 2276 1
2275 2355 2
2275 2274 5
2276 2196 5
2276 2277 1
2276 2356 3
2276 2275 1
2277 2197 4
2277 2278 1
2277 2357 2
2277 2276 5
2278 2198 3
2278 2279 4
2278 2358 2
2278 2277 5
2279 2199 5
2279 2280 3
2279 2359 3
2279 2278 3
2280 2200 4
2280 2281 3
2280 2360 2
2280 2279 3
2281 2201 3
2281 2282 2
2281 2361 4
2281 2280 5
2282 2202 3
2282 2283 1
2282 2362 2
2282 2281 1
2283 2203 5
2283 2284 4
2283 2363 1
2283 2282 1
2284 2204 2
2284 2285 4
2284 2364 5
2284 2283 4
2285 2205 4
2285 2286 5
2285 2365 1
2285 2284 1
2286 2206 5
2286 2287 1
2286 2366 4
2286 2285 1
2287 2207 3
2287 2288 4
2287 2367 5
2287 2286 3
2288 2208 4
2288 2289 2
2288 2368 1
2288 2287 1
2289 2209 4
2289 2290 3
2289 2369 2
2289 2288 4
2290 2210 1
2290 2291 2
2290 2370 1
2290 2289 3
2291 2211 3
2291 2292 2
2291 2371 1
2291 2290 5
2292 2212 3
2292 2293 2
2292 2372 2
2292 2291 4
2293 2213 3
2293 2294 1
2293 2373 3
2293 2292 4
2294 2214 5
2294 2295 2
2294 2374 1
2294 2293 2
2295 2215 4
2295 2296 1
2295 2375 3
2295 2294 5
2296 2216 5
2296 2297 4
2296 2376 2
2296 2295 5
2297 2217 2
2297 2298 5
2297 2377 5
2297 2296 5
2298 2218 2
2298 2299 1
2298 2378 5
2298 2297 2
2299 2219 1
2299 2300 2
2299 2379 3
2299 2298 5
2300 2220 2
2300 2301 5
2300 2380 3
2300 2299 2
2301 2221 1
2301 2302 5
2301 2381 5
2301 2300 3
2302 2222 5
2302 2303 4
2302 2382 1
2302 2301 4
2303 2223 1
2303 2304 3
2303 2383 4
2303 2302 4
2304 2224 3
2304 2305 1
2304 2384 5
2304 2303 4
2305 2225 4
2305 2306 3
2305 2385 5
2305 2304 1
2306 2226 2
2306 2307 1
2306 2386 3
2306 2305 4
2307 2227 5
2307 2308 4
2307 2387 3
2307 2306 1
2308 2228 4
2308 2309 2
2308 2388 3
2308 2307 1
2309 2229 5
2309 2310 1
2309 2389 2
2309 2308 4
2310 2230 1
2310 2311 2
2310 2390 2
2310 2309 2
2311 2231 3
2311 2312 3
2311 2391 1
2311 2310 1
2312 2232 1
2312 2313 4
2312 2392 4
2312 2311 1
2313 2233 5
2313 2314 3
2313 2393 3
2313 2312 2
2314 2234 1
2314 2315 4
2314 2394 2
2314 2313 3
2315 2235 1
2315 2316 3
2315 2395 5
2315 2314 2
2316 2236 1
2316 2317 5
2316 2396 5
2316 2315 4
2317 2237 1
2317 2318 4
2317 2397 5
2317 2316 1
2318 2238 1
2318 2319 1
2318 2398 1
2318 2317 4
2319 2239 3
2319 2399 1
2319 2318 2
2320 2240 1
2320 2321 4
2320 2400 1
2321 2241 3
2321 2322 5
2321 2401 4
2321 2320 1
2322 2242 1
2322 2323 1
2322 2402 5
2322 2321 1
2323 2243 3
2323 2324 4
2323 2403 4
2323 2322 1
2324 2244 5
2324 2325 4
2324 2404 2
2324 2323 5
2325 2245 5
2325 2326 1
2325 2405 4
2325 2324 4
2326 2246 4
2326 2327 4
2326 2406 5
2326 2325 5
2327 2247 1
2327 2328 3
2327 2407 1
2327 2326 4
2328 2248 5
2328 2329 3
2328 2408 5
2328 2327 2
2329 2249 1
2329 2330 1
2329 2409 1
2329 2328 5
2330 2250 1
2330 2331 5
2330 2410 2
2330 2329 5
2331 2251 2
2331 2332 5
2331 2411 3
2331 2330 3
2332 2252 4
2332 2333 4
2332 2412 5
2332 2331 4
2333 2253 2
2333 2334 2
2333 2413 2
2333 2332 1
2334 2254 1
2334 2335 2
2334 2414 3
2334 2333 5
2335 2255 4
2335 2336 5
2335 2415 3
2335 2334 3
2336 2256 5
2336 2337 5
2336 2416 2
2336 2335 2
2337 2257 4
2337 2338 3
2337 2417 5
2337 2336 3
2338 2258 3
2338 2339 3
2338 2418 1
2338 2337 5
2339 2259 5
2339 2340 2
2339 2419 1
2339 2338 2
2340 2260 5
2340 2341 5
2340 2420 1
2340 2339 4
2341 2261 3
2341 2342 2
2341 2421 2
2341 2340 2
2342 2262 1
2342 2343 3
2342 2422 2
2342 2341 4
2343 2263 4
2343 2344 5
2343 2423 3
2343 2342 5
2344 2264 5
2344 2345 3
2344 2424 5
2344 2343 3
2345 2265 4
2345 2346 3
2345 2425 2
2345 2344 1
2346 2266 4
2346 2347 1
2346 2426 4
2346 2345 2
2347 2267 1
2347 2348 2
2347 2427 2
2347 2346 4
2348 2268 5
2348 2349 2
2348 2428 2
2348 2347 4
2349 2269 3
2349 2350 4
2349 2429 2
2349 2348 4
2350 2270 2
2350 2351 1
2350 2430 3
2350 2349 1
2351 2271 1
2351 2352 3
2351 2431 1
2351 2350 5
2352 2272 1
2352 2353 2
2352 2432 3
2352 2351 4
2353 2273 2
2353 2354 5
2353 2433 3
2353 2352 1
2354 2274 1
2354 2355 2
2354 2434 2
2354 2353 3
2355 2275 2
2355 2356 2
2355 2435 3
2355 2354 2
2356 2276 3
2356 2357 5
2356 2436 2
2356 2355 2
2357 2277 2
2357 2358 1
2357 2437 2
2357 2356 3
2358 2278 1
2358 2359 1
2358 2438 2
2358 2357 4
2359 2279 1
2359 2360 3
2359 2439 2
2359 2358 3
2360 2280 4
2360 2361 2
2360 2440 3
2360 2359 3
2361 2281 2
2361 2362 5
2361 2441 5
2361 2360 4
2362 2282 1
2362 2363 1
2362 2442 2
2362 2361 2
2363 2283 2
2363 2364 2
2363 2443 5
2363 2362 4
2364 2284 3
2364 2365 3
2364 2444 5
2364 2363 4
2365 2285 2
2365 2366 1
2365 2445 5
2365 2364 5
2366 2286 2
2366 2367 5
2366 2446 3
2366 2365 2
2367 2287 3
2367 2368 2
2367 2447 1
2367 2366 3
2368 2288 2
2368 2369 5
2368 2448 5
2368 2367 4
2369 2289 2
2369 2370 1
2369 2449 4
2369 2368 5
2370 2290 1
2370 2371 2
2370 2450 5
2370 2369 4
2371 2291 5
2371 2372 3
2371 2451 4
2371 2370 5
2372 2292 4
2372 2373 2
2372 2452 3
2372 2371 3
2373 2293 5
2373 2374 4
2373 2453 4
2373 2372 4
2374 2294 3
2374 2375 5
2374 2454 4
2374 2373 5
2375 2295 1
2375 2376 2
2375 2455 2
2375 2374 2
2376 2296 4
2376 2377 2
2376 2456 4
2376 2375 2
2377 2297 3
2377 2378 4
2377 2457 4
2377 2376 5
2378 2298 2
2378 2379 3
2378 2458 3
2378 2377 5
2379 2299 1
2379 2380 2
2379 2459 1
2379 2378 3
2380 2300 4
2380 2381 5
2380 2460 3
2380 2379 2
2381 2301 5
2381 2382 1
2381 2461 4
2381 2380 5
2382 2302 5
2382 2383 3
2382 2462 4
2382 2381 4
2383 2303 4
2383 2384 4
2383 2463 4
2383 2382 3
2384 2304 4
2384 2385 3
2384 2464 3
2384 2383 4
2385 2305 1
2385 2386 2
2385 2465 4
2385 2384 2
2386 2306 3
2386 2387 1
2386 2466 3
2386 2385 1
2387 2307 3
2387 2388 5
2387 2467 5
2387 2386 5
2388 2308 1
2388 2389 3
2388 2468 2
2388 2387 1
2389 2309 1
2389 2390 1
2389 2469 3
2389 2388 1
2390 2310 5
2390 2391 2
2390 2470 3
2390 2389 2
2391 2311 3
2391 2392 3
2391 2471 3
2391 2390 3
2392 2312 2
2392 2393 5
2392 2472 2
2392 2391 5
2393 2313 3
2393 2394 1
2393 2473 3
2393 2392 3
2394 2314 3
2394 2395 4
2394 2474 4
2394 2393 5
2395 2315 1
2395 2396 4
2395 2475 5
2395 2394 2
2396 2316 4
2396 2397 2
2396 2476 2
2396 2395 2
2397 2317 4
2397 2398 2
2397 2477 5
2397 2396 5
2398 2318 5
2398 2399 4
2398 2478 4
2398 2397 3
2399 2319 1
2399 2479 3
2399 2398 2
2400 2320 4
2400 2401 4
2400 2480 2
2401 2321 4
2401 2402 4
2401 2481 5
2401 2400 1
2402 2322 3
2402 2403 2
2402 2482 5
2402 2401 2
2403 2323 3
2403 2404 1
2403 2483 4
2403 2402 3
2404 2324 3
2404 2405 2
2404 2484 4
2404 2403 4
2405 2325 4
2405 2406 5
2405 2485 3
2405 2404 3
2406 2326 5
2406 2407 1
2406 2486 5
2406 2405 1
2407 2327 2
2407 2408 2
2407 2487 3
2407 2406 5
2408 2328 5
2408 2409 5
2408 2488 5
2408 2407 4
2409 2329 4
2409 2410 2
2409 2489 4
2409 2408 1
2410 2330 5
2410 2411 4
2410 2490 2
2410 2409 4
2411 2331 1
2411 2412 3
2411 2491 5
2411 2410 4
2412 2332 3
2412 2413 1
2412 2492 2
2412 2411 1
2413 2333 5
2413 2414 2
2413 2493 1
2413 2412 5
2414 2334 4
2414 2415 1
2414 2494 2
2414 2413 2
2415 2335 1
2415 2416 4
2415 2495 3
2415 2414 2
2416 2336 2
2416 2417 3
2416 2496 5
2416 2415 1
2417 2337 4
2417 2418 1
2417 2497 3
2417 2416 5
2418 2338 1
2418 2419 2
2418 2498 3
2418 2417 4
2419 2339 4
2419 2420 2
2419 2499 1
2419 2418 2
2420 2340 5
2420 2421 4
2420 2500 4
2420 2419 1
2421 2341 4
2421 2422 2
2421 2501 2
2421 2420 2
2422 2342 3
2422 2423 4
2422 2502 4
2422 2421 2
2423 2343 5
2423 2424 5
2423 2503 3
2423 2422 5
2424 2344 2
2424 2425 5
2424 2504 4
2424 2423 3
2425 2345 2
2425 2426 1
2425 2505 2
2425 2424 4
2426 2346 1
2426 2427 4
2426 2506 5
2426 2425 2
2427 2347 5
2427 2428 3
2427 2507 5
2427 2426 4
2428 2348 4
2428 2429 4
2428 2508 5
2428 2427 1
2429 2349 1
2429 2430 3
2429 2509 4
2429 2428 3
2430 2350 3
2430 2431 4
2430 2510 5
2430 2429 2
2431 2351 4
2431 2432 2
2431 2511 2
2431 2430 5
2432 2352 4
2432 2433 4
2432 2512 4
2432 2431 2
2433 2353 5
2433 2434 1
2433 2513 4
2433 2432 1
2434 2354 2
2434 2435 2
2434 2514 3
2434 2433 5
2435 2355 3
2435 2436 1
2435 2515 2
2435 2434 4
2436 2356 4
2436 2437 5
2436 2516 1
2436 2435 3
2437 2357 1
2437 2438 1
2437 2517 5
2437 2436 3
2438 2358 4
2438 2439 4
2438 2518 2
2438 2437 3
2439 2359 2
2439 2440 5
2439 2519 1
2439 2438 4
2440 2360 1
2440 2441 1
2440 2520 4
2440 2439 4
2441 2361 3
2441 2442 4
2441 2521 2
2441 2440 4
2442 2362 1
2442 2443 1
2442 2522 3
2442 2441 1
2443 2363 2
2443 2444 3
2443 2523 4
2443 2442 4
2444 2364 4
2444 2445 1
2444 2524 1
2444 2443 5
2445 2365 2
2445 2446 4
2445 2525 2
2445 2444 4
2446 2366 3
2446 2447 2
2446 2526 2
2446 2445 1
2447 2367 5
2447 2448 1
2447 2527 2
2447 2446 3
2448 2368 1
2448 2449 5
2448 2528 4
2448 2447 2
2449 2369 1
2449 2450 1
2449 2529 3
2449 2448 2
2450 2370 4
2450 2451 3
2450 2530 2
2450 2449 2
2451 2371 1
2451 2452 5
2451 2531 2
2451 2450 4
2452 2372 1
2452 2453 5
2452 2532 1
2452 2451 4
2453 2373 3
2453 2454 4
2453 2533 1
2453 2452 5
2454 2374 1
2454 2455 1
2454 2534 4
2454 2453 2
2455 2375 2
2455 2456 3
2455 2535 2
2455 2454 2
2456 2376 1
2456 2457 1
2456 2536 4
2456 2455 1
2457 2377 1
2457 2458 3
2457 2537 2
2457 2456 1
2458 2378 2
2458 2459 1
2458 2538 2
2458 2457 2
2459 2379 1
2459 2460 4
2459 2539 5
2459 2458 1
2460 2380 3
2460 2461 3
2460 2540 5
2460 2459 2
2461 2381 5
2461 2462 2
2461 2541 5
2461 2460 4
2462 2382 4
2462 2463 1
2462 2542 2
2462 2461 2
2463 2383 1
2463 2464 3
2463 2543 3
2463 2462 2
2464 2384 1
2464 2465 4
2464 2544 3
2464 2463 1
2465 2385 4
2465 2466 2
2465 2545 4
2465 2464 2
2466 2386 1
2466 2467 3
2466 2546 5
2466 2465 3
2467 2387 1
2467 2468 1
2467 2547 2
2467 2466 4
2468 2388 3
2468 2469 5
2468 2548 4
2468 2467 1
2469 2389 5
2469 2470 5
2469 2549 2
2469 2468 3
2470 2390 1
2470 2471 5
2470 2550 3
2470 2469 4
2471 2391 2
2471 2472 3
2471 2551 2
2471 2470 3
2472 2392 4
2472 2473 1
2472 2552 3
2472 2471 1
2473 2393 5
2473 2474 5
2473 2553 4
2473 2472 4
2474 2394 5
2474 2475 2
2474 2554 5
2474 2473 5
2475 2395 1
2475 2476 2
2475 2555 1
2475 2474 5
2476 2396 1
2476 2477 3
2476 2556 2
2476 2475 4
2477 2397 2
2477 2478 5
2477 2557 1
2477 2476 1
2478 2398 2
2478 2479 3
2478 2558 4
2478 2477 3
2479 2399 2
2479 2559 2
2479 2478 4
2480 2400 2
2480 2481 1
2480 2560 2
2481 2401 5
2481 2482 4
2481 2561 3
2481 2480 2
2482 2402 3
2482 2483 3
2482 2562 1
2482 2481 5
2483 2403 4
2483 2484 3
2483 2563 1
2483 2482 2
2484 2404 3
2484 2485 3
2484 2564 2
2484 2483 2
2485 2405 5
2485 2486 1
2485 2565 2
2485 2484 2
2486 2406 5
2486 2487 4
2486 2566 5
2486 2485 3
2487 2407 2
2487 2488 4
2487 2567 1
2487 2486 1
2488 2408 4
2488 2489 1
2488 2568 2
2488 2487 1
2489 2409 2
2489 2490 2
2489 2569 2
2489 2488 1
2490 2410 2
2490 2491 5
2490 2570 5
2490 2489 2
2491 2411 2
2491 2492 5
2491 2571 1
2491 2490 4
2492 2412 4
2492 2493 3
2492 2572 2
2492 2491 2
2493 2413 2
2493 2494 4
2493 2573 2
2493 2492 5
2494 2414 2
2494 2495 3
2494 2574 3
2494 2493 5
2495 2415 4
2495 2496 2
2495 2575 3
2495 2494 4
2496 2416 1
2496 2497 3
2496 2576 4
2496 2495 4
2497 2417 2
2497 2498 4
2497 2577 4
2497 2496 4
2498 2418 5
2498 2499 5
2498 2578 4
2498 2497 2
2499 2419 4
2499 2500 1
2499 2579 4
2499 2498 4
2500 2420 1
2500 2501 3
2500 2580 5
2500 2499 5
2501 2421 2
2501 2502 5
2501 2581 2
2501 2500 3
2502 2422 4
2502 2503 4
2502 2582 3
2502 2501 4
2503 2423 3
2503 2504 4
2503 2583 5
2503 2502 5
2504 2424 4
2504 2505 1
2504 2584 3
2504 2503 2
2505 2425 4
2505 2506 2
2505 2585 2
2505 2504 2
2506 2426 1
2506 2507 1
2506 2586 5
2506 2505 3
2507 2427 4
2507 2508 4
2507 2587 4
2507 2506 4
2508 2428 3
2508 2509 4
2508 2588 4
2508 2507 3
2509 2429 5
2509 2510 1
2509 2589 4
2509 2508 1
2510 2430 1
2510 2511 4
2510 2590 5
2510 2509 2
2511 2431 2
2511 2512 4
2511 2591 3
2511 2510 3
2512 2432 5
2512 2513 4
2512 2592 3
2512 2511 1
2513 2433 4
2513 2514 4
2513 2593 2
2513 2512 2
2514 2434 4
2514 2515 1
2514 2594 3
2514 2513 1
2515 2435 2
2515 2516 3
2515 2595 5
2515 2514 4
2516 2436 2
2516 2517 3
2516 2596 2
2516 2515 5
2517 2437 5
2517 2518 2
2517 2597 1
2517 2516 1
2518 2438 1
2518 2519 4
2518 2598 4
2518 2517 5
2519 2439 1
2519 2520 5
2519 2599 2
2519 2518 4
2520 2440 2
2520 2521 4
2520 2600 3
2520 2519 3
2521 2441 5
2521 2522 5
2521 2601 4
2521 2520 5
2522 2442 3
2522 2523 4
2522 2602 1
2522 2521 1
2523 2443 5
2523 2524 3
2523 2603 2
2523 2522 3
2524 2444 2
2524 2525 4
2524 2604 3
2524 2523 1
2525 2445 2
2525 2526 4
2525 2605 1
2525 2524 1
2526 2446 1
2526 2527 4
2526 2606 5
2526 2525 4
2527 2447 3
2527 2528 4
2527 2607 2
2527 2526 2
2528 2448 3
2528 2529 2
2528 2608 2
2528 2527 2
2529 2449 4
2529 2530 2
2529 2609 5
2529 2528 1
2530 2450 4
2530 2531 5
2530 2610 2
2530 2529 2
2531 2451 2
2531 2532 1
2531 2611 2
2531 2530 2
2532 2452 3
2532 2533 4
2532 2612 4
2532 2531 5
2533 2453 1
2533 2534 2
2533 2613 1
2533 2532 3
2534 2454 1
2534 2535 4
2534 2614 1
2534 2533 3
2535 2455 1
2535 2536 3
2535 2615 1
2535 2534 5
2536 2456 2
2536 2537 4
2536 2616 4
2536 2535 1
2537 2457 1
2537 2538 1
2537 2617 3
2537 2536 1
2538 2458 5
2538 2539 1
2538 2618 1
2538 2537 2
2539 2459 5
2539 2540 1
2539 2619 4
2539 2538 5
2540 2460 5
2540 2541 3
2540 2620 4
2540 2539 4
2541 2461 3
2541 2542 5
2541 2621 4
2541 2540 3
2542 2462 3
2542 2543 3
2542 2622 3
2542 2541 2
2543 2463 3
2543 2544 4
2543 2623 4
2543 2542 5
2544 2464 1
2544 2545 3
2544 2624 3
2544 2543 1
2545 2465 1
2545 2546 4
2545 2625 4
2545 2544 2
2546 2466 1
2546 2547 5
2546 2626 1
2546 2545 5
2547 2467 3
2547 2548 2
2547 2627 3
2547 2546 4
2548 2468 5
2548 2549 4
2548 2628 5
2548 2547 4
2549 2469 2
2549 2550 1
2549 2629 3
2549 2548 1
2550 2470 3
2550 2551 1
2550 2630 3
2550 2549 4
2551 2471 2
2551 2552 5
2551 2631 4
2551 2550 4
2552 2472 5
2552 2553 1
2552 2632 3
2552 2551 4
2553 2473 4
2553 2554 1
2553 2633 4
2553 2552 3
2554 2474 5
2554 2555 2
2554 2634 2
2554 2553 5
2555 2475 5
2555 2556 5
2555 2635 1
2555 2554 2
2556 2476 4
2556 2557 1
2556 2636 3
2556 2555 5
2557 2477 4
2557 2558 2
2557 2637 4
2557 2556 1
2558 2478 4
2558 2559 5
2558 2638 2
2558 2557 2
2559 2479 2
2559 2639 2
2559 2558 1
2560 2480 1
2560 2561 4
2560 2640 1
2561 2481 2
2561 2562 3
2561 2641 4
2561 2560 3
2562 2482 2
2562 2563 3
2562 2642 4
2562 2561 1
2563 2483 2
2563 2564 5
2563 2643 4
2563 2562 1
2564 2484 3
2564 2565 2
2564 2644 5
2564 2563 5
2565 2485 1
2565 2566 3
2565 2645 4
2565 2564 4
2566 2486 5
2566 2567 4
2566 2646 2
2566 2565 2
2567 2487 3
2567 2568 1
2567 2647 3
2567 2566 1
2568 2488 1
2568 2569 1
2568 2648 3
2568 2567 5
2569 2489 2
2569 2570 1
2569 2649 5
2569 2568 3
2570 2490 2
2570 2571 3
2570 2650 4
2570 2569 5
2571 2491 1
2571 2572 3
2571 2651 1
2571 2570 5
2572 2492 5
2572 2573 2
2572 2652 4
2572 2571 4
2573 2493 3
2573 2574 3
2573 2653 2
2573 2572 5
2574 2494 5
2574 2575 5
2574 2654 2
2574 2573 1
2575 2495 4
2575 2576 1
2575 2655 5
2575 2574 4
2576 2496 3
2576 2577 2
2576 2656 3
2576 2575 2
2577 2497 4
2577 2578 4
2577 2657 2
2577 2576 5
2578 2498 3
2578 2579 2
2578 2658 1
2578 2577 5
2579 2499 3
2579 2580 3
2579 2659 5
2579 2578 1
2580 2500 3
2580 2581 5
2580 2660 4
2580 2579 2
2581 2501 4
2581 2582 3
2581 2661 4
2581 2580 1
2582 2502 3
2582 2583 2
2582 2662 2
2582 2581 2
2583 2503 1
2583 2584 2
2583 2663 4
2583 2582 4
2584 2504 3
2584 2585 2
2584 2664 1
2584 2583 5
2585 2505 4
2585 2586 3
2585 2665 4
2585 2584 4
2586 2506 3
2586 2587 4
2586 2666 4
2586 2585 1
2587 2507 5
2587 2588 3
2587 2667 3
2587 2586 2
2588 2508 5
2588 2589 4
2588 2668 1
2588 2587 2
2589 2509 3
2589 2590 5
2589 2669 1
2589 2588 3
2590 2510 4
2590 2591 2
2590 2670 5
2590 2589 2
2591 2511 4
2591 2592 4
2591 2671 3
2591 2590 2
2592 2512 2
2592 2593 2
2592 2672 2
2592 2591 1
2593 2513 3
2593 2594 5
2593 2673 1
2593 2592 2
2594 2514 4
2594 2595 4
2594 2674 2
2594 2593 1
2595 2515 1
2595 2596 3
2595 2675 4
2595 2594 2
2596 2516 1
2596 2597 1
2596 2676 5
2596 2595 3
2597 2517 5
2597 2598 4
2597 2677 2
2597 2596 4
2598 2518 2
2598 2599 1
2598 2678 1
2598 2597 2
2599 2519 4
2599 2600 4
2599 2679 3
2599 2598 5
2600 2520 2
2600 2601 4
2600 2680 1
2600 2599 4
2601 2521 4
2601 2602 3
2601 2681 4
2601 2600 3
2602 2522 1
2602 2603 1
2602 2682 1
2602 2601 1
2603 2523 1
2603 2604 4
2603 2683 5
2603 2602 2
2604 2524 1
2604 2605 5
2604 2684 5
2604 2603 5
2605 2525 4
2605 2606 3
2605 2685 1
2605 2604 5
2606 2526 2
2606 2607 4
2606 2686 4
2606 2605 4
2607 2527 3
2607 2608 5
2607 2687 2
2607 2606 1
2608 2528 3
2608 2609 1
2608 2688 5
2608 2607 2
2609 2529 4
2609 2610 1
2609 2689 4
2609 2608 5
2610 2530 5
2610 2611 5
2610 2690 4
2610 2609 1
2611 2531 5
2611 2612 5
2611 2691 5
2611 2610 1
2612 2532 2
2612 2613 1
2612 2692 2
2612 2611 5
2613 2533 2
2613 2614 1
2613 2693 5
2613 2612 4
2614 2534 3
2614 2615 1
2614 2694 1
2614 2613 2
2615 2535 5
2615 2616 2
2615 2695 2
2615 2614 1
2616 2536 5
2616 2617 3
2616 2696 1
2616 2615 1
2617 2537 1
2617 2618 5
2617 2697 3
2617 2616 3
2618 2538 5
2618 2619 2
2618 2698 4
2618 2617 1
2619 2539 2
2619 2620 3
2619 2699 1
2619 2618 5
2620 2540 3
2620 2621 5
2620 2700 4
2620 2619 2
2621 2541 5
2621 2622 4
2621 2701 3
2621 2620 5
2622 2542 3
2622 2623 5
2622 2702 5
2622 2621 5
2623 2543 2
2623 2624 1
2623 2703 1
2623 2622 2
2624 2544 1
2624 2625 2
2624 2704 2
2624 2623 3
2625 2545 2
2625 2626 2
2625 2705 5
2625 2624 5
2626 2546 2
2626 2627 5
2626 2706 3
2626 2625 3
2627 2547 2
2627 2628 5
2627 2707 4
2627 2626 1
2628 2548 5
2628 2629 3
2628 2708 3
2628 2627 4
2629 2549 2
2629 2630 4
2629 2709 4
2629 2628 1
2630 2550 3
2630 2631 4
2630 2710 2
2630 2629 5
2631 2551 2
2631 2632 1
2631 2711 3
2631 2630 2
2632 2552 3
2632 2633 5
2632 2712 5
2632 2631 5
2633 2553 2
2633 2634 4
2633 2713 2
2633 2632 3
2634 2554 4
2634 2635 4
2634 2714 1
2634 2633 5
2635 2555 2
2635 2636 1
2635 2715 3
2635 2634 1
2636 2556 5
2636 2637 1
2636 2716 5
2636 2635 4
2637 2557 1
2637 2638 3
2637 2717 1
2637 2636 3
2638 2558 3
2638 2639 3
2638 2718 2
2638 2637 2
2639 2559 3
2639 2719 1
2639 2638 1
2640 2560 4
2640 2641 2
2640 2720 4
2641 2561 1
2641 2642 1
2641 2721 2
2641 2640 5
2642 2562 3
2642 2643 5
2642 2722 4
2642 2641 1
2643 2563 5
2643 2644 3
2643 2723 5
2643 2642 3
2644 2564 5
2644 2645 3
2644 2724 5
2644 2643 1
2645 2565 1
2645 2646 2
2645 2725 3
2645 2644 4
2646 2566 2
2646 2647 3
2646 2726 5
2646 2645 5
2647 2567 5
2647 2648 4
2647 2727 4
2647 2646 5
2648 2568 2
2648 2649 3
2648 2728 1
2648 2647 5
2649 2569 2
2649 2650 2
2649 2729 2
2649 2648 4
2650 2570 5
2650 2651 3
2650 2730 1
2650 2649 3
2651 2571 2
2651 2652 5
2651 2731 4
2651 2650 4
2652 2572 2
2652 2653 4
2652 2732 3
2652 2651 4
2653 2573 5
2653 2654 3
2653 2733 3
2653 2652 4
2654 2574 5
2654 2655 2
2654 2734 3
2654 2653 1
2655 2575 3
2655 2656 4
2655 2735 3
2655 2654 1
2656 2576 1
2656 2657 1
2656 2736 2
2656 2655 1
2657 2577 2
2657 2658 5
2657 2737 1
2657 2656 1
2658 2578 3
2658 2659 5
2658 2738 4
2658 2657 1
2659 2579 4
2659 2660 5
2659 2739 2
2659 2658 4
2660 2580 4
2660 2661 5
2660 2740 5
2660 2659 1
2661 2581 4
2661 2662 1
2661 2741 5
2661 2660 2
2662 2582 1
2662 2663 4
2662 2742 5
2662 2661 3
2663 2583 2
2663 2664 5
2663 2743 5
2663 2662 1
2664 2584 5
2664 2665 4
2664 2744 2
2664 2663 5
2665 2585 2
2665 2666 2
2665 2745 1
2665 2664 3
2666 2586 2
2666 2667 5
2666 2746 3
2666 2665 1
2667 2587 4
2667 2668 4
2667 2747 4
2667 2666 2
2668 2588 3
2668 2669 1
2668 2748 3
2668 2667 2
2669 2589 5
2669 2670 1
2669 2749 3
2669 2668 3
2670 2590 4
2670 2671 3
2670 2750 3
2670 2669 2
2671 2591 1
2671 2672 5
2671 2751 4
2671 2670 2
2672 2592 3
2672 2673 5
2672 2752 1
2672 2671 4
2673 2593 5
2673 2674 4
2673 2753 1
2673 2672 3
2674 2594 1
2674 2675 5
2674 2754 4
2674 2673 3
2675 2595 3
2675 2676 3
2675 2755 1
2675 2674 1
2676 2596 3
2676 2677 2
2676 2756 4
2676 2675 3
2677 2597 1
2677 2678 1
2677 2757 4
2677 2676 4
2678 2598 2
2678 2679 1
2678 2758 5
2678 2677 5
2679 2599 2
2679 2680 4
2679 2759 1
2679 2678 4
2680 2600 1
2680 2681 2
2680 2760 3
2680 2679 2
2681 2601 4
2681 2682 4
2681 2761 3
2681 2680 3
2682 2602 3
2682 2683 4
2682 2762 2
2682 2681 5
2683 2603 3
2683 2684 1
2683 2763 4
2683 2682 4
2684 2604 2
2684 2685 2
2684 2764 3
2684 2683 4
2685 2605 1
2685 2686 3
2685 2765 2
2685 2684 1
2686 2606 2
2686 2687 3
2686 2766 1
2686 2685 2
2687 2607 4
2687 2688 4
2687 2767 3
2687 2686 1
2688 2608 2
2688 2689 2
2688 2768 4
2688 2687 3
2689 2609 1
2689 2690 4
2689 2769 4
2689 2688 5
2690 2610 4
2690 2691 2
2690 2770 3
2690 2689 4
2691 2611 5
2691 2692 4
2691 2771 2
2691 2690 1
2692 2612 1
2692 2693 1
2692 2772 2
2692 2691 2
2693 2613 3
2693 2694 5
2693 2773 1
2693 2692 2
2694 2614 1
2694 2695 3
2694 2774 4
2694 2693 5
2695 2615 1
2695 2696 4
2695 2775 4
2695 2694 3
2696 2616 3
2696 2697 4
2696 2776 1
2696 2695 4
2697 2617 2
2697 2698 5
2697 2777 2
2697 2696 5
2698 2618 2
2698 2699 2
2698 2778 3
2698 2697 1
2699 2619 3
2699 2700 2
2699 2779 4
2699 2698 2
2700 2620 4
2700 2701 1
2700 2780 5
2700 2699 5
2701 2621 2
2701 2702 2
2701 2781 5
2701 2700 2
2702 2622 2
2702 2703 1
2702 2782 2
2702 2701 4
2703 2623 1
2703 2704 3
2703 2783 2
2703 2702 2
2704 2624 4
2704 2705 1
2704 2784 5
2704 2703 2
2705 2625 1
2705 2706 1
2705 2785 4
2705 2704 4
2706 2626 5
2706 2707 3
2706 2786 2
2706 2705 2
2707 2627 3
2707 2708 4
2707 2787 4
2707 2706 1
2708 2628 5
2708 2709 4
2708 2788 1
2708 2707 3
2709 2629 1
2709 2710 3
2709 2789 3
2709 2708 3
2710 2630 3
2710 2711 4
2710 2790 2
2710 2709 3
2711 2631 1
2711 2712 2
2711 2791 1
2711 2710 1
2712 2632 1
2712 2713 3
2712 2792 2
2712 2711 3
2713 2633 4
2713 2714 3
2713 2793 5
2713 2712 1
2714 2634 4
2714 2715 2
2714 2794 3
2714 2713 4
2715 2635 3
2715 2716 3
2715 2795 3
2715 2714 1
2716 2636 1
2716 2717 1
2716 2796 5
2716 2715 2
2717 2637 3
2717 2718 3
2717 2797 3
2717 2716 5
2718 2638 5
2718 2719 5
2718 2798 3
2718 2717 2
2719 2639 3
2719 2799 2
2719 2718 5
2720 2640 4
2720 2721 1
2720 2800 1
2721 2641 2
2721 2722 5
2721 2801 1
2721 2720 1
2722 2642 5
2722 2723 2
2722 2802 2
2722 2721 4
2723 2643 1
2723 2724 1
2723 2803 5
2723 2722 5
2724 2644 3
2724 2725 3
2724 2804 4
2724 2723 2
2725 2645 5
2725 2726 2
2725 2805 1
2725 2724 2
2726 2646 2
2726 2727 4
2726 2806 5
2726 2725 3
2727 2647 5
2727 2728 3
2727 2807 3
2727 2726 4
2728 2648 1
2728 2729 4
2728 2808 1
2728 2727 4
2729 2649 4
2729 2730 5
2729 2809 5
2729 2728 1
2730 2650 2
2730 2731 5
2730 2810 3
2730 2729 2
2731 2651 3
2731 2732 1
2731 2811 5
2731 2730 1
2732 2652 2
2732 2733 4
2732 2812 4
2732 2731 5
2733 2653 5
2733 2734 1
2733 2813 2
2733 2732 4
2734 2654 5
2734 2735 4
2734 2814 5
2734 2733 4
2735 2655 4
2735 2736 5
2735 2815 3
2735 2734 2
2736 2656 2
2736 2737 1
2736 2816 2
2736 2735 5
2737 2657 2
2737 2738 5
2737 2817 1
2737 2736 5
2738 2658 4
2738 2739 5
2738 2818 5
2738 2737 3
2739 2659 3
2739 2740 2
2739 2819 3
2739 2738 3
2740 2660 5
2740 2741 1
2740 2820 2
2740 2739 2
2741 2661 1
2741 2742 5
2741 2821 2
2741 2740 3
2742 2662 1
2742 2743 2
2742 2822 3
2742 2741 2
2743 2663 3
2743 2744 1
2743 2823 2
2743 2742 2
2744 2664 5
2744 2745 1
2744 2824 1
2744 2743 3
2745 2665 5
2745 2746 3
2745 2825 3
2745 2744 1
2746 2666 5
2746 2747 3
2746 2826 2
2746 2745 4
2747 2667 5
2747 2748 3
2747 2827 3
2747 2746 1
2748 2668 1
2748 2749 3
2748 2828 2
2748 2747 3
2749 2669 2
2749 2750 3
2749 2829 1
2749 2748 5
2750 2670 5
2750 2751 1
2750 2830 4
2750 2749 3
2751 2671 5
2751 2752 5
2751 2831 2
2751 2750 4
2752 2672 2
2752 2753 3
2752 2832 3
2752 2751 2
2753 2673 5
2753 2754 4
2753 2833 2
2753 2752 4
2754 2674 2
2754 2755 4
2754 2834 3
2754 2753 2
2755 2675 4
2755 2756 1
2755 2835 4
2755 2754 2
2756 2676 4
2756 2757 2
2756 2836 2
2756 2755 2
2757 2677 5
2757 2758 4
2757 2837 2
2757 2756 3
2758 2678 1
2758 2759 3
2758 2838 2
2758 2757 2
2759 2679 4
2759 2760 5
2759 2839 2
2759 2758 1
2760 2680 2
2760 2761 1
2760 2840 4
2760 2759 2
2761 2681 4
2761 2762 4
2761 2841 1
2761 2760 5
2762 2682 2
2762 2763 1
2762 2842 5
2762 2761 1
2763 2683 4
2763 2764 4
2763 2843 1
2763 2762 1
2764 2684 1
2764 2765 1
2764 2844 2
2764 2763 2
2765 2685 1
2765 2766 3
2765 2845 2
2765 2764 5
2766 2686 1
2766 2767 1
2766 2846 1
2766 2765 5
2767 2687 3
2767 2768 1
2767 2847 2
2767 2766 2
2768 2688 4
2768 2769 5
2768 2848 4
2768 2767 2
2769 2689 3
2769 2770 3
2769 2849 4
2769 2768 2
2770 2690 2
2770 2771 1
2770 2850 5
2770 2769 3
2771 2691 5
2771 2772 1
2771 2851 1
2771 2770 1
2772 2692 1
2772 2773 5
2772 2852 3
2772 2771 1
2773 2693 5
2773 2774 4
2773 2853 2
2773 2772 1
2774 2694 2
2774 2775 1
2774 2854 2
2774 2773 4
2775 2695 4
2775 2776 2
2775 2855 3
2775 2774 3
2776 2696 2
2776 2777 4
2776 2856 1
2776 2775 4
2777 2697 2
2777 2778 1
2777 2857 2
2777 2776 1
2778 2698 3
2778 2779 3
2778 2858 1
2778 2777 5
2779 2699 3
2779 2780 1
2779 2859 3
2779 2778 1
2780 2700 1
2780 2781 5
2780 2860 2
2780 2779 2
2781 2701 4
2781 2782 5
2781 2861 3
2781 2780 5
2782 2702 2
2782 2783 4
2782 2862 2
2782 2781 3
2783 2703 5
2783 2784 3
2783 2863 3
2783 2782 1
2784 2704 3
2784 2785 4
2784 2864 3
2784 2783 3
2785 2705 1
2785 2786 1
2785 2865 2
2785 2784 2
2786 2706 3
2786 2787 2
2786 2866 4
2786 2785 4
2787 2707 4
2787 2788 1
2787 2867 1
2787 2786 5
2788 2708 4
2788 2789 3
2788 2868 2
2788 2787 1
2789 2709 3
2789 2790 2
2789 2869 2
2789 2788 4
2790 2710 3
2790 2791 3
2790 2870 4
2790 2789 4
2791 2711 4
2791 2792 4
2791 2871 5
2791 2790 3
2792 2712 2
2792 2793 2
2792 2872 4
2792 2791 4
2793 2713 5
2793 2794 4
2793 2873 5
2793 2792 5
2794 2714 4
2794 2795 5
2794 2874 5
2794 2793 2
2795 2715 4
2795 2796 1
2795 2875 5
2795 2794 4
2796 2716 5
2796 2797 5
2796 2876 2
2796 2795 1
2797 2717 2
2797 2798 3
2797 2877 1
2797 2796 2
2798 2718 1
2798 2799 3
2798 2878 5
2798 2797 4
2799 2719 2
2799 2879 1
2799 2798 1
2800 2720 3
2800 2801 3
2800 2880 2
2801 2721 3
2801 2802 4
2801 2881 2
2801 2800 5
2802 2722 4
2802 2803 2
2802 2882 2
2802 2801 2
2803 2723 1
2803 2804 2
2803 2883 1
2803 2802 2
2804 2724 4
2804 2805 1
2804 2884 4
2804 2803 3
2805 2725 1
2805 2806 1
2805 2885 5
2805 2804 1
2806 2726 4
2806 2807 5
2806 2886 2
2806 2805 1
2807 2727 2
2807 2808 3
2807 2887 2
2807 2806 1
2808 2728 2
2808 2809 1
2808 2888 1
2808 2807 5
2809 2729 4
2809 2810 2
2809 2889 2
2809 2808 4
2810 2730 2
2810 2811 5
2810 2890 3
2810 2809 4
2811 2731 4
2811 2812 3
2811 2891 4
2811 2810 1
2812 2732 3
2812 2813 1
2812 2892 2
2812 2811 1
2813 2733 1
2813 2814 5
2813 2893 2
2813 2812 5
2814 2734 2
2814 2815 1
2814 2894 4
2814 2813 4
2815 2735 4
2815 2816 5
2815 2895 3
2815 2814 5
2816 2736 5
2816 2817 3
2816 2896 2
2816 2815 4
2817 2737 2
2817 2818 3
2817 2897 1
2817 2816 5
2818 2738 4
2818 2819 2
2818 2898 2
2818 2817 4
2819 2739 5
2819 2820 1
2819 2899 2
2819 2818 4
2820 2740 2
2820 2821 5
2820 2900 5
2820 2819 1
2821 2741 4
2821 2822 4
2821 2901 3
2821 2820 4
2822 2742 4
2822 2823 2
2822 2902 1
2822 2821 3
2823 2743 4
2823 2824 2
2823 2903 3
2823 2822 1
2824 2744 1
2824 2825 1
2824 2904 3
2824 2823 5
2825 2745 3
2825 2826 1
2825 2905 2
2825 2824 3
2826 2746 2
2826 2827 5
2826 2906 1
2826 2825 1
2827 2747 2
2827 2828 5
2827 2907 1
2827 2826 3
2828 2748 2
2828 2829 5
2828 2908 2
2828 2827 1
2829 2749 2
2829 2830 3
2829 2909 1
2829 2828 5
2830 2750 5
2830 2831 1
2830 2910 5
2830 2829 4
2831 2751 1
2831 2832 1
2831 2911 3
2831 2830 1
2832 2752 3
2832 2833 1
2832 2912 3
2832 2831 3
2833 2753 4
2833 2834 5
2833 2913 2
2833 2832 3
2834 2754 4
2834 2835 3
2834 2914 2
2834 2833 1
2835 2755 3
2835 2836 4
2835 2915 5
2835 2834 1
2836 2756 5
2836 2837 2
2836 2916 1
2836 2835 5
2837 2757 4
2837 2838 4
2837 2917 5
2837 2836 1
2838 2758 3
2838 2839 2
2838 2918 2
2838 2837 4
2839 2759 1
2839 2840 1
2839 2919 2
2839 2838 2
2840 2760 2
2840 2841 2
2840 2920 5
2840 2839 5
2841 2761 5
2841 2842 5
2841 2921 3
2841 2840 4
2842 2762 2
2842 2843 3
2842 2922 3
2842 2841 3
2843 2763 5
2843 2844 4
2843 2923 1
2843 2842 4
2844 2764 2
2844 2845 2
2844 2924 5
2844 2843 5
2845 2765 1
2845 2846 2
2845 2925 5
2845 2844 4
2846 2766 1
2846 2847 1
2846 2926 2
2846 2845 3
2847 2767 5
2847 2848 1
2847 2927 4
2847 2846 1
2848 2768 4
2848 2849 3
2848 2928 2
2848 2847 3
2849 2769 2
2849 2850 1
2849 2929 3
2849 2848 5
2850 2770 3
2850 2851 3
2850 2930 1
2850 2849 1
2851 2771 2
2851 2852 4
2851 2931 3
2851 2850 4
2852 2772 3
2852 2853 4
2852 2932 2
2852 2851 1
2853 2773 5
2853 2854 4
2853 2933 1
2853 2852 3
2854 2774 3
2854 2855 4
2854 2934 4
2854 2853 5
2855 2775 2
2855 2856 4
2855 2935 3
2855 2854 5
2856 2776 5
2856 2857 3
2856 2936 3
2856 2855 1
2857 2777 4
2857 2858 5
2857 2937 4
2857 2856 3
2858 2778 1
2858 2859 5
2858 2938 1
2858 2857 2
2859 2779 5
2859 2860 1
2859 2939 2
2859 2858 1
2860 2780 3
2860 2861 4
2860 2940 2
2860 2859 5
2861 2781 4
2861 2862 1
2861 2941 2
2861 2860 4
2862 2782 4
2862 2863 1
2862 2942 3
2862 2861 4
2863 2783 4
2863 2864 5
2863 2943 4
2863 2862 1
2864 2784 1
2864 2865 2
2864 2944 1
2864 2863 4
2865 2785 4
2865 2866 2
2865 2945 4
2865 2864 3
2866 2786 1
2866 2867 3
2866 2946 3
2866 2865 5
2867 2787 4
2867 2868 2
2867 2947 4
2867 2866 1
2868 2788 3
2868 2869 4
2868 2948 1
2868 2867 5
2869 2789 2
2869 2870 4
2869 2949 2
2869 2868 2
2870 2790 3
2870 2871 5
2870 2950 1
2870 2869 5
2871 2791 4
2871 2872 1
2871 2951 3
2871 2870 4
2872 2792 4
2872 2873 2
2872 2952 1
2872 2871 2
2873 2793 1
2873 2874 4
2873 2953 3
2873 2872 3
2874 2794 2
2874 2875 1
2874 2954 2
2874 2873 1
2875 2795 3
2875 2876 4
2875 2955 1
2875 2874 3
2876 2796 4
2876 2877 4
2876 2956 5
2876 2875 2
2877 2797 3
2877 2878 2
2877 2957 1
2877 2876 1
2878 2798 4
2878 2879 3
2878 2958 3
2878 2877 2
2879 2799 2
2879 2959 3
2879 2878 4
2880 2800 4
2880 2881 4
2880 2960 5
2881 2801 2
2881 2882 4
2881 2961 3
2881 2880 5
2882 2802 4
2882 2883 1
2882 2962 5
2882 2881 5
2883 2803 2
2883 2884 1
2883 2963 5
2883 2882 5
2884 2804 2
2884 2885 3
2884 2964 3
2884 2883 1
2885 2805 2
2885 2886 4
2885 2965 2
2885 2884 4
2886 2806 3
2886 2887 1
2886 2966 4
2886 2885 3
2887 2807 5
2887 2888 1
2887 2967 4
2887 2886 2
2888 2808 4
2888 2889 5
2888 2968 1
2888 2887 1
2889 2809 2
2889 2890 2
2889 2969 4
2889 2888 5
2890 2810 2
2890 2891 5
2890 2970 4
2890 2889 2
2891 2811 3
2891 2892 2
2891 2971 2
2891 2890 5
2892 2812 1
2892 2893 3
2892 2972 3
2892 2891 1
2893 2813 3
2893 2894 3
2893 2973 5
2893 2892 1
2894 2814 4
2894 2895 4
2894 2974 4
2894 2893 4
2895 2815 3
2895 2896 3
2895 2975 5
2895 2894 4
2896 2816 5
2896 2897 3
2896 2976 1
2896 2895 2
2897 2817 4
2897 2898 4
2897 2977 3
2897 2896 2
2898 2818 5
2898 2899 5
2898 2978 2
2898 2897 5
2899 2819 4
2899 2900 4
2899 2979 3
2899 2898 4
2900 2820 3
2900 2901 5
2900 2980 1
2900 2899 1
2901 2821 1
2901 2902 1
2901 2981 1
2901 2900 5
2902 2822 4
2902 2903 1
2902 2982 4
2902 2901 5
2903 2823 5
2903 2904 1
2903 2983 4
2903 2902 5
2904 2824 5
2904 2905 1
2904 2984 3
2904 2903 4
2905 2825 2
2905 2906 2
2905 2985 4
2905 2904 5
2906 2826 4
2906 2907 1
2906 2986 2
2906 2905 4
2907 2827 1
2907 2908 3
2907 2987 4
2907 2906 4
2908 2828 4
2908 2909 1
2908 2988 3
2908 2907 2
2909 2829 5
2909 2910 3
2909 2989 3
2909 2908 3
2910 2830 3
2910 2911 4
2910 2990 2
2910 2909 1
2911 2831 4
2911 2912 1
2911 2991 1
2911 2910 1
2912 2832 2
2912 2913 3
2912 2992 5
2912 2911 5
2913 2833 3
2913 2914 3
2913 2993 2
2913 2912 5
2914 2834 4
2914 2915 2
2914 2994 5
2914 2913 4
2915 2835 2
2915 2916 5
2915 2995 4
2915 2914 1
2916 2836 5
2916 2917 4
2916 2996 2
2916 2915 4
2917 2837 2
2917 2918 4
2917 2997 3
2917 2916 5
2918 2838 2
2918 2919 4
2918 2998 2
2918 2917 1
2919 2839 2
2919 2920 5
2919 2999 1
2919 2918 5
2920 2840 4
2920 2921 3
2920 3000 5
2920 2919 2
2921 2841 3
2921 2922 2
2921 3001 1
2921 2920 1
2922 2842 1
2922 2923 4
2922 3002 1
2922 2921 5
2923 2843 2
2923 2924 1
2923 3003 5
2923 2922 5
2924 2844 1
2924 2925 5
2924 3004 4
2924 2923 1
2925 2845 2
2925 2926 4
2925 3005 3
2925 2924 2
2926 2846 2
2926 2927 2
2926 3006 3
2926 2925 2
2927 2847 5
2927 2928 2
2927 3007 4
2927 2926 3
2928 2848 1
2928 2929 3
2928 3008 1
2928 2927 2
2929 2849 1
2929 2930 5
2929 3009 1
2929 2928 1
2930 2850 4
2930 2931 5
2930 3010 1
2930 2929 1
2931 2851 2
2931 2932 3
2931 3011 3
2931 2930 2
2932 2852 1
2932 2933 1
2932 3012 4
2932 2931 3
2933 2853 2
2933 2934 4
2933 3013 1
2933 2932 4
2934 2854 1
2934 2935 4
2934 3014 1
2934 2933 4
2935 2855 1
2935 2936 2
2935 3015 4
2935 2934 4
2936 2856 3
2936 2937 4
2936 3016 2
2936 2935 2
2937 2857 3
2937 2938 1
2937 3017 2
2937 2936 5
2938 2858 5
2938 2939 1
2938 3018 1
2938 2937 3
2939 2859 3
2939 2940 4
2939 3019 5
2939 2938 5
2940 2860 5
2940 2941 1
2940 3020 2
2940 2939 5
2941 2861 3
2941 2942 1
2941 3021 2
2941 2940 5
2942 2862 1
2942 2943 5
2942 3022 1
2942 2941 5
2943 2863 5
2943 2944 2
2943 3023 2
2943 2942 3
2944 2864 1
2944 2945 2
2944 3024 1
2944 2943 3
2945 2865 2
2945 2946 2
2945 3025 1
2945 2944 2
2946 2866 3
2946 2947 3
2946 3026 4
2946 2945 2
2947 2867 1
2947 2948 3
2947 3027 5
2947 2946 3
2948 2868 4
2948 2949 4
2948 3028 4
2948 2947 5
2949 2869 4
2949 2950 2
2949 3029 3
2949 2948 2
2950 2870 2
2950 2951 3
2950 3030 4
2950 2949 1
2951 2871 5
2951 2952 5
2951 3031 3
2951 2950 2
2952 2872 2
2952 2953 4
2952 3032 4
2952 2951 4
2953 2873 4
2953 2954 5
2953 3033 3
2953 2952 3
2954 2874 5
2954 2955 1
2954 3034 5
2954 2953 4
2955 2875 4
2955 2956 2
2955 3035 5
2955 2954 3
2956 2876 3
2956 2957 1
2956 3036 4
2956 2955 2
2957 2877 1
2957 2958 5
2957 3037 3
2957 2956 5
2958 2878 4
2958 2959 3
2958 3038 5
2958 2957 5
2959 2879 3
2959 3039 4
2959 2958 1
2960 2880 1
2960 2961 2
2960 3040 3
2961 2881 4
2961 2962 2
2961 3041 3
2961 2960 2
2962 2882 1
2962 2963 2
2962 3042 3
2962 2961 3
2963 2883 2
2963 2964 3
2963 3043 1
2963 2962 1
2964 2884 3
2964 2965 1
2964 3044 3
2964 2963 2
2965 2885 4
2965 2966 5
2965 3045 3
2965 2964 2
2966 2886 5
2966 2967 1
2966 3046 4
2966 2965 3
2967 2887 5
2967 2968 2
2967 3047 5
2967 2966 2
2968 2888 1
2968 2969 5
2968 3048 3
2968 2967 5
2969 2889 1
2969 2970 5
2969 3049 4
2969 2968 4
2970 2890 3
2970 2971 3
2970 3050 2
2970 2969 2
2971 2891 1
2971 2972 4
2971 3051 4
2971 2970 1
2972 2892 3
2972 2973 4
2972 3052 1
2972 2971 1
2973 2893 4
2973 2974 2
2973 3053 5
2973 2972 3
2974 2894 5
2974 2975 4
2974 3054 2
2974 2973 5
2975 2895 1
2975 2976 3
2975 3055 1
2975 2974 5
2976 2896 1
2976 2977 4
2976 3056 3
2976 2975 2
2977 2897 4
2977 2978 1
2977 3057 5
2977 2976 5
2978 2898 1
2978 2979 3
2978 3058 1
2978 2977 1
2979 2899 4
2979 2980 1
2979 3059 4
2979 2978 3
2980 2900 3
2980 2981 3
2980 3060 3
2980 2979 4
2981 2901 1
2981 2982 5
2981 3061 3
2981 2980 4
2982 2902 5
2982 2983 1
2982 3062 4
2982 2981 3
2983 2903 4
2983 2984 4
2983 3063 1
2983 2982 3
2984 2904 5
2984 2985 1
2984 3064 1
2984 2983 2
2985 2905 1
2985 2986 1
2985 3065 2
2985 2984 1
2986 2906 3
2986 2987 4
2986 3066 2
2986 2985 2
2987 2907 1
2987 2988 2
2987 3067 3
2987 2986 5
2988 2908 1
2988 2989 1
2988 3068 3
2988 2987 1
2989 2909 1
2989 2990 1
2989 3069 3
2989 2988 1
2990 2910 3
2990 2991 3
2990 3070 5
2990 2989 4
2991 2911 3
2991 2992 2
2991 3071 2
2991 2990 5
2992 2912 4
2992 2993 1
2992 3072 2
2992 2991 3
2993 2913 2
2993 2994 5
2993 3073 4
2993 2992 4
2994 2914 1
2994 2995 5
2994 3074 5
2994 2993 2
2995 2915 5
2995 2996 4
2995 3075 4
2995 2994 3
2996 2916 3
2996 2997 4
2996 3076 2
2996 2995 1
2997 2917 3
2997 2998 3
2997 3077 1
2997 2996 3
2998 2918 5
2998 2999 2
2998 3078 2
2998 2997 1
2999 2919 1
2999 3000 4
2999 3079 1
2999 2998 2
3000 2920 1
3000 3001 2
3000 3080 4
3000 2999 4
3001 2921 2
3001 3002 4
3001 3081 1
3001 3000 3
3002 2922 2
3002 3003 5
3002 3082 5
3002 3001 5
3003 2923 3
3003 3004 3
3003 3083 4
3003 3002 2
3004 2924 5
3004 3005 1
3004 3084 2
3004 3003 2
3005 2925 3
3005 3006 4
3005 3085 4
3005 3004 5
3006 2926 5
3006 3007 2
3006 3086 4
3006 3005 2
3007 2927 1
3007 3008 3
3007 3087 4
3007 3006 2
3008 2928 3
3008 3009 5
3008 3088 1
3008 3007 2
3009 2929 4
3009 3010 1
3009 3089 1
3009 3008 2
3010 2930 1
3010 3011 4
3010 3090 2
3010 3009 3
3011 2931 1
3011 3012 4
3011 3091 5
3011 3010 4
3012 2932 3
3012 3013 3
3012 3092 1
3012 3011 5
3013 2933 1
3013 3014 3
3013 3093 4
3013 3012 2
3014 2934 2
3014 3015 4
3014 3094 5
3014 3013 4
3015 2935 5
3015 3016 3
3015 3095 1
3015 3014 4
3016 2936 3
3016 3017 3
3016 3096 1
3016 3015 1
3017 2937 4
3017 3018 4
3017 3097 2
3017 3016 3
3018 2938 2
3018 3019 4
3018 3098 2
3018 3017 5
3019 2939 3
3019 3020 5
3019 3099 5
3019 3018 4
3020 2940 5
3020 3021 4
3020 3100 1
3020 3019 1
3021 2941 2
3021 3022 1
3021 3101 2
3021 3020 1
3022 2942 1
3022 3023 1
3022 3102 5
3022 3021 3
3023 2943 2
3023 3024 1
3023 3103 5
3023 3022 1
3024 2944 3
3024 3025 2
3024 3104 5
3024 3023 4
3025 2945 4
3025 3026 4
3025 3105 1
3025 3024 2
3026 2946 3
3026 3027 4
3026 3106 2
3026 3025 2
3027 2947 2
3027 3028 3
3027 3107 3
3027 3026 5
3028 2948 3
3028 3029 1
3028 3108 1
3028 3027 2
3029 2949 5
3029 3030 5
3029 3109 4
3029 3028 3
3030 2950 2
3030 3031 2
3030 3110 3
3030 3029 1
3031 2951 2
3031 3032 2
3031 3111 3
3031 3030 4
3032 2952 2
3032 3033 1
3032 3112 4
3032 3031 4
3033 2953 3
3033 3034 1
3033 3113 2
3033 3032 3
3034 2954 1
3034 3035 2
3034 3114 1
3034 3033 5
3035 2955 3
3035 3036 4
3035 3115 5
3035 3034 1
3036 2956 4
3036 3037 2
3036 3116 4
3036 3035 1
3037 2957 1
3037 3038 1
3037 3117 5
3037 3036 3
3038 2958 2
3038 3039 5
3038 3118 5
3038 3037 2
3039 2959 2
3039 3119 1
3039 3038 1
3040 2960 3
3040 3041 3
3040 3120 4
3041 2961 4
3041 3042 3
3041 3121 5
3041 3040 3
3042 2962 4
3042 3043 3
3042 3122 3
3042 3041 4
3043 2963 1
3043 3044 3
3043 3123 3
3043 3042 3
3044 2964 5
3044 3045 5
3044 3124 4
3044 3043 1
3045 2965 3
3045 3046 5
3045 3125 1
3045 3044 2
3046 2966 4
3046 3047 2
3046 3126 2
3046 3045 3
3047 2967 4
3047 3048 1
3047 3127 2
3047 3046 5
3048 2968 4
3048 3049 3
3048 3128 2
3048 3047 1
3049 2969 2
3049 3050 4
3049 3129 1
3049 3048 3
3050 2970 5
3050 3051 4
3050 3130 5
3050 3049 2
3051 2971 3
3051 3052 3
3051 3131 3
3051 3050 4
3052 2972 5
3052 3053 4
3052 3132 3
3052 3051 3
3053 2973 2
3053 3054 1
3053 3133 5
3053 3052 5
3054 2974 3
3054 3055 5
3054 3134 1
3054 3053 4
3055 2975 4
3055 3056 5
3055 3135 3
3055 3054 3
3056 2976 1
3056 3057 1
3056 3136 4
3056 3055 2
3057 2977 4
3057 3058 2
3057 3137 5
3057 3056 3
3058 2978 5
3058 3059 5
3058 3138 2
3058 3057 3
3059 2979 4
3059 3060 3
3059 3139 1
3059 3058 3
3060 2980 1
3060 3061 4
3060 3140 1
3060 3059 2
3061 2981 3
3061 3062 5
3061 3141 1
3061 3060 1
3062 2982 4
3062 3063 3
3062 3142 1
3062 3061 4
3063 2983 3
3063 3064 1
3063 3143 1
3063 3062 3
3064 2984 2
3064 3065 3
3064 3144 3
3064 3063 5
3065 2985 5
3065 3066 2
3065 3145 1
3065 3064 3
3066 2986 2
3066 3067 2
3066 3146 4
3066 3065 5
3067 2987 1
3067 3068 3
3067 3147 2
3067 3066 1
3068 2988 4
3068 3069 3
3068 3148 2
3068 3067 4
3069 2989 4
3069 3070 4
3069 3149 1
3069 3068 3
3070 2990 3
3070 3071 5
3070 3150 3
3070 3069 2
3071 2991 5
3071 3072 4
3071 3151 3
3071 3070 5
3072 2992 2
3072 3073 2
3072 3152 3
3072 3071 2
3073 2993 4
3073 3074 5
3073 3153 2
3073 3072 3
3074 2994 3
3074 3075 1
3074 3154 3
3074 3073 5
3075 2995 4
3075 3076 5
3075 3155 2
3075 3074 4
3076 2996 4
3076 3077 1
3076 3156 2
3076 3075 5
3077 2997 4
3077 3078 3
3077 3157 5
3077 3076 3
3078 2998 4
3078 3079 3
3078 3158 4
3078 3077 4
3079 2999 4
3079 3080 4
3079 3159 4
3079 3078 1
3080 3000 5
3080 3081 1
3080 3160 4
3080 3079 1
3081 3001 2
3081 3082 5
3081 3161 3
3081 3080 2
3082 3002 5
3082 3083 5
3082 3162 3
3082 3081 2
3083 3003 5
3083 3084 5
3083 3163 5
3083 3082 3
3084 3004 1
3084 3085 4
3084 3164 2
3084 3083 4
3085 3005 1
3085 3086 4
3085 3165 5
3085 3084 4
3086 3006 1
3086 3087 1
3086 3166 1
3086 3085 3
3087 3007 1
3087 3088 3
3087 3167 5
3087 3086 1
3088 3008 3
3088 3089 5
3088 3168 4
3088 3087 3
3089 3009 1
3089 3090 1
3089 3169 5
3089 3088 5
3090 3010 1
3090 3091 2
3090 3170 5
3090 3089 2
3091 3011 5
3091 3092 4
3091 3171 2
3091 3090 2
3092 3012 2
3092 3093 3
3092 3172 3
3092 3091 1
3093 3013 4
3093 3094 5
3093 3173 2
3093 3092 1
3094 3014 1
3094 3095 1
3094 3174 2
3094 3093 5
3095 3015 1
3095 3096 5
3095 3175 1
3095 3094 2
3096 3016 2
3096 3097 1
3096 3176 4
3096 3095 1
3097 3017 5
3097 3098 4
3097 3177 4
3097 3096 1
3098 3018 1
3098 3099 3
3098 3178 4
3098 3097 4
3099 3019 2
3099 3100 2
3099 3179 5
3099 3098 3
3100 3020 5
3100 3101 4
3100 3180 5
3100 3099 1
3101 3021 4
3101 3102 2
3101 3181 1
3101 3100 2
3102 3022 2
3102 3103 2
3102 3182 2
3102 3101 5
3103 3023 5
3103 3104 2
3103 3183 4
3103 3102 4
3104 3024 3
3104 3105 3
3104 3184 1
3104 3103 5
3105 3025 4
3105 3106 3
3105 3185 3
3105 3104 4
3106 3026 4
3106 3107 1
3106 3186 4
3106 3105 4
3107 3027 4
3107 3108 2
3107 3187 1
3107 3106 3
3108 3028 4
3108 3109 1
3108 3188 5
3108 3107 4
3109 3029 1
3109 3110 5
3109 3189 3
3109 3108 1
3110 3030 5
3110 3111 4
3110 3190 1
3110 3109 3
3111 3031 2
3111 3112 4
3111 3191 4
3111 3110 3
3112 3032 1
3112 3113 2
3112 3192 3
3112 3111 5
3113 3033 5
3113 3114 2
3113 3193 3
3113 3112 5
3114 3034 4
3114 3115 5
3114 3194 1
3114 3113 2
3115 3035 2
3115 3116 3
3115 3195 5
3115 3114 3
3116 3036 4
3116 3117 2
3116 3196 3
3116 3115 3
3117 3037 4
3117 3118 1
3117 3197 4
3117 3116 4
3118 3038 4
3118 3119 5
3118 3198 2
3118 3117 5
3119 3039 5
3119 3199 5
3119 3118 3
3120 3040 2
3120 3121 3
3120 3200 5
3121 3041 5
3121 3122 3
3121 3201 5
3121 3120 5
3122 3042 4
3122 3123 1
3122 3202 1
3122 3121 1
3123 3043 2
3123 3124 2
3123 3203 1
3123 3122 1
3124 3044 4
3124 3125 4
3124 3204 3
3124 3123 2
3125 3045 2
3125 3126 1
3125 3205 2
3125 3124 4
3126 3046 4
3126 3127 1
3126 3206 1
3126 3125 5
3127 3047 3
3127 3128 1
3127 3207 1
3127 3126 1
3128 3048 4
3128 3129 3
3128 3208 5
3128 3127 1
3129 3049 2
3129 3130 3
3129 3209 1
3129 3128 4
3130 3050 4
3130 3131 2
3130 3210 5
3130 3129 5
3131 3051 2
3131 3132 2
3131 3211 3
3131 3130 4
3132 3052 4
3132 3133 3
3132 3212 2
3132 3131 2
3133 3053 2
3133 3134 4
3133 3213 5
3133 3132 2
3134 3054 1
3134 3135 5
3134 3214 1
3134 3133 1
3135 3055 2
3135 3136 1
3135 3215 2
3135 3134 1
3136 3056 3
3136 3137 4
3136 3216 5
3136 3135 5
3137 3057 1
3137 3138 3
3137 3217 2
3137 3136 5
3138 3058 4
3138 3139 2
3138 3218 2
3138 3137 5
3139 3059 4
3139 3140 5
3139 3219 3
3139 3138 3
3140 3060 5
3140 3141 5
3140 3220 2
3140 3139 1
3141 3061 4
3141 3142 4
3141 3221 4
3141 3140 1
3142 3062 5
3142 3143 1
3142 3222 2
3142 3141 5
3143 3063 3
3143 3144 1
3143 3223 1
3143 3142 4
3144 3064 2
3144 3145 1
3144 3224 5
3144 3143 5
3145 3065 3
3145 3146 1
3145 3225 2
3145 3144 3
3146 3066 3
3146 3147 4
3146 3226 3
3146 3145 1
3147 3067 2
3147 3148 3
3147 3227 1
3147 3146 5
3148 3068 5
3148 3149 2
3148 3228 5
3148 3147 5
3149 3069 5
3149 3150 3
3149 3229 4
3149 3148 5
3150 3070 1
3150 3151 5
3150 3230 1
3150 3149 5
3151 3071 4
3151 3152 3
3151 3231 1
3151 3150 1
3152 3072 3
3152 3153 4
3152 3232 3
3152 3151 2
3153 3073 3
3153 3154 1
3153 3233 2
3153 3152 2
3154 3074 5
3154 3155 3
3154 3234 1
3154 3153 2
3155 3075 4
3155 3156 1
3155 3235 5
3155 3154 5
3156 3076 1
3156 3157 3
3156 3236 1
3156 3155 4
3157 3077 5
3157 3158 5
3157 3237 1
3157 3156 5
3158 3078 4
3158 3159 2
3158 3238 3
3158 3157 1
3159 3079 1
3159 3160 1
3159 3239 4
3159 3158 5
3160 3080 2
3160 3161 3
3160 3240 4
3160 3159 4
3161 3081 3
3161 3162 2
3161 3241 1
3161 3160 1
3162 3082 1
3162 3163 2
3162 3242 5
3162 3161 5
3163 3083 4
3163 3164 1
3163 3243 5
3163 3162 4
3164 3084 1
3164 3165 4
3164 3244 4
3164 3163 2
3165 3085 4
3165 3166 4
3165 3245 5
3165 3164 2
3166 3086 1
3166 3167 4
3166 3246 1
3166 3165 5
3167 3087 3
3167 3168 3
3167 3247 2
3167 3166 3
3168 3088 4
3168 3169 1
3168 3248 2
3168 3167 2
3169 3089 1
3169 3170 5
3169 3249 1
3169 3168 2
3170 3090 4
3170 3171 5
3170 3250 5
3170 3169 1
3171 3091 1
3171 3172 2
3171 3251 1
3171 3170 1
3172 3092 1
3172 3173 2
3172 3252 4
3172 3171 2
3173 3093 3
3173 3174 1
3173 3253 3
3173 3172 3
3174 3094 5
3174 3175 2
3174 3254 3
3174 3173 2
3175 3095 5
3175 3176 4
3175 3255 4
3175 3174 1
3176 3096 1
3176 3177 1
3176 3256 3
3176 3175 5
3177 3097 2
3177 3178 4
3177 3257 3
3177 3176 2
3178 3098 4
3178 3179 3
3178 3258 3
3178 3177 5
3179 3099 3
3179 3180 2
3179 3259 5
3179 3178 3
3180 3100 3
3180 3181 5
3180 3260 5
3180 3179 1
3181 3101 1
3181 3182 3
3181 3261 4
3181 3180 5
3182 3102 4
3182 3183 3
3182 3262 1
3182 3181 2
3183 3103 2
3183 3184 5
3183 3263 2
3183 3182 3
3184 3104 5
3184 3185 2
3184 3264 1
3184 3183 3
3185 3105 2
3185 3186 1
3185 3265 2
3185 3184 4
3186 3106 4
3186 3187 1
3186 3266 1
3186 3185 4
3187 3107 1
3187 3188 3
3187 3267 3
3187 3186 5
3188 3108 4
3188 3189 3
3188 3268 1
3188 3187 1
3189 3109 3
3189 3190 5
3189 3269 4
3189 3188 4
3190 3110 1
3190 3191 4
3190 3270 4
3190 3189 4
3191 3111 1
3191 3192 2
3191 3271 2
3191 3190 4
3192 3112 2
3192 3193 4
3192 3272 5
3192 3191 1
3193 3113 3
3193 3194 1
3193 3273 5
3193 3192 3
3194 3114 1
3194 3195 5
3194 3274 3
3194 3193 3
3195 3115 5
3195 3196 2
3195 3275 1
3195 3194 3
3196 3116 5
3196 3197 4
3196 3276 4
3196 3195 1
3197 3117 1
3197 3198 5
3197 3277 4
3197 3196 3
3198 3118 5
3198 3199 4
3198 3278 4
3198 3197 5
3199 3119 5
3199 3279 5
3199 3198 3
3200 3120 2
3200 3201 4
3200 3280 4
3201 3121 2
3201 3202 2
3201 3281 1
3201 3200 3
3202 3122 3
3202 3203 1
3202 3282 2
3202 3201 5
3203 3123 3
3203 3204 3
3203 3283 5
3203 3202 4
3204 3124 1
3204 3205 5
3204 3284 3
3204 3203 3
3205 3125 3
3205 3206 3
3205 3285 5
3205 3204 1
3206 3126 1
3206 3207 3
3206 3286 5
3206 3205 3
3207 3127 3
3207 3208 2
3207 3287 4
3207 3206 4
3208 3128 1
3208 3209 4
3208 3288 1
3208 3207 4
3209 3129 1
3209 3210 3
3209 3289 4
3209 3208 5
3210 3130 2
3210 3211 4
3210 3290 1
3210 3209 5
3211 3131 1
3211 3212 3
3211 3291 5
3211 3210 5
3212 3132 3
3212 3213 1
3212 3292 4
3212 3211 2
3213 3133 3
3213 3214 3
3213 3293 3
3213 3212 4
3214 3134 2
3214 3215 2
3214 3294 2
3214 3213 2
3215 3135 5
3215 3216 1
3215 3295 2
3215 3214 1
3216 3136 1
3216 3217 2
3216 3296 5
3216 3215 4
3217 3137 5
3217 3218 3
3217 3297 1
3217 3216 5
3218 3138 2
3218 3219 1
3218 3298 3
3218 3217 3
3219 3139 1
3219 3220 3
3219 3299 5
3219 3218 1
3220 3140 5
3220 3221 2
3220 3300 3
3220 3219 1
3221 3141 1
3221 3222 5
3221 3301 4
3221 3220 1
3222 3142 5
3222 3223 1
3222 3302 2
3222 3221 2
3223 3143 3
3223 3224 5
3223 3303 3
3223 3222 4
3224 3144 1
3224 3225 4
3224 3304 3
3224 3223 2
3225 3145 1
3225 3226 3
3225 3305 5
3225 3224 3
3226 3146 3
3226 3227 4
3226 3306 3
3226 3225 4
3227 3147 3
3227 3228 5
3227 3307 1
3227 3226 2
3228 3148 3
3228 3229 1
3228 3308 3
3228 3227 2
3229 3149 5
3229 3230 1
3229 3309 1
3229 3228 5
3230 3150 2
3230 3231 3
3230 3310 5
3230 3229 5
3231 3151 5
3231 3232 3
3231 3311 2
3231 3230 4
3232 3152 5
3232 3233 1
3232 3312 2
3232 3231 4
3233 3153 1
3233 3234 1
3233 3313 2
3233 3232 5
3234 3154 5
3234 3235 5
3234 3314 5
3234 3233 4
3235 3155 5
3235 3236 1
3235 3315 5
3235 3234 1
3236 3156 5
3236 3237 4
3236 3316 5
3236 3235 5
3237 3157 4
3237 3238 3
3237 3317 3
3237 3236 2
3238 3158 5
3238 3239 3
3238 3318 2
3238 3237 3
3239 3159 2
3239 3240 3
3239 3319 2
3239 3238 4
3240 3160 3
3240 3241 1
3240 3320 2
3240 3239 4
3241 3161 4
3241 3242 3
3241 3321 1
3241 3240 3
3242 3162 5
3242 3243 5
3242 3322 1
3242 3241 3
3243 3163 4
3243 3244 5
3243 3323 2
3243 3242 4
3244 3164 4
3244 3245 2
3244 3324 5
3244 3243 2
3245 3165 5
3245 3246 2
3245 3325 4
3245 3244 5
3246 3166 2
3246 3247 5
3246 3326 3
3246 3245 3
3247 3167 3
3247 3248 3
3247 3327 1
3247 3246 1
3248 3168 4
3248 3249 4
3248 3328 5
3248 3247 2
3249 3169 5
3249 3250 4
3249 3329 2
3249 3248 2
3250 3170 4
3250 3251 1
3250 3330 2
3250 3249 1
3251 3171 4
3251 3252 3
3251 3331 5
3251 3250 4
3252 3172 1
3252 3253 2
3252 3332 1
3252 3251 4
3253 3173 1
3253 3254 2
3253 3333 1
3253 3252 2
3254 3174 5
3254 3255 5
3254 3334 4
3254 3253 4
3255 3175 3
3255 3256 2
3255 3335 4
3255 3254 5
3256 3176 2
3256 3257 3
3256 3336 1
3256 3255 3
3257 3177 3
3257 3258 5
3257 3337 5
3257 3256 5
3258 3178 1
3258 3259 1
3258 3338 1
3258 3257 3
3259 3179 4
3259 3260 4
3259 3339 4
3259 3258 4
3260 3180 3
3260 3261 4
3260 3340 2
3260 3259 2
3261 3181 5
3261 3262 5
3261 3341 1
3261 3260 2
3262 3182 1
3262 3263 5
3262 3342 5
3262 3261 3
3263 3183 4
3263 3264 4
3263 3343 3
3263 3262 4
3264 3184 2
3264 3265 5
3264 3344 5
3264 3263 3
3265 3185 1
3265 3266 2
3265 3345 3
3265 3264 4
3266 3186 3
3266 3267 1
3266 3346 5
3266 3265 5
3267 3187 5
3267 3268 5
3267 3347 5
3267 3266 4
3268 3188 3
3268 3269 3
3268 3348 4
3268 3267 3
3269 3189 2
3269 3270 2
3269 3349 1
3269 3268 2
3270 3190 4
3270 3271 5
3270 3350 3
3270 3269 5
3271 3191 5
3271 3272 3
3271 3351 1
3271 3270 3
3272 3192 3
3272 3273 2
3272 3352 1
3272 3271 3
3273 3193 3
3273 3274 4
3273 3353 4
3273 3272 2
3274 3194 2
3274 3275 3
3274 3354 3
3274 3273 5
3275 3195 1
3275 3276 2
3275 3355 3
3275 3274 2
3276 3196 1
3276 3277 2
3276 3356 5
3276 3275 5
3277 3197 2
3277 3278 1
3277 3357 5
3277 3276 1
3278 3198 5
3278 3279 5
3278 3358 2
3278 3277 1
3279 3199 4
3279 3359 1
3279 3278 3
3280 3200 2
3280 3281 3
3280 3360 5
3281 3201 4
3281 3282 4
3281 3361 5
3281 3280 2
3282 3202 4
3282 3283 3
3282 3362 1
3282 3281 1
3283 3203 4
3283 3284 4
3283 3363 4
3283 3282 3
3284 3204 1
3284 3285 2
3284 3364 3
3284 3283 1
3285 3205 3
3285 3286 1
3285 3365 2
3285 3284 1
3286 3206 3
3286 3287 2
3286 3366 5
3286 3285 3
3287 3207 3
3287 3288 4
3287 3367 5
3287 3286 1
3288 3208 3
3288 3289 1
3288 3368 4
3288 3287 1
3289 3209 5
3289 3290 3
3289 3369 2
3289 3288 5
3290 3210 1
3290 3291 1
3290 3370 2
3290 3289 2
3291 3211 5
3291 3292 4
3291 3371 2
3291 3290 2
3292 3212 3
3292 3293 4
3292 3372 2
3292 3291 4
3293 3213 2
3293 3294 4
3293 3373 3
3293 3292 2
3294 3214 2
3294 3295 1
3294 3374 5
3294 3293 2
3295 3215 1
3295 3296 4
3295 3375 1
3295 3294 4
3296 3216 5
3296 3297 5
3296 3376 2
3296 3295 2
3297 3217 1
3297 3298 4
3297 3377 3
3297 3296 5
3298 3218 4
3298 3299 5
3298 3378 2
3298 3297 3
3299 3219 4
3299 3300 5
3299 3379 2
3299 3298 3
3300 3220 2
3300 3301 3
3300 3380 4
3300 3299 4
3301 3221 4
3301 3302 5
3301 3381 3
3301 3300 5
3302 3222 4
3302 3303 3
3302 3382 1
3302 3301 2
3303 3223 1
3303 3304 3
3303 3383 4
3303 3302 4
3304 3224 3
3304 3305 2
3304 3384 4
3304 3303 1
3305 3225 2
3305 3306 4
3305 3385 3
3305 3304 1
3306 3226 3
3306 3307 4
3306 3386 2
3306 3305 4
3307 3227 4
3307 3308 5
3307 3387 4
3307 3306 2
3308 3228 1
3308 3309 3
3308 3388 3
3308 3307 5
3309 3229 2
3309 3310 4
3309 3389 1
3309 3308 5
3310 3230 3
3310 3311 3
3310 3390 3
3310 3309 4
3311 3231 4
3311 3312 4
3311 3391 4
3311 3310 4
3312 3232 3
3312 3313 1
3312 3392 3
3312 3311 4
3313 3233 2
3313 3314 3
3313 3393 1
3313 3312 3
3314 3234 4
3314 3315 4
3314 3394 2
3314 3313 5
3315 3235 2
3315 3316 5
3315 3395 2
3315 3314 1
3316 3236 5
3316 3317 5
3316 3396 3
3316 3315 2
3317 3237 5
3317 3318 5
3317 3397 1
3317 3316 1
3318 3238 4
3318 3319 1
3318 3398 3
3318 3317 3
3319 3239 5
3319 3320 1
3319 3399 1
3319 3318 5
3320 3240 2
3320 3321 3
3320 3400 5
3320 3319 2
3321 3241 2
3321 3322 5
3321 3401 4
3321 3320 2
3322 3242 3
3322 3323 2
3322 3402 3
3322 3321 3
3323 3243 4
3323 3324 2
3323 3403 5
3323 3322 2
3324 3244 1
3324 3325 1
3324 3404 1
3324 3323 5
3325 3245 1
3325 3326 5
3325 3405 4
3325 3324 4
3326 3246 1
3326 3327 2
3326 3406 3
3326 3325 3
3327 3247 1
3327 3328 2
3327 3407 2
3327 3326 1
3328 3248 3
3328 3329 1
3328 3408 4
3328 3327 4
3329 3249 2
3329 3330 3
3329 3409 1
3329 3328 1
3330 3250 1
3330 3331 5
3330 3410 4
3330 3329 1
3331 3251 1
3331 3332 5
3331 3411 5
3331 3330 2
3332 3252 1
3332 3333 5
3332 3412 4
3332 3331 2
3333 3253 5
3333 3334 3
3333 3413 3
3333 3332 4
3334 3254 5
3334 3335 1
3334 3414 3
3334 3333 3
3335 3255 4
3335 3336 2
3335 3415 1
3335 3334 3
3336 3256 5
3336 3337 4
3336 3416 4
3336 3335 3
3337 3257 4
3337 3338 1
3337 3417 2
3337 3336 4
3338 3258 5
3338 3339 3
3338 3418 4
3338 3337 3
3339 3259 5
3339 3340 5
3339 3419 2
3339 3338 4
3340 3260 1
3340 3341 4
3340 3420 4
3340 3339 3
3341 3261 5
3341 3342 1
3341 3421 4
3341 3340 2
3342 3262 5
3342 3343 1
3342 3422 4
3342 3341 2
3343 3263 4
3343 3344 3
3343 3423 4
3343 3342 5
3344 3264 1
3344 3345 3
3344 3424 3
3344 3343 2
3345 3265 1
3345 3346 1
3345 3425 5
3345 3344 2
3346 3266 2
3346 3347 4
3346 3426 5
3346 3345 2
3347 3267 1
3347 3348 2
3347 3427 4
3347 3346 5
3348 3268 4
3348 3349 5
3348 3428 5
3348 3347 2
3349 3269 1
3349 3350 4
3349 3429 3
3349 3348 4
3350 3270 3
3350 3351 3
3350 3430 2
3350 3349 1
3351 3271 3
3351 3352 5
3351 3431 5
3351 3350 4
3352 3272 1
3352 3353 3
3352 3432 2
3352 3351 5
3353 3273 4
3353 3354 5
3353 3433 4
3353 3352 3
3354 3274 2
3354 3355 3
3354 3434 4
3354 3353 4
3355 3275 5
3355 3356 5
3355 3435 1
3355 3354 1
3356 3276 4
3356 3357 1
3356 3436 4
3356 3355 2
3357 3277 1
3357 3358 2
3357 3437 5
3357 3356 1
3358 3278 2
3358 3359 2
3358 3438 4
3358 3357 1
3359 3279 1
3359 3439 4
3359 3358 4
3360 3280 2
3360 3361 5
3360 3440 4
3361 3281 2
3361 3362 5
3361 3441 4
3361 3360 4
3362 3282 1
3362 3363 3
3362 3442 1
3362 3361 4
3363 3283 3
3363 3364 3
3363 3443 5
3363 3362 3
3364 3284 5
3364 3365 3
3364 3444 5
3364 3363 2
3365 3285 2
3365 3366 3
3365 3445 5
3365 3364 2
3366 3286 5
3366 3367 3
3366 3446 5
3366 3365 5
3367 3287 3
3367 3368 4
3367 3447 4
3367 3366 2
3368 3288 3
3368 3369 2
3368 3448 2
3368 3367 5
3369 3289 4
3369 3370 1
3369 3449 3
3369 3368 4
3370 3290 2
3370 3371 2
3370 3450 4
3370 3369 1
3371 3291 1
3371 3372 3
3371 3451 2
3371 3370 2
3372 3292 1
3372 3373 5
3372 3452 4
3372 3371 3
3373 3293 1
3373 3374 1
3373 3453 5
3373 3372 4
3374 3294 5
3374 3375 2
3374 3454 1
3374 3373 3
3375 3295 5
3375 3376 2
3375 3455 3
3375 3374 1
3376 3296 2
3376 3377 3
3376 3456 3
3376 3375 4
3377 3297 5
3377 3378 3
3377 3457 3
3377 3376 5
3378 3298 4
3378 3379 3
3378 3458 5
3378 3377 5
3379 3299 2
3379 3380 1
3379 3459 5
3379 3378 2
3380 3300 1
3380 3381 2
3380 3460 3
3380 3379 2
3381 3301 3
3381 3382 5
3381 3461 1
3381 3380 2
3382 3302 5
3382 3383 5
3382 3462 4
3382 3381 3
3383 3303 5
3383 3384 5
3383 3463 5
3383 3382 3
3384 3304 5
3384 3385 4
3384 3464 2
3384 3383 2
3385 3305 1
3385 3386 2
3385 3465 2
3385 3384 1
3386 3306 5
3386 3387 2
3386 3466 2
3386 3385 2
3387 3307 4
3387 3388 1
3387 3467 3
3387 3386 1
3388 3308 1
3388 3389 2
3388 3468 5
3388 3387 4
3389 3309 4
3389 3390 4
3389 3469 3
3389 3388 3
3390 3310 5
3390 3391 1
3390 3470 2
3390 3389 5
3391 3311 4
3391 3392 4
3391 3471 4
3391 3390 4
3392 3312 3
3392 3393 3
3392 3472 5
3392 3391 3
3393 3313 5
3393 3394 1
3393 3473 5
3393 3392 2
3394 3314 2
3394 3395 3
3394 3474 2
3394 3393 4
3395 3315 5
3395 3396 4
3395 3475 4
3395 3394 3
3396 3316 1
3396 3397 5
3396 3476 4
3396 3395 3
3397 3317 2
3397 3398 1
3397 3477 3
3397 3396 4
3398 3318 3
3398 3399 4
3398 3478 2
3398 3397 5
3399 3319 5
3399 3400 2
3399 3479 4
3399 3398 3
3400 3320 2
3400 3401 1
3400 3480 2
3400 3399 4
3401 3321 3
3401 3402 5
3401 3481 2
3401 3400 1
3402 3322 5
3402 3403 3
3402 3482 3
3402 3401 1
3403 3323 3
3403 3404 3
3403 3483 5
3403 3402 1
3404 3324 5
3404 3405 3
3404 3484 1
3404 3403 3
3405 3325 4
3405 3406 4
3405 3485 1
3405 3404 3
3406 3326 3
3406 3407 1
3406 3486 5
3406 3405 1
3407 3327 4
3407 3408 5
3407 3487 4
3407 3406 4
3408 3328 2
3408 3409 4
3408 3488 5
3408 3407 1
3409 3329 1
3409 3410 3
3409 3489 1
3409 3408 5
3410 3330 2
3410 3411 2
3410 3490 2
3410 3409 1
3411 3331 4
3411 3412 1
3411 3491 1
3411 3410 4
3412 3332 1
3412 3413 3
3412 3492 1
3412 3411 5
3413 3333 3
3413 3414 2
3413 3493 5
3413 3412 1
3414 3334 3
3414 3415 3
3414 3494 2
3414 3413 5
3415 3335 3
3415 3416 5
3415 3495 1
3415 3414 4
3416 3336 4
3416 3417 1
3416 3496 1
3416 3415 2
3417 3337 5
3417 3418 2
3417 3497 3
3417 3416 1
3418 3338 2
3418 3419 4
3418 3498 1
3418 3417 3
3419 3339 5
3419 3420 2
3419 3499 5
3419 3418 4
3420 3340 2
3420 3421 1
3420 3500 3
3420 3419 3
3421 3341 5
3421 3422 3
3421 3501 1
3421 3420 3
3422 3342 4
3422 3423 5
3422 3502 1
3422 3421 5
3423 3343 4
3423 3424 1
3423 3503 1
3423 3422 1
3424 3344 2
3424 3425 1
3424 3504 2
3424 3423 3
3425 3345 5
3425 3426 1
3425 3505 2
3425 3424 1
3426 3346 2
3426 3427 3
3426 3506 4
3426 3425 1
3427 3347 2
3427 3428 3
3427 3507 2
3427 3426 2
3428 3348 3
3428 3429 1
3428 3508 4
3428 3427 3
3429 3349 2
3429 3430 3
3429 3509 2
3429 3428 5
3430 3350 3
3430 3431 4
3430 3510 2
3430 3429 2
3431 3351 3
3431 3432 2
3431 3511 2
3431 3430 3
3432 3352 3
3432 3433 4
3432 3512 3
3432 3431 1
3433 3353 4
3433 3434 3
3433 3513 5
3433 3432 3
3434 3354 3
3434 3435 5
3434 3514 4
3434 3433 2
3435 3355 1
3435 3436 5
3435 3515 4
3435 3434 2
3436 3356 5
3436 3437 5
3436 3516 2
3436 3435 4
3437 3357 3
3437 3438 3
3437 3517 2
3437 3436 3
3438 3358 5
3438 3439 5
3438 3518 3
3438 3437 1
3439 3359 5
3439 3519 2
3439 3438 3
3440 3360 2
3440 3441 4
3440 3520 3
3441 3361 1
3441 3442 1
3441 3521 5
3441 3440 2
3442 3362 4
3442 3443 2
3442 3522 4
3442 3441 5
3443 3363 3
3443 3444 3
3443 3523 5
3443 3442 4
3444 3364 5
3444 3445 1
3444 3524 3
3444 3443 1
3445 3365 3
3445 3446 1
3445 3525 2
3445 3444 4
3446 3366 4
3446 3447 3
3446 3526 3
3446 3445 1
3447 3367 2
3447 3448 3
3447 3527 3
3447 3446 2
3448 3368 4
3448 3449 5
3448 3528 2
3448 3447 1
3449 3369 4
3449 3450 5
3449 3529 4
3449 3448 5
3450 3370 5
3450 3451 4
3450 3530 4
3450 3449 4
3451 3371 2
3451 3452 3
3451 3531 3
3451 3450 5
3452 3372 3
3452 3453 4
3452 3532 4
3452 3451 3
3453 3373 1
3453 3454 2
3453 3533 5
3453 3452 1
3454 3374 4
3454 3455 4
3454 3534 3
3454 3453 5
3455 3375 4
3455 3456 5
3455 3535 1
3455 3454 2
3456 3376 5
3456 3457 2
3456 3536 3
3456 3455 5
3457 3377 5
3457 3458 2
3457 3537 5
3457 3456 2
3458 3378 2
3458 3459 3
3458 3538 1
3458 3457 1
3459 3379 3
3459 3460 2
3459 3539 3
3459 3458 4
3460 3380 4
3460 3461 2
3460 3540 4
3460 3459 1
3461 3381 2
3461 3462 2
3461 3541 2
3461 3460 3
3462 3382 3
3462 3463 1
3462 3542 2
3462 3461 2
3463 3383 2
3463 3464 4
3463 3543 1
3463 3462 2
3464 3384 2
3464 3465 5
3464 3544 3
3464 3463 1
3465 3385 4
3465 3466 2
3465 3545 3
3465 3464 1
3466 3386 4
3466 3467 5
3466 3546 4
3466 3465 2
3467 3387 4
3467 3468 4
3467 3547 4
3467 3466 2
3468 3388 1
3468 3469 4
3468 3548 2
3468 3467 3
3469 3389 2
3469 3470 4
3469 3549 3
3469 3468 3
3470 3390 4
3470 3471 5
3470 3550 4
3470 3469 5
3471 3391 1
3471 3472 3
3471 3551 4
3471 3470 5
3472 3392 1
3472 3473 2
3472 3552 5
3472 3471 2
3473 3393 2
3473 3474 3
3473 3553 3
3473 3472 3
3474 3394 5
3474 3475 1
3474 3554 5
3474 3473 5
3475 3395 4
3475 3476 1
3475 3555 2
3475 3474 2
3476 3396 4
3476 3477 2
3476 3556 1
3476 3475 2
3477 3397 3
3477 3478 4
3477 3557 1
3477 3476 3
3478 3398 4
3478 3479 2
3478 3558 4
3478 3477 2
3479 3399 3
3479 3480 3
3479 3559 4
3479 3478 4
3480 3400 1
3480 3481 3
3480 3560 4
3480 3479 2
3481 3401 2
3481 3482 4
3481 3561 5
3481 3480 1
3482 3402 4
3482 3483 1
3482 3562 3
3482 3481 1
3483 3403 4
3483 3484 1
3483 3563 2
3483 3482 3
3484 3404 2
3484 3485 5
3484 3564 5
3484 3483 4
3485 3405 4
3485 3486 1
3485 3565 4
3485 3484 4
3486 3406 4
3486 3487 1
3486 3566 3
3486 3485 4
3487 3407 3
3487 3488 1
3487 3567 5
3487 3486 4
3488 3408 5
3488 3489 3
3488 3568 4
3488 3487 3
3489 3409 5
3489 3490 3
3489 3569 1
3489 3488 2
3490 3410 4
3490 3491 5
3490 3570 4
3490 3489 1
3491 3411 2
3491 3492 1
3491 3571 3
3491 3490 5
3492 3412 3
3492 3493 2
3492 3572 5
3492 3491 5
3493 3413 4
3493 3494 4
3493 3573 1
3493 3492 4
3494 3414 3
3494 3495 1
3494 3574 1
3494 3493 4
3495 3415 4
3495 3496 3
3495 3575 1
3495 3494 5
3496 3416 3
3496 3497 3
3496 3576 4
3496 3495 3
3497 3417 3
3497 3498 1
3497 3577 5
3497 3496 3
3498 3418 2
3498 3499 3
3498 3578 3
3498 3497 4
3499 3419 1
3499 3500 4
3499 3579 3
3499 3498 3
3500 3420 1
3500 3501 5
3500 3580 1
3500 3499 3
3501 3421 1
3501 3502 5
3501 3581 4
3501 3500 2
3502 3422 2
3502 3503 1
3502 3582 5
3502 3501 1
3503 3423 2
3503 3504 2
3503 3583 4
3503 3502 4
3504 3424 3
3504 3505 3
3504 3584 4
3504 3503 5
3505 3425 2
3505 3506 5
3505 3585 5
3505 3504 4
3506 3426 1
3506 3507 1
3506 3586 3
3506 3505 3
3507 3427 1
3507 3508 2
3507 3587 5
3507 3506 1
3508 3428 4
3508 3509 5
3508 3588 1
3508 3507 3
3509 3429 3
3509 3510 4
3509 3589 4
3509 3508 1
3510 3430 2
3510 3511 3
3510 3590 1
3510 3509 4
3511 3431 1
3511 3512 2
3511 3591 5
3511 3510 3
3512 3432 3
3512 3513 5
3512 3592 5
3512 3511 5
3513 3433 2
3513 3514 1
3513 3593 3
3513 3512 5
3514 3434 4
3514 3515 2
3514 3594 4
3514 3513 3
3515 3435 2
3515 3516 3
3515 3595 5
3515 3514 1
3516 3436 5
3516 3517 4
3516 3596 2
3516 3515 3
3517 3437 3
3517 3518 1
3517 3597 4
3517 3516 2
3518 3438 1
3518 3519 4
3518 3598 2
3518 3517 3
3519 3439 3
3519 3599 4
3519 3518 5
3520 3440 3
3520 3521 1
3520 3600 2
3521 3441 2
3521 3522 1
3521 3601 3
3521 3520 2
3522 3442 1
3522 3523 5
3522 3602 3
3522 3521 5
3523 3443 4
3523 3524 5
3523 3603 4
3523 3522 5
3524 3444 3
3524 3525 5
3524 3604 4
3524 3523 4
3525 3445 5
3525 3526 1
3525 3605 3
3525 3524 3
3526 3446 3
3526 3527 3
3526 3606 4
3526 3525 2
3527 3447 4
3527 3528 4
3527 3607 2
3527 3526 5
3528 3448 2
3528 3529 4
3528 3608 3
3528 3527 4
3529 3449 1
3529 3530 5
3529 3609 1
3529 3528 4
3530 3450 5
3530 3531 3
3530 3610 1
3530 3529 2
3531 3451 5
3531 3532 3
3531 3611 3
3531 3530 3
3532 3452 3
3532 3533 4
3532 3612 4
3532 3531 1
3533 3453 2
3533 3534 5
3533 3613 5
3533 3532 2
3534 3454 5
3534 3535 3
3534 3614 5
3534 3533 4
3535 3455 4
3535 3536 1
3535 3615 3
3535 3534 5
3536 3456 4
3536 3537 2
3536 3616 4
3536 3535 5
3537 3457 2
3537 3538 4
3537 3617 5
3537 3536 1
3538 3458 1
3538 3539 4
3538 3618 2
3538 3537 2
3539 3459 1
3539 3540 5
3539 3619 3
3539 3538 2
3540 3460 2
3540 3541 4
3540 3620 5
3540 3539 4
3541 3461 3
3541 3542 2
3541 3621 4
3541 3540 5
3542 3462 3
3542 3543 3
3542 3622 3
3542 3541 1
3543 3463 3
3543 3544 5
3543 3623 5
3543 3542 5
3544 3464 4
3544 3545 2
3544 3624 4
3544 3543 4
3545 3465 4
3545 3546 3
3545 3625 4
3545 3544 2
3546 3466 2
3546 3547 4
3546 3626 3
3546 3545 1
3547 3467 5
3547 3548 3
3547 3627 4
3547 3546 2
3548 3468 1
3548 3549 4
3548 3628 5
3548 3547 4
3549 3469 4
3549 3550 4
3549 3629 2
3549 3548 1
3550 3470 5
3550 3551 2
3550 3630 2
3550 3549 5
3551 3471 5
3551 3552 5
3551 3631 1
3551 3550 5
3552 3472 5
3552 3553 4
3552 3632 1
3552 3551 3
3553 3473 5
3553 3554 2
3553 3633 2
3553 3552 5
3554 3474 4
3554 3555 1
3554 3634 3
3554 3553 1
3555 3475 5
3555 3556 4
3555 3635 5
3555 3554 5
3556 3476 2
3556 3557 2
3556 3636 4
3556 3555 3
3557 3477 2
3557 3558 2
3557 3637 4
3557 3556 2
3558 3478 3
3558 3559 2
3558 3638 3
3558 3557 1
3559 3479 1
3559 3560 2
3559 3639 5
3559 3558 4
3560 3480 4
3560 3561 2
3560 3640 5
3560 3559 4
3561 3481 2
3561 3562 2
3561 3641 4
3561 3560 5
3562 3482 1
3562 3563 5
3562 3642 3
3562 3561 2
3563 3483 2
3563 3564 4
3563 3643 1
3563 3562 1
3564 3484 1
3564 3565 4
3564 3644 5
3564 3563 4
3565 3485 4
3565 3566 1
3565 3645 4
3565 3564 3
3566 3486 5
3566 3567 1
3566 3646 5
3566 3565 5
3567 3487 1
3567 3568 4
3567 3647 4
3567 3566 1
3568 3488 3
3568 3569 4
3568 3648 1
3568 3567 3
3569 3489 4
3569 3570 5
3569 3649 4
3569 3568 4
3570 3490 1
3570 3571 1
3570 3650 2
3570 3569 3
3571 3491 5
3571 3572 1
3571 3651 2
3571 3570 3
3572 3492 4
3572 3573 3
3572 3652 2
3572 3571 2
3573 3493 4
3573 3574 2
3573 3653 3
3573 3572 1
3574 3494 3
3574 3575 1
3574 3654 4
3574 3573 4
3575 3495 2
3575 3576 3
3575 3655 3
3575 3574 3
3576 3496 4
3576 3577 3
3576 3656 4
3576 3575 3
3577 3497 5
3577 3578 3
3577 3657 5
3577 3576 1
3578 3498 2
3578 3579 2
3578 3658 5
3578 3577 3
3579 3499 1
3579 3580 2
3579 3659 3
3579 3578 5
3580 3500 3
3580 3581 3
3580 3660 3
3580 3579 2
3581 3501 5
3581 3582 3
3581 3661 4
3581 3580 4
3582 3502 3
3582 3583 2
3582 3662 2
3582 3581 2
3583 3503 5
3583 3584 3
3583 3663 4
3583 3582 3
3584 3504 2
3584 3585 1
3584 3664 2
3584 3583 5
3585 3505 3
3585 3586 2
3585 3665 5
3585 3584 1
3586 3506 3
3586 3587 3
3586 3666 5
3586 3585 5
3587 3507 4
3587 3588 4
3587 3667 5
3587 3586 2
3588 3508 3
3588 3589 2
3588 3668 5
3588 3587 5
3589 3509 3
3589 3590 5
3589 3669 3
3589 3588 4
3590 3510 4
3590 3591 2
3590 3670 5
3590 3589 4
3591 3511 2
3591 3592 4
3591 3671 4
3591 3590 1
3592 3512 1
3592 3593 3
3592 3672 2
3592 3591 3
3593 3513 2
3593 3594 2
3593 3673 2
3593 3592 3
3594 3514 5
3594 3595 1
3594 3674 2
3594 3593 3
3595 3515 4
3595 3596 4
3595 3675 5
3595 3594 1
3596 3516 5
3596 3597 2
3596 3676 2
3596 3595 3
3597 3517 1
3597 3598 4
3597 3677 1
3597 3596 3
3598 3518 5
3598 3599 1
3598 3678 3
3598 3597 5
3599 3519 5
3599 3679 5
3599 3598 1
3600 3520 1
3600 3601 4
3600 3680 5
3601 3521 5
3601 3602 2
3601 3681 2
3601 3600 3
3602 3522 2
3602 3603 2
3602 3682 2
3602 3601 4
3603 3523 2
3603 3604 1
3603 3683 5
3603 3602 3
3604 3524 5
3604 3605 3
3604 3684 1
3604 3603 2
3605 3525 1
3605 3606 2
3605 3685 5
3605 3604 3
3606 3526 1
3606 3607 2
3606 3686 2
3606 3605 2
3607 3527 5
3607 3608 5
3607 3687 4
3607 3606 4
3608 3528 1
3608 3609 5
3608 3688 1
3608 3607 3
3609 3529 1
3609 3610 2
3609 3689 4
3609 3608 1
3610 3530 4
3610 3611 1
3610 3690 4
3610 3609 2
3611 3531 1
3611 3612 5
3611 3691 5
3611 3610 2
3612 3532 5
3612 3613 4
3612 3692 3
3612 3611 5
3613 3533 1
3613 3614 5
3613 3693 4
3613 3612 1
3614 3534 4
3614 3615 2
3614 3694 5
3614 3613 5
3615 3535 4
3615 3616 1
3615 3695 3
3615 3614 4
3616 3536 5
3616 3617 3
3616 3696 4
3616 3615 2
3617 3537 3
3617 3618 5
3617 3697 4
3617 3616 5
3618 3538 3
3618 3619 3
3618 3698 3
3618 3617 5
3619 3539 2
3619 3620 3
3619 3699 3
3619 3618 5
3620 3540 5
3620 3621 3
3620 3700 4
3620 3619 1
3621 3541 2
3621 3622 4
3621 3701 1
3621 3620 3
3622 3542 5
3622 3623 4
3622 3702 4
3622 3621 2
3623 3543 2
3623 3624 1
3623 3703 4
3623 3622 3
3624 3544 1
3624 3625 4
3624 3704 3
3624 3623 5
3625 3545 2
3625 3626 2
3625 3705 1
3625 3624 2
3626 3546 2
3626 3627 3
3626 3706 5
3626 3625 3
3627 3547 3
3627 3628 5
3627 3707 4
3627 3626 1
3628 3548 3
3628 3629 5
3628 3708 2
3628 3627 5
3629 3549 2
3629 3630 3
3629 3709 2
3629 3628 2
3630 3550 4
3630 3631 2
3630 3710 2
3630 3629 5
3631 3551 2
3631 3632 3
3631 3711 5
3631 3630 4
3632 3552 5
3632 3633 4
3632 3712 3
3632 3631 2
3633 3553 3
3633 3634 4
3633 3713 3
3633 3632 3
3634 3554 2
3634 3635 3
3634 3714 3
3634 3633 3
3635 3555 3
3635 3636 4
3635 3715 3
3635 3634 4
3636 3556 5
3636 3637 4
3636 3716 4
3636 3635 1
3637 3557 4
3637 3638 1
3637 3717 4
3637 3636 3
3638 3558 2
3638 3639 4
3638 3718 3
3638 3637 1
3639 3559 2
3639 3640 2
3639 3719 3
3639 3638 3
3640 3560 3
3640 3641 1
3640 3720 3
3640 3639 4
3641 3561 4
3641 3642 3
3641 3721 5
3641 3640 5
3642 3562 2
3642 3643 2
3642 3722 5
3642 3641 5
3643 3563 4
3643 3644 3
3643 3723 1
3643 3642 1
3644 3564 2
3644 3645 2
3644 3724 3
3644 3643 4
3645 3565 5
3645 3646 4
3645 3725 1
3645 3644 4
3646 3566 4
3646 3647 2
3646 3726 3
3646 3645 5
3647 3567 5
3647 3648 4
3647 3727 1
3647 3646 1
3648 3568 1
3648 3649 3
3648 3728 3
3648 3647 5
3649 3569 3
3649 3650 4
3649 3729 3
3649 3648 1
3650 3570 4
3650 3651 2
3650 3730 1
3650 3649 3
3651 3571 4
3651 3652 2
3651 3731 2
3651 3650 5
3652 3572 3
3652 3653 5
3652 3732 2
3652 3651 5
3653 3573 1
3653 3654 4
3653 3733 2
3653 3652 3
3654 3574 5
3654 3655 5
3654 3734 3
3654 3653 5
3655 3575 5
3655 3656 3
3655 3735 1
3655 3654 2
3656 3576 1
3656 3657 3
3656 3736 3
3656 3655 4
3657 3577 2
3657 3658 2
3657 3737 3
3657 3656 4
3658 3578 2
3658 3659 4
3658 3738 3
3658 3657 3
3659 3579 2
3659 3660 3
3659 3739 3
3659 3658 5
3660 3580 1
3660 3661 2
3660 3740 1
3660 3659 4
3661 3581 4
3661 3662 4
3661 3741 4
3661 3660 1
3662 3582 5
3662 3663 1
3662 3742 5
3662 3661 3
3663 3583 1
3663 3664 5
3663 3743 4
3663 3662 1
3664 3584 5
3664 3665 3
3664 3744 5
3664 3663 4
3665 3585 3
3665 3666 5
3665 3745 3
3665 3664 1
3666 3586 1
3666 3667 5
3666 3746 1
3666 3665 5
3667 3587 1
3667 3668 5
3667 3747 2
3667 3666 5
3668 3588 1
3668 3669 5
3668 3748 4
3668 3667 5
3669 3589 2
3669 3670 1
3669 3749 4
3669 3668 3
3670 3590 4
3670 3671 4
3670 3750 2
3670 3669 3
3671 3591 1
3671 3672 2
3671 3751 5
3671 3670 3
3672 3592 4
3672 3673 5
3672 3752 4
3672 3671 1
3673 3593 4
3673 3674 5
3673 3753 3
3673 3672 1
3674 3594 5
3674 3675 4
3674 3754 1
3674 3673 1
3675 3595 2
3675 3676 3
3675 3755 4
3675 3674 2
3676 3596 3
3676 3677 2
3676 3756 5
3676 3675 3
3677 3597 5
3677 3678 4
3677 3757 2
3677 3676 5
3678 3598 3
3678 3679 5
3678 3758 2
3678 3677 2
3679 3599 2
3679 3759 2
3679 3678 3
3680 3600 2
3680 3681 1
3680 3760 1
3681 3601 5
3681 3682 5
3681 3761 1
3681 3680 2
3682 3602 5
3682 3683 3
3682 3762 1
3682 3681 3
3683 3603 3
3683 3684 2
3683 3763 2
3683 3682 2
3684 3604 3
3684 3685 2
3684 3764 4
3684 3683 3
3685 3605 2
3685 3686 2
3685 3765 3
3685 3684 1
3686 3606 2
3686 3687 4
3686 3766 1
3686 3685 4
3687 3607 1
3687 3688 4
3687 3767 2
3687 3686 4
3688 3608 1
3688 3689 4
3688 3768 4
3688 3687 4
3689 3609 2
3689 3690 2
3689 3769 4
3689 3688 5
3690 3610 1
3690 3691 1
3690 3770 2
3690 3689 5
3691 3611 5
3691 3692 5
3691 3771 1
3691 3690 2
3692 3612 2
3692 3693 1
3692 3772 4
3692 3691 5
3693 3613 3
3693 3694 3
3693 3773 4
3693 3692 2
3694 3614 2
3694 3695 1
3694 3774 5
3694 3693 3
3695 3615 4
3695 3696 3
3695 3775 5
3695 3694 1
3696 3616 4
3696 3697 1
3696 3776 1
3696 3695 4
3697 3617 4
3697 3698 4
3697 3777 1
3697 3696 3
3698 3618 3
3698 3699 3
3698 3778 1
3698 3697 4
3699 3619 3
3699 3700 2
3699 3779 1
3699 3698 4
3700 3620 4
3700 3701 1
3700 3780 3
3700 3699 3
3701 3621 1
3701 3702 2
3701 3781 2
3701 3700 2
3702 3622 5
3702 3703 1
3702 3782 2
3702 3701 5
3703 3623 2
3703 3704 2
3703 3783 4
3703 3702 1
3704 3624 1
3704 3705 5
3704 3784 2
3704 3703 3
3705 3625 3
3705 3706 5
3705 3785 4
3705 3704 2
3706 3626 4
3706 3707 2
3706 3786 2
3706 3705 5
3707 3627 2
3707 3708 2
3707 3787 3
3707 3706 1
3708 3628 2
3708 3709 1
3708 3788 4
3708 3707 2
3709 3629 3
3709 3710 4
3709 3789 3
3709 3708 3
3710 3630 5
3710 3711 3
3710 3790 1
3710 3709 1
3711 3631 3
3711 3712 1
3711 3791 4
3711 3710 1
3712 3632 2
3712 3713 4
3712 3792 1
3712 3711 5
3713 3633 4
3713 3714 5
3713 3793 5
3713 3712 2
3714 3634 2
3714 3715 1
3714 3794 1
3714 3713 3
3715 3635 2
3715 3716 1
3715 3795 4
3715 3714 1
3716 3636 1
3716 3717 4
3716 3796 4
3716 3715 4
3717 3637 5
3717 3718 4
3717 3797 2
3717 3716 5
3718 3638 1
3718 3719 3
3718 3798 4
3718 3717 4
3719 3639 3
3719 3720 2
3719 3799 3
3719 3718 5
3720 3640 3
3720 3721 5
3720 3800 1
3720 3719 4
3721 3641 4
3721 3722 5
3721 3801 2
3721 3720 2
3722 3642 2
3722 3723 5
3722 3802 2
3722 3721 2
3723 3643 2
3723 3724 1
3723 3803 1
3723 3722 4
3724 3644 3
3724 3725 5
3724 3804 1
3724 3723 2
3725 3645 2
3725 3726 3
3725 3805 2
3725 3724 3
3726 3646 3
3726 3727 4
3726 3806 5
3726 3725 5
3727 3647 5
3727 3728 5
3727 3807 3
3727 3726 2
3728 3648 3
3728 3729 4
3728 3808 3
3728 3727 2
3729 3649 5
3729 3730 1
3729 3809 4
3729 3728 1
3730 3650 2
3730 3731 2
3730 3810 1
3730 3729 2
3731 3651 1
3731 3732 2
3731 3811 2
3731 3730 4
3732 3652 3
3732 3733 1
3732 3812 5
3732 3731 4
3733 3653 4
3733 3734 3
3733 3813 2
3733 3732 5
3734 3654 4
3734 3735 4
3734 3814 2
3734 3733 4
3735 3655 5
3735 3736 3
3735 3815 5
3735 3734 4
3736 3656 1
3736 3737 3
3736 3816 5
3736 3735 3
3737 3657 3
3737 3738 2
3737 3817 3
3737 3736 3
3738 3658 4
3738 3739 5
3738 3818 4
3738 3737 1
3739 3659 3
3739 3740 5
3739 3819 3
3739 3738 1
3740 3660 3
3740 3741 4
3740 3820 1
3740 3739 5
3741 3661 2
3741 3742 1
3741 3821 2
3741 3740 4
3742 3662 1
3742 3743 1
3742 3822 5
3742 3741 3
3743 3663 2
3743 3744 3
3743 3823 3
3743 3742 4
3744 3664 4
3744 3745 5
3744 3824 1
3744 3743 5
3745 3665 2
3745 3746 4
3745 3825 5
3745 3744 2
3746 3666 2
3746 3747 2
3746 3826 1
3746 3745 2
3747 3667 3
3747 3748 5
3747 3827 5
3747 3746 2
3748 3668 5
3748 3749 5
3748 3828 5
3748 3747 1
3749 3669 5
3749 3750 3
3749 3829 5
3749 3748 2
3750 3670 5
3750 3751 2
3750 3830 3
3750 3749 2
3751 3671 1
3751 3752 2
3751 3831 5
3751 3750 2
3752 3672 2
3752 3753 5
3752 3832 5
3752 3751 4
3753 3673 2
3753 3754 3
3753 3833 1
3753 3752 4
3754 3674 3
3754 3755 4
3754 3834 5
3754 3753 4
3755 3675 4
3755 3756 4
3755 3835 3
3755 3754 2
3756 3676 3
3756 3757 1
3756 3836 1
3756 3755 3
3757 3677 5
3757 3758 3
3757 3837 2
3757 3756 5
3758 3678 5
3758 3759 1
3758 3838 1
3758 3757 4
3759 3679 2
3759 3839 2
3759 3758 4
3760 3680 2
3760 3761 2
3760 3840 4
3761 3681 2
3761 3762 4
3761 3841 4
3761 3760 5
3762 3682 2
3762 3763 2
3762 3842 3
3762 3761 1
3763 3683 2
3763 3764 3
3763 3843 2
3763 3762 4
3764 3684 1
3764 3765 5
3764 3844 2
3764 3763 2
3765 3685 4
3765 3766 2
3765 3845 3
3765 3764 3
3766 3686 1
3766 3767 1
3766 3846 5
3766 3765 3
3767 3687 5
3767 3768 1
3767 3847 5
3767 3766 4
3768 3688 2
3768 3769 4
3768 3848 3
3768 3767 1
3769 3689 5
3769 3770 5
3769 3849 4
3769 3768 2
3770 3690 1
3770 3771 3
3770 3850 3
3770 3769 1
3771 3691 4
3771 3772 3
3771 3851 1
3771 3770 4
3772 3692 4
3772 3773 5
3772 3852 2
3772 3771 4
3773 3693 3
3773 3774 2
3773 3853 5
3773 3772 1
3774 3694 1
3774 3775 5
3774 3854 5
3774 3773 3
3775 3695 2
3775 3776 4
3775 3855 4
3775 3774 4
3776 3696 1
3776 3777 1
3776 3856 3
3776 3775 3
3777 3697 3
3777 3778 5
3777 3857 3
3777 3776 4
3778 3698 3
3778 3779 3
3778 3858 1
3778 3777 1
3779 3699 1
3779 3780 4
3779 3859 2
3779 3778 5
3780 3700 4
3780 3781 2
3780 3860 5
3780 3779 4
3781 3701 3
3781 3782 1
3781 3861 4
3781 3780 5
3782 3702 5
3782 3783 5
3782 3862 4
3782 3781 5
3783 3703 5
3783 3784 4
3783 3863 1
3783 3782 5
3784 3704 1
3784 3785 5
3784 3864 1
3784 3783 5
3785 3705 1
3785 3786 1
3785 3865 2
3785 3784 3
3786 3706 5
3786 3787 5
3786 3866 4
3786 3785 4
3787 3707 1
3787 3788 3
3787 3867 4
3787 3786 4
3788 3708 5
3788 3789 5
3788 3868 1
3788 3787 4
3789 3709 4
3789 3790 1
3789 3869 2
3789 3788 5
3790 3710 2
3790 3791 1
3790 3870 3
3790 3789 1
3791 3711 3
3791 3792 4
3791 3871 1
3791 3790 4
3792 3712 3
3792 3793 3
3792 3872 3
3792 3791 3
3793 3713 2
3793 3794 3
3793 3873 4
3793 3792 1
3794 3714 3
3794 3795 4
3794 3874 3
3794 3793 2
3795 3715 2
3795 3796 5
3795 3875 5
3795 3794 3
3796 3716 4
3796 3797 3
3796 3876 2
3796 3795 4
3797 3717 1
3797 3798 3
3797 3877 3
3797 3796 5
3798 3718 5
3798 3799 2
3798 3878 3
3798 3797 3
3799 3719 1
3799 3800 1
3799 3879 4
3799 3798 3
3800 3720 5
3800 3801 4
3800 3880 2
3800 3799 4
3801 3721 2
3801 3802 3
3801 3881 4
3801 3800 3
3802 3722 3
3802 3803 4
3802 3882 3
3802 3801 2
3803 3723 2
3803 3804 3
3803 3883 1
3803 3802 1
3804 3724 2
3804 3805 5
3804 3884 3
3804 3803 5
3805 3725 5
3805 3806 3
3805 3885 5
3805 3804 5
3806 3726 2
3806 3807 4
3806 3886 5
3806 3805 1
3807 3727 2
3807 3808 1
3807 3887 1
3807 3806 5
3808 3728 4
3808 3809 3
3808 3888 2
3808 3807 3
3809 3729 5
3809 3810 3
3809 3889 4
3809 3808 2
3810 3730 4
3810 3811 1
3810 3890 3
3810 3809 5
3811 3731 5
3811 3812 1
3811 3891 3
3811 3810 2
3812 3732 4
3812 3813 1
3812 3892 2
3812 3811 5
3813 3733 2
3813 3814 3
3813 3893 1
3813 3812 4
3814 3734 2
3814 3815 2
3814 3894 2
3814 3813 2
3815 3735 4
3815 3816 2
3815 3895 2
3815 3814 1
3816 3736 3
3816 3817 2
3816 3896 1
3816 3815 5
3817 3737 4
3817 3818 4
3817 3897 4
3817 3816 5
3818 3738 5
3818 3819 5
3818 3898 2
3818 3817 4
3819 3739 2
3819 3820 5
3819 3899 5
3819 3818 4
3820 3740 5
3820 3821 4
3820 3900 3
3820 3819 3
3821 3741 3
3821 3822 4
3821 3901 3
3821 3820 3
3822 3742 2
3822 3823 3
3822 3902 5
3822 3821 3
3823 3743 1
3823 3824 2
3823 3903 3
3823 3822 2
3824 3744 5
3824 3825 5
3824 3904 2
3824 3823 1
3825 3745 5
3825 3826 4
3825 3905 5
3825 3824 3
3826 3746 1
3826 3827 5
3826 3906 2
3826 3825 3
3827 3747 5
3827 3828 2
3827 3907 4
3827 3826 3
3828 3748 5
3828 3829 1
3828 3908 4
3828 3827 5
3829 3749 4
3829 3830 4
3829 3909 5
3829 3828 4
3830 3750 1
3830 3831 2
3830 3910 1
3830 3829 5
3831 3751 4
3831 3832 5
3831 3911 1
3831 3830 3
3832 3752 4
3832 3833 2
3832 3912 1
3832 3831 3
3833 3753 1
3833 3834 3
3833 3913 5
3833 3832 3
3834 3754 1
3834 3835 5
3834 3914 4
3834 3833 4
3835 3755 2
3835 3836 4
3835 3915 2
3835 3834 4
3836 3756 3
3836 3837 5
3836 3916 3
3836 3835 3
3837 3757 2
3837 3838 5
3837 3917 5
3837 3836 4
3838 3758 2
3838 3839 5
3838 3918 5
3838 3837 3
3839 3759 1
3839 3919 5
3839 3838 1
3840 3760 3
3840 3841 5
3840 3920 1
3841 3761 1
3841 3842 5
3841 3921 1
3841 3840 5
3842 3762 4
3842 3843 2
3842 3922 2
3842 3841 2
3843 3763 5
3843 3844 2
3843 3923 2
3843 3842 1
3844 3764 4
3844 3845 1
3844 3924 3
3844 3843 1
3845 3765 1
3845 3846 4
3845 3925 5
3845 3844 4
3846 3766 4
3846 3847 4
3846 3926 4
3846 3845 2
3847 3767 3
3847 3848 2
3847 3927 1
3847 3846 3
3848 3768 3
3848 3849 2
3848 3928 4
3848 3847 3
3849 3769 4
3849 3850 1
3849 3929 2
3849 3848 3
3850 3770 4
3850 3851 2
3850 3930 2
3850 3849 3
3851 3771 1
3851 3852 3
3851 3931 4
3851 3850 1
3852 3772 5
3852 3853 3
3852 3932 1
3852 3851 5
3853 3773 1
3853 3854 5
3853 3933 1
3853 3852 3
3854 3774 1
3854 3855 2
3854 3934 1
3854 3853 5
3855 3775 1
3855 3856 1
3855 3935 3
3855 3854 4
3856 3776 3
3856 3857 1
3856 3936 5
3856 3855 5
3857 3777 3
3857 3858 1
3857 3937 2
3857 3856 2
3858 3778 5
3858 3859 4
3858 3938 2
3858 3857 5
3859 3779 2
3859 3860 3
3859 3939 1
3859 3858 2
3860 3780 5
3860 3861 3
3860 3940 5
3860 3859 2
3861 3781 4
3861 3862 2
3861 3941 5
3861 3860 2
3862 3782 4
3862 3863 1
3862 3942 5
3862 3861 1
3863 3783 5
3863 3864 1
3863 3943 3
3863 3862 3
3864 3784 1
3864 3865 3
3864 3944 2
3864 3863 5
3865 3785 5
3865 3866 2
3865 3945 1
3865 3864 4
3866 3786 2
3866 3867 5
3866 3946 2
3866 3865 5
3867 3787 3
3867 3868 4
3867 3947 5
3867 3866 4
3868 3788 4
3868 3869 1
3868 3948 5
3868 3867 1
3869 3789 3
3869 3870 2
3869 3949 3
3869 3868 2
3870 3790 2
3870 3871 4
3870 3950 2
3870 3869 4
3871 3791 1
3871 3872 3
3871 3951 1
3871 3870 4
3872 3792 5
3872 3873 1
3872 3952 5
3872 3871 1
3873 3793 3
3873 3874 5
3873 3953 5
3873 3872 5
3874 3794 5
3874 3875 5
3874 3954 4
3874 3873 5
3875 3795 2
3875 3876 3
3875 3955 3
3875 3874 2
3876 3796 4
3876 3877 2
3876 3956 3
3876 3875 4
3877 3797 4
3877 3878 4
3877 3957 4
3877 3876 1
3878 3798 4
3878 3879 1
3878 3958 4
3878 3877 1
3879 3799 3
3879 3880 5
3879 3959 4
3879 3878 5
3880 3800 4
3880 3881 3
3880 3960 4
3880 3879 3
3881 3801 1
3881 3882 5
3881 3961 1
3881 3880 2
3882 3802 1
3882 3883 3
3882 3962 5
3882 3881 5
3883 3803 5
3883 3884 2
3883 3963 3
3883 3882 1
3884 3804 5
3884 3885 1
3884 3964 1
3884 3883 3
3885 3805 4
3885 3886 2
3885 3965 3
3885 3884 5
3886 3806 1
3886 3887 4
3886 3966 5
3886 3885 5
3887 3807 2
3887 3888 5
3887 3967 3
3887 3886 1
3888 3808 2
3888 3889 1
3888 3968 4
3888 3887 2
3889 3809 2
3889 3890 3
3889 3969 1
3889 3888 2
3890 3810 4
3890 3891 2
3890 3970 5
3890 3889 5
3891 3811 1
3891 3892 1
3891 3971 4
3891 3890 2
3892 3812 1
3892 3893 3
3892 3972 1
3892 3891 2
3893 3813 3
3893 3894 2
3893 3973 4
3893 3892 2
3894 3814 3
3894 3895 4
3894 3974 1
3894 3893 2
3895 3815 2
3895 3896 5
3895 3975 2
3895 3894 5
3896 3816 3
3896 3897 4
3896 3976 5
3896 3895 3
3897 3817 2
3897 3898 3
3897 3977 4
3897 3896 1
3898 3818 4
3898 3899 4
3898 3978 4
3898 3897 3
3899 3819 2
3899 3900 4
3899 3979 3
3899 3898 5
3900 3820 1
3900 3901 4
3900 3980 1
3900 3899 4
3901 3821 2
3901 3902 2
3901 3981 1
3901 3900 1
3902 3822 1
3902 3903 2
3902 3982 4
3902 3901 1
3903 3823 2
3903 3904 5
3903 3983 3
3903 3902 2
3904 3824 3
3904 3905 4
3904 3984 3
3904 3903 5
3905 3825 3
3905 3906 3
3905 3985 5
3905 3904 3
3906 3826 1
3906 3907 1
3906 3986 4
3906 3905 2
3907 3827 1
3907 3908 5
3907 3987 4
3907 3906 2
3908 3828 2
3908 3909 5
3908 3988 1
3908 3907 4
3909 3829 4
3909 3910 1
3909 3989 1
3909 3908 2
3910 3830 1
3910 3911 4
3910 3990 2
3910 3909 1
3911 3831 1
3911 3912 2
3911 3991 4
3911 3910 5
3912 3832 3
3912 3913 4
3912 3992 2
3912 3911 4
3913 3833 5
3913 3914 1
3913 3993 5
3913 3912 2
3914 3834 2
3914 3915 3
3914 3994 1
3914 3913 5
3915 3835 1
3915 3916 2
3915 3995 3
3915 3914 3
3916 3836 2
3916 3917 3
3916 3996 4
3916 3915 2
3917 3837 1
3917 3918 4
3917 3997 4
3917 3916 2
3918 3838 3
3918 3919 5
3918 3998 1
3918 3917 2
3919 3839 2
3919 3999 2
3919 3918 3
3920 3840 4
3920 3921 1
3920 4000 4
3921 3841 1
3921 3922 2
3921 4001 5
3921 3920 5
3922 3842 3
3922 3923 5
3922 4002 2
3922 3921 2
3923 3843 5
3923 3924 3
3923 4003 1
3923 3922 1
3924 3844 1
3924 3925 4
3924 4004 5
3924 3923 5
3925 3845 1
3925 3926 5
3925 4005 2
3925 3924 3
3926 3846 3
3926 3927 1
3926 4006 2
3926 3925 1
3927 3847 2
3927 3928 1
3927 4007 4
3927 3926 1
3928 3848 5
3928 3929 1
3928 4008 4
3928 3927 5
3929 3849 1
3929 3930 2
3929 4009 1
3929 3928 5
3930 3850 5
3930 3931 1
3930 4010 1
3930 3929 4
3931 3851 5
3931 3932 4
3931 4011 3
3931 3930 5
3932 3852 4
3932 3933 4
3932 4012 2
3932 3931 4
3933 3853 5
3933 3934 3
3933 4013 3
3933 3932 4
3934 3854 4
3934 3935 2
3934 4014 4
3934 3933 5
3935 3855 3
3935 3936 2
3935 4015 2
3935 3934 3
3936 3856 2
3936 3937 4
3936 4016 3
3936 3935 2
3937 3857 3
3937 3938 1
3937 4017 4
3937 3936 3
3938 3858 2
3938 3939 1
3938 4018 4
3938 3937 4
3939 3859 5
3939 3940 2
3939 4019 4
3939 3938 2
3940 3860 3
3940 3941 2
3940 4020 4
3940 3939 4
3941 3861 4
3941 3942 4
3941 4021 4
3941 3940 4
3942 3862 4
3942 3943 4
3942 4022 3
3942 3941 3
3943 3863 3
3943 3944 4
3943 4023 2
3943 3942 5
3944 3864 2
3944 3945 2
3944 4024 2
3944 3943 2
3945 3865 5
3945 3946 2
3945 4025 5
3945 3944 3
3946 3866 4
3946 3947 5
3946 4026 4
3946 3945 3
3947 3867 3
3947 3948 2
3947 4027 4
3947 3946 2
3948 3868 4
3948 3949 1
3948 4028 5
3948 3947 4
3949 3869 3
3949 3950 5
3949 4029 4
3949 3948 1
3950 3870 2
3950 3951 2
3950 4030 3
3950 3949 5
3951 3871 2
3951 3952 4
3951 4031 5
3951 3950 4
3952 3872 2
3952 3953 4
3952 4032 1
3952 3951 2
3953 3873 4
3953 3954 5
3953 4033 2
3953 3952 3
3954 3874 5
3954 3955 2
3954 4034 4
3954 3953 5
3955 3875 2
3955 3956 2
3955 4035 4
3955 3954 3
3956 3876 4
3956 3957 2
3956 4036 2
3956 3955 4
3957 3877 3
3957 3958 5
3957 4037 5
3957 3956 5
3958 3878 1
3958 3959 1
3958 4038 1
3958 3957 1
3959 3879 1
3959 3960 1
3959 4039 1
3959 3958 3
3960 3880 1
3960 3961 3
3960 4040 3
3960 3959 2
3961 3881 2
3961 3962 2
3961 4041 3
3961 3960 1
3962 3882 3
3962 3963 5
3962 4042 3
3962 3961 5
3963 3883 4
3963 3964 4
3963 4043 3
3963 3962 2
3964 3884 3
3964 3965 3
3964 4044 1
3964 3963 5
3965 3885 2
3965 3966 2
3965 4045 2
3965 3964 4
3966 3886 1
3966 3967 5
3966 4046 5
3966 3965 4
3967 3887 2
3967 3968 5
3967 4047 5
3967 3966 4
3968 3888 3
3968 3969 2
3968 4048 1
3968 3967 2
3969 3889 4
3969 3970 1
3969 4049 1
3969 3968 2
3970 3890 4
3970 3971 4
3970 4050 4
3970 3969 4
3971 3891 2
3971 3972 1
3971 4051 5
3971 3970 3
3972 3892 4
3972 3973 5
3972 4052 5
3972 3971 2
3973 3893 4
3973 3974 1
3973 4053 4
3973 3972 5
3974 3894 3
3974 3975 3
3974 4054 1
3974 3973 3
3975 3895 1
3975 3976 2
3975 4055 2
3975 3974 5
3976 3896 3
3976 3977 4
3976 4056 2
3976 3975 1
3977 3897 2
3977 3978 3
3977 4057 3
3977 3976 1
3978 3898 3
3978 3979 5
3978 4058 4
3978 3977 1
3979 3899 5
3979 3980 5
3979 4059 4
3979 3978 2
3980 3900 3
3980 3981 3
3980 4060 2
3980 3979 5
3981 3901 3
3981 3982 5
3981 4061 1
3981 3980 4
3982 3902 3
3982 3983 2
3982 4062 1
3982 3981 2
3983 3903 3
3983 3984 3
3983 4063 4
3983 3982 4
3984 3904 3
3984 3985 1
3984 4064 3
3984 3983 4
3985 3905 1
3985 3986 3
3985 4065 5
3985 3984 1
3986 3906 2
3986 3987 5
3986 4066 1
3986 3985 5
3987 3907 1
3987 3988 3
3987 4067 4
3987 3986 2
3988 3908 4
3988 3989 4
3988 4068 4
3988 3987 1
3989 3909 3
3989 3990 4
3989 4069 3
3989 3988 3
3990 3910 5
3990 3991 4
3990 4070 4
3990 3989 3
3991 3911 2
3991 3992 3
3991 4071 3
3991 3990 5
3992 3912 2
3992 3993 4
3992 4072 3
3992 3991 3
3993 3913 1
3993 3994 4
3993 4073 1
3993 3992 3
3994 3914 5
3994 3995 1
3994 4074 1
3994 3993 2
3995 3915 1
3995 3996 2
3995 4075 1
3995 3994 2
3996 3916 3
3996 3997 1
3996 4076 2
3996 3995 5
3997 3917 2
3997 3998 1
3997 4077 1
3997 3996 1
3998 3918 1
3998 3999 3
3998 4078 5
3998 3997 1
3999 3919 2
3999 4079 5
3999 3998 4
4000 3920 3
4000 4001 1
4000 4080 5
4001 3921 1
4001 4002 1
4001 4081 2
4001 4000 2
4002 3922 1
4002 4003 2
4002 4082 1
4002 4001 1
4003 3923 1
4003 4004 4
4003 4083 2
4003 4002 2
4004 3924 1
4004 4005 1
4004 4084 4
4004 4003 3
4005 3925 5
4005 4006 2
4005 4085 4
4005 4004 2
4006 3926 4
4006 4007 5
4006 4086 2
4006 4005 4
4007 3927 3
4007 4008 5
4007 4087 1
4007 4006 4
4008 3928 2
4008 4009 5
4008 4088 1
4008 4007 1
4009 3929 2
4009 4010 2
4009 4089 3
4009 4008 2
4010 3930 5
4010 4011 5
4010 4090 2
4010 4009 1
4011 3931 1
4011 4012 2
4011 4091 2
4011 4010 3
4012 3932 2
4012 4013 2
4012 4092 4
4012 4011 5
4013 3933 3
4013 4014 5
4013 4093 4
4013 4012 5
4014 3934 3
4014 4015 2
4014 4094 4
4014 4013 3
4015 3935 3
4015 4016 2
4015 4095 5
4015 4014 1
4016 3936 3
4016 4017 3
4016 4096 2
4016 4015 1
4017 3937 1
4017 4018 1
4017 4097 4
4017 4016 3
4018 3938 1
4018 4019 5
4018 4098 4
4018 4017 1
4019 3939 4
4019 4020 1
4019 4099 1
4019 4018 3
4020 3940 5
4020 4021 3
4020 4100 5
4020 4019 1
4021 3941 5
4021 4022 3
4021 4101 3
4021 4020 4
4022 3942 3
4022 4023 4
4022 4102 3
4022 4021 4
4023 3943 3
4023 4024 4
4023 4103 3
4023 4022 5
4024 3944 2
4024 4025 2
4024 4104 5
4024 4023 2
4025 3945 1
4025 4026 3
4025 4105 4
4025 4024 4
4026 3946 4
4026 4027 3
4026 4106 4
4026 4025 4
4027 3947 4
4027 4028 4
4027 4107 2
4027 4026 2
4028 3948 4
4028 4029 4
4028 4108 1
4028 4027 2
4029 3949 3
4029 4030 4
4029 4109 2
4029 4028 4
4030 3950 3
4030 4031 1
4030 4110 4
4030 4029 2
4031 3951 2
4031 4032 5
4031 4111 2
4031 4030 2
4032 3952 1
4032 4033 1
4032 4112 4
4032 4031 4
4033 3953 2
4033 4034 3
4033 4113 3
4033 4032 2
4034 3954 1
4034 4035 4
4034 4114 4
4034 4033 2
4035 3955 3
4035 4036 5
4035 4115 3
4035 4034 2
4036 3956 2
4036 4037 4
4036 4116 5
4036 4035 4
4037 3957 4
4037 4038 4
4037 4117 2
4037 4036 4
4038 3958 1
4038 4039 3
4038 4118 1
4038 4037 1
4039 3959 3
4039 4040 4
4039 4119 5
4039 4038 3
4040 3960 2
4040 4041 2
4040 4120 5
4040 4039 4
4041 3961 2
4041 4042 4
4041 4121 4
4041 4040 1
4042 3962 3
4042 4043 2
4042 4122 3
4042 4041 3
4043 3963 5
4043 4044 4
4043 4123 5
4043 4042 1
4044 3964 5
4044 4045 2
4044 4124 5
4044 4043 3
4045 3965 3
4045 4046 3
4045 4125 2
4045 4044 3
4046 3966 5
4046 4047 4
4046 4126 1
4046 4045 1
4047 3967 4
4047 4048 3
4047 4127 4
4047 4046 2
4048 3968 2
4048 4049 3
4048 4128 2
4048 4047 3
4049 3969 4
4049 4050 3
4049 4129 5
4049 4048 3
4050 3970 5
4050 4051 3
4050 4130 2
4050 4049 2
4051 3971 3
4051 4052 5
4051 4131 2
4051 4050 5
4052 3972 5
4052 4053 2
4052 4132 2
4052 4051 4
4053 3973 5
4053 4054 4
4053 4133 1
4053 4052 3
4054 3974 5
4054 4055 1
4054 4134 4
4054 4053 2
4055 3975 5
4055 4056 3
4055 4135 1
4055 4054 5
4056 3976 4
4056 4057 4
4056 4136 5
4056 4055 3
4057 3977 1
4057 4058 4
4057 4137 4
4057 4056 2
4058 3978 3
4058 4059 2
4058 4138 3
4058 4057 1
4059 3979 4
4059 4060 2
4059 4139 2
4059 4058 1
4060 3980 3
4060 4061 3
4060 4140 5
4060 4059 4
4061 3981 5
4061 4062 2
4061 4141 3
4061 4060 3
4062 3982 4
4062 4063 3
4062 4142 5
4062 4061 5
4063 3983 2
4063 4064 2
4063 4143 5
4063 4062 5
4064 3984 1
4064 4065 3
4064 4144 1
4064 4063 2
4065 3985 5
4065 4066 5
4065 4145 3
4065 4064 2
4066 3986 4
4066 4067 4
4066 4146 1
4066 4065 3
4067 3987 3
4067 4068 2
4067 4147 2
4067 4066 3
4068 3988 1
4068 4069 1
4068 4148 4
4068 4067 1
4069 3989 3
4069 4070 4
4069 4149 2
4069 4068 4
4070 3990 4
4070 4071 5
4070 4150 2
4070 4069 5
4071 3991 4
4071 4072 3
4071 4151 1
4071 4070 3
4072 3992 4
4072 4073 3
4072 4152 2
4072 4071 5
4073 3993 4
4073 4074 3
4073 4153 2
4073 4072 5
4074 3994 2
4074 4075 3
4074 4154 1
4074 4073 1
4075 3995 1
4075 4076 3
4075 4155 5
4075 4074 4
4076 3996 3
4076 4077 2
4076 4156 3
4076 4075 4
4077 3997 5
4077 4078 1
4077 4157 4
4077 4076 3
4078 3998 4
4078 4079 2
4078 4158 3
4078 4077 5
4079 3999 1
4079 4159 3
4079 4078 3
4080 4000 5
4080 4081 5
4080 4160 1
4081 4001 5
4081 4082 1
4081 4161 2
4081 4080 4
4082 4002 1
4082 4083 1
4082 4162 2
4082 4081 2
4083 4003 1
4083 4084 5
4083 4163 2
4083 4082 2
4084 4004 1
4084 4085 3
4084 4164 3
4084 4083 3
4085 4005 1
4085 4086 4
4085 4165 3
4085 4084 1
4086 4006 4
4086 4087 4
4086 4166 5
4086 4085 1
4087 4007 5
4087 4088 4
4087 4167 4
4087 4086 2
4088 4008 5
4088 4089 1
4088 4168 2
4088 4087 4
4089 4009 2
4089 4090 1
4089 4169 3
4089 4088 2
4090 4010 2
4090 4091 1
4090 4170 5
4090 4089 1
4091 4011 1
4091 4092 2
4091 4171 4
4091 4090 1
4092 4012 1
4092 4093 2
4092 4172 2
4092 4091 2
4093 4013 2
4093 4094 5
4093 4173 3
4093 4092 3
4094 4014 4
4094 4095 4
4094 4174 1
4094 4093 5
4095 4015 3
4095 4096 4
4095 4175 1
4095 4094 4
4096 4016 5
4096 4097 1
4096 4176 1
4096 4095 2
4097 4017 5
4097 4098 1
4097 4177 2
4097 4096 2
4098 4018 5
4098 4099 4
4098 4178 1
4098 4097 3
4099 4019 1
4099 4100 5
4099 4179 3
4099 4098 5
4100 4020 2
4100 4101 4
4100 4180 2
4100 4099 2
4101 4021 5
4101 4102 1
4101 4181 5
4101 4100 3
4102 4022 3
4102 4103 5
4102 4182 3
4102 4101 5
4103 4023 4
4103 4104 2
4103 4183 2
4103 4102 5
4104 4024 3
4104 4105 3
4104 4184 2
4104 4103 3
4105 4025 3
4105 4106 4
4105 4185 1
4105 4104 3
4106 4026 4
4106 4107 1
4106 4186 4
4106 4105 5
4107 4027 5
4107 4108 4
4107 4187 2
4107 4106 2
4108 4028 1
4108 4109 1
4108 4188 4
4108 4107 1
4109 4029 2
4109 4110 2
4109 4189 5
4109 4108 3
4110 4030 2
4110 4111 5
4110 4190 3
4110 4109 3
4111 4031 4
4111 4112 1
4111 4191 2
4111 4110 5
4112 4032 3
4112 4113 2
4112 4192 5
4112 4111 1
4113 4033 3
4113 4114 1
4113 4193 2
4113 4112 2
4114 4034 3
4114 4115 2
4114 4194 4
4114 4113 4
4115 4035 3
4115 4116 4
4115 4195 4
4115 4114 5
4116 4036 2
4116 4117 4
4116 4196 4
4116 4115 5
4117 4037 5
4117 4118 3
4117 4197 2
4117 4116 1
4118 4038 5
4118 4119 1
4118 4198 1
4118 4117 1
4119 4039 5
4119 4120 1
4119 4199 1
4119 4118 3
4120 4040 1
4120 4121 3
4120 4200 4
4120 4119 4
4121 4041 5
4121 4122 2
4121 4201 1
4121 4120 1
4122 4042 3
4122 4123 2
4122 4202 2
4122 4121 4
4123 4043 3
4123 4124 1
4123 4203 3
4123 4122 4
4124 4044 1
4124 4125 3
4124 4204 1
4124 4123 1
4125 4045 3
4125 4126 2
4125 4205 3
4125 4124 4
4126 4046 2
4126 4127 1
4126 4206 1
4126 4125 4
4127 4047 2
4127 4128 1
4127 4207 1
4127 4126 1
4128 4048 2
4128 4129 4
4128 4208 5
4128 4127 5
4129 4049 3
4129 4130 3
4129 4209 1
4129 4128 5
4130 4050 4
4130 4131 1
4130 4210 2
4130 4129 2
4131 4051 1
4131 4132 4
4131 4211 4
4131 4130 1
4132 4052 1
4132 4133 4
4132 4212 4
4132 4131 4
4133 4053 4
4133 4134 2
4133 4213 1
4133 4132 5
4134 4054 1
4134 4135 1
4134 4214 3
4134 4133 3
4135 4055 4
4135 4136 2
4135 4215 3
4135 4134 1
4136 4056 3
4136 4137 2
4136 4216 2
4136 4135 4
4137 4057 1
4137 4138 1
4137 4217 5
4137 4136 4
4138 4058 5
4138 4139 4
4138 4218 2
4138 4137 1
4139 4059 3
4139 4140 3
4139 4219 1
4139 4138 5
4140 4060 3
4140 4141 4
4140 4220 4
4140 4139 5
4141 4061 2
4141 4142 3
4141 4221 3
4141 4140 5
4142 4062 5
4142 4143 2
4142 4222 3
4142 4141 3
4143 4063 4
4143 4144 2
4143 4223 5
4143 4142 4
4144 4064 3
4144 4145 4
4144 4224 3
4144 4143 3
4145 4065 2
4145 4146 4
4145 4225 5
4145 4144 4
4146 4066 3
4146 4147 4
4146 4226 1
4146 4145 5
4147 4067 3
4147 4148 2
4147 4227 3
4147 4146 3
4148 4068 4
4148 4149 4
4148 4228 5
4148 4147 2
4149 4069 1
4149 4150 3
4149 4229 5
4149 4148 2
4150 4070 5
4150 4151 3
4150 4230 5
4150 4149 2
4151 4071 5
4151 4152 2
4151 4231 2
4151 4150 4
4152 4072 1
4152 4153 4
4152 4232 1
4152 4151 5
4153 4073 5
4153 4154 1
4153 4233 5
4153 4152 1
4154 4074 5
4154 4155 1
4154 4234 3
4154 4153 5
4155 4075 2
4155 4156 2
4155 4235 3
4155 4154 4
4156 4076 1
4156 4157 3
4156 4236 3
4156 4155 5
4157 4077 4
4157 4158 5
4157 4237 4
4157 4156 2
4158 4078 5
4158 4159 3
4158 4238 4
4158 4157 1
4159 4079 2
4159 4239 4
4159 4158 2
4160 4080 2
4160 4161 1
4160 4240 5
4161 4081 1
4161 4162 4
4161 4241 2
4161 4160 1
4162 4082 3
4162 4163 2
4162 4242 4
4162 4161 3
4163 4083 2
4163 4164 5
4163 4243 1
4163 4162 2
4164 4084 1
4164 4165 1
4164 4244 1
4164 4163 3
4165 4085 1
4165 4166 2
4165 4245 2
4165 4164 1
4166 4086 1
4166 4167 3
4166 4246 4
4166 4165 1
4167 4087 4
4167 4168 3
4167 4247 4
4167 4166 1
4168 4088 5
4168 4169 3
4168 4248 3
4168 4167 4
4169 4089 3
4169 4170 2
4169 4249 3
4169 4168 4
4170 4090 5
4170 4171 5
4170 4250 4
4170 4169 5
4171 4091 5
4171 4172 1
4171 4251 4
4171 4170 1
4172 4092 4
4172 4173 3
4172 4252 3
4172 4171 1
4173 4093 3
4173 4174 4
4173 4253 4
4173 4172 5
4174 4094 1
4174 4175 4
4174 4254 5
4174 4173 5
4175 4095 3
4175 4176 4
4175 4255 1
4175 4174 4
4176 4096 1
4176 4177 4
4176 4256 1
4176 4175 4
4177 4097 3
4177 4178 5
4177 4257 1
4177 4176 1
4178 4098 2
4178 4179 1
4178 4258 4
4178 4177 4
4179 4099 3
4179 4180 2
4179 4259 5
4179 4178 4
4180 4100 1
4180 4181 3
4180 4260 3
4180 4179 5
4181 4101 4
4181 4182 2
4181 4261 5
4181 4180 4
4182 4102 1
4182 4183 1
4182 4262 2
4182 4181 5
4183 4103 1
4183 4184 5
4183 4263 4
4183 4182 1
4184 4104 5
4184 4185 2
4184 4264 4
4184 4183 3
4185 4105 5
4185 4186 4
4185 4265 5
4185 4184 1
4186 4106 3
4186 4187 5
4186 4266 1
4186 4185 5
4187 4107 4
4187 4188 2
4187 4267 4
4187 4186 3
4188 4108 2
4188 4189 1
4188 4268 3
4188 4187 5
4189 4109 3
4189 4190 4
4189 4269 1
4189 4188 2
4190 4110 1
4190 4191 2
4190 4270 4
4190 4189 4
4191 4111 2
4191 4192 1
4191 4271 4
4191 4190 2
4192 4112 4
4192 4193 1
4192 4272 3
4192 4191 2
4193 4113 2
4193 4194 3
4193 4273 5
4193 4192 4
4194 4114 2
4194 4195 4
4194 4274 1
4194 4193 1
4195 4115 2
4195 4196 2
4195 4275 2
4195 4194 5
4196 4116 5
4196 4197 1
4196 4276 4
4196 4195 4
4197 4117 3
4197 4198 4
4197 4277 1
4197 4196 5
4198 4118 3
4198 4199 5
4198 4278 1
4198 4197 4
4199 4119 4
4199 4200 1
4199 4279 3
4199 4198 4
4200 4120 5
4200 4201 4
4200 4280 1
4200 4199 1
4201 4121 1
4201 4202 3
4201 4281 3
4201 4200 4
4202 4122 4
4202 4203 5
4202 4282 2
4202 4201 2
4203 4123 1
4203 4204 1
4203 4283 2
4203 4202 1
4204 4124 5
4204 4205 2
4204 4284 2
4204 4203 4
4205 4125 5
4205 4206 3
4205 4285 5
4205 4204 3
4206 4126 4
4206 4207 1
4206 4286 2
4206 4205 5
4207 4127 4
4207 4208 1
4207 4287 5
4207 4206 1
4208 4128 2
4208 4209 2
4208 4288 2
4208 4207 3
4209 4129 2
4209 4210 4
4209 4289 1
4209 4208 3
4210 4130 1
4210 4211 5
4210 4290 1
4210 4209 1
4211 4131 5
4211 4212 3
4211 4291 5
4211 4210 5
4212 4132 1
4212 4213 3
4212 4292 2
4212 4211 3
4213 4133 2
4213 4214 4
4213 4293 2
4213 4212 2
4214 4134 4
4214 4215 4
4214 4294 4
4214 4213 2
4215 4135 1
4215 4216 2
4215 4295 4
4215 4214 5
4216 4136 5
4216 4217 1
4216 4296 2
4216 4215 2
4217 4137 5
4217 4218 2
4217 4297 1
4217 4216 4
4218 4138 5
4218 4219 1
4218 4298 5
4218 4217 2
4219 4139 2
4219 4220 4
4219 4299 3
4219 4218 2
4220 4140 3
4220 4221 4
4220 4300 1
4220 4219 4
4221 4141 1
4221 4222 3
4221 4301 4
4221 4220 1
4222 4142 2
4222 4223 3
4222 4302 4
4222 4221 4
4223 4143 5
4223 4224 2
4223 4303 2
4223 4222 4
4224 4144 5
4224 4225 5
4224 4304 4
4224 4223 2
4225 4145 2
4225 4226 5
4225 4305 5
4225 4224 3
4226 4146 4
4226 4227 1
4226 4306 4
4226 4225 5
4227 4147 1
4227 4228 4
4227 4307 1
4227 4226 5
4228 4148 1
4228 4229 2
4228 4308 1
4228 4227 3
4229 4149 3
4229 4230 4
4229 4309 3
4229 4228 4
4230 4150 3
4230 4231 3
4230 4310 5
4230 4229 5
4231 4151 3
4231 4232 3
4231 4311 4
4231 4230 5
4232 4152 4
4232 4233 4
4232 4312 5
4232 4231 5
4233 4153 5
4233 4234 5
4233 4313 5
4233 4232 2
4234 4154 4
4234 4235 3
4234 4314 1
4234 4233 4
4235 4155 3
4235 4236 5
4235 4315 5
4235 4234 5
4236 4156 1
4236 4237 3
4236 4316 3
4236 4235 3
4237 4157 3
4237 4238 5
4237 4317 5
4237 4236 2
4238 4158 3
4238 4239 3
4238 4318 2
4238 4237 5
4239 4159 2
4239 4319 3
4239 4238 3
4240 4160 2
4240 4241 3
4240 4320 5
4241 4161 4
4241 4242 3
4241 4321 3
4241 4240 5
4242 4162 4
4242 4243 2
4242 4322 5
4242 4241 2
4243 4163 3
4243 4244 2
4243 4323 3
4243 4242 5
4244 4164 5
4244 4245 3
4244 4324 2
4244 4243 4
4245 4165 5
4245 4246 5
4245 4325 2
4245 4244 1
4246 4166 3
4246 4247 2
4246 4326 2
4246 4245 5
4247 4167 3
4247 4248 2
4247 4327 4
4247 4246 3
4248 4168 2
4248 4249 4
4248 4328 4
4248 4247 3
4249 4169 5
4249 4250 4
4249 4329 5
4249 4248 3
4250 4170 2
4250 4251 3
4250 4330 5
4250 4249 1
4251 4171 3
4251 4252 1
4251 4331 4
4251 4250 5
4252 4172 4
4252 4253 1
4252 4332 1
4252 4251 2
4253 4173 3
4253 4254 4
4253 4333 4
4253 4252 5
4254 4174 5
4254 4255 3
4254 4334 5
4254 4253 5
4255 4175 4
4255 4256 2
4255 4335 3
4255 4254 1
4256 4176 4
4256 4257 4
4256 4336 5
4256 4255 1
4257 4177 4
4257 4258 4
4257 4337 4
4257 4256 3
4258 4178 1
4258 4259 2
4258 4338 2
4258 4257 1
4259 4179 3
4259 4260 1
4259 4339 1
4259 4258 1
4260 4180 3
4260 4261 1
4260 4340 5
4260 4259 5
4261 4181 3
4261 4262 2
4261 4341 1
4261 4260 4
4262 4182 2
4262 4263 1
4262 4342 5
4262 4261 1
4263 4183 1
4263 4264 1
4263 4343 3
4263 4262 5
4264 4184 3
4264 4265 3
4264 4344 4
4264 4263 2
4265 4185 2
4265 4266 2
4265 4345 5
4265 4264 5
4266 4186 5
4266 4267 3
4266 4346 5
4266 4265 3
4267 4187 2
4267 4268 2
4267 4347 1
4267 4266 5
4268 4188 5
4268 4269 3
4268 4348 2
4268 4267 2
4269 4189 4
4269 4270 2
4269 4349 5
4269 4268 5
4270 4190 1
4270 4271 2
4270 4350 1
4270 4269 5
4271 4191 5
4271 4272 3
4271 4351 4
4271 4270 1
4272 4192 1
4272 4273 2
4272 4352 4
4272 4271 2
4273 4193 2
4273 4274 4
4273 4353 5
4273 4272 2
4274 4194 2
4274 4275 2
4274 4354 3
4274 4273 1
4275 4195 1
4275 4276 2
4275 4355 3
4275 4274 4
4276 4196 5
4276 4277 5
4276 4356 4
4276 4275 4
4277 4197 2
4277 4278 2
4277 4357 1
4277 4276 1
4278 4198 4
4278 4279 4
4278 4358 4
4278 4277 2
4279 4199 4
4279 4280 5
4279 4359 4
4279 4278 1
4280 4200 5
4280 4281 3
4280 4360 2
4280 4279 4
4281 4201 4
4281 4282 5
4281 4361 3
4281 4280 3
4282 4202 1
4282 4283 4
4282 4362 5
4282 4281 5
4283 4203 4
4283 4284 4
4283 4363 5
4283 4282 2
4284 4204 3
4284 4285 2
4284 4364 1
4284 4283 5
4285 4205 4
4285 4286 2
4285 4365 4
4285 4284 2
4286 4206 2
4286 4287 3
4286 4366 3
4286 4285 4
4287 4207 3
4287 4288 2
4287 4367 3
4287 4286 2
4288 4208 4
4288 4289 5
4288 4368 4
4288 4287 1
4289 4209 5
4289 4290 2
4289 4369 1
4289 4288 4
4290 4210 1
4290 4291 4
4290 4370 5
4290 4289 3
4291 4211 3
4291 4292 4
4291 4371 1
4291 4290 4
4292 4212 4
4292 4293 4
4292 4372 4
4292 4291 1
4293 4213 4
4293 4294 3
4293 4373 3
4293 4292 2
4294 4214 3
4294 4295 3
4294 4374 3
4294 4293 4
4295 4215 2
4295 4296 2
4295 4375 2
4295 4294 5
4296 4216 5
4296 4297 5
4296 4376 5
4296 4295 2
4297 4217 1
4297 4298 4
4297 4377 3
4297 4296 1
4298 4218 2
4298 4299 1
4298 4378 2
4298 4297 1
4299 4219 5
4299 4300 5
4299 4379 1
4299 4298 3
4300 4220 1
4300 4301 5
4300 4380 3
4300 4299 4
4301 4221 2
4301 4302 3
4301 4381 2
4301 4300 4
4302 4222 3
4302 4303 2
4302 4382 2
4302 4301 4
4303 4223 3
4303 4304 2
4303 4383 5
4303 4302 1
4304 4224 2
4304 4305 1
4304 4384 5
4304 4303 1
4305 4225 5
4305 4306 2
4305 4385 3
4305 4304 5
4306 4226 4
4306 4307 4
4306 4386 2
4306 4305 2
4307 4227 1
4307 4308 2
4307 4387 5
4307 4306 1
4308 4228 1
4308 4309 1
4308 4388 3
4308 4307 2
4309 4229 5
4309 4310 1
4309 4389 4
4309 4308 5
4310 4230 3
4310 4311 2
4310 4390 2
4310 4309 5
4311 4231 2
4311 4312 2
4311 4391 1
4311 4310 3
4312 4232 2
4312 4313 3
4312 4392 5
4312 4311 1
4313 4233 5
4313 4314 5
4313 4393 1
4313 4312 4
4314 4234 2
4314 4315 2
4314 4394 1
4314 4313 4
4315 4235 2
4315 4316 2
4315 4395 2
4315 4314 5
4316 4236 3
4316 4317 5
4316 4396 3
4316 4315 4
4317 4237 2
4317 4318 4
4317 4397 2
4317 4316 1
4318 4238 2
4318 4319 2
4318 4398 5
4318 4317 1
4319 4239 1
4319 4399 4
4319 4318 2
4320 4240 1
4320 4321 3
4320 4400 4
4321 4241 5
4321 4322 4
4321 4401 4
4321 4320 5
4322 4242 5
4322 4323 4
4322 4402 5
4322 4321 4
4323 4243 5
4323 4324 3
4323 4403 5
4323 4322 5
4324 4244 4
4324 4325 3
4324 4404 5
4324 4323 4
4325 4245 2
4325 4326 5
4325 4405 4
4325 4324 2
4326 4246 1
4326 4327 2
4326 4406 1
4326 4325 5
4327 4247 3
4327 4328 3
4327 4407 1
4327 4326 5
4328 4248 4
4328 4329 4
4328 4408 4
4328 4327 3
4329 4249 3
4329 4330 1
4329 4409 3
4329 4328 4
4330 4250 2
4330 4331 1
4330 4410 2
4330 4329 4
4331 4251 2
4331 4332 4
4331 4411 5
4331 4330 2
4332 4252 3
4332 4333 4
4332 4412 2
4332 4331 2
4333 4253 1
4333 4334 2
4333 4413 4
4333 4332 3
4334 4254 4
4334 4335 4
4334 4414 4
4334 4333 4
4335 4255 3
4335 4336 2
4335 4415 4
4335 4334 2
4336 4256 4
4336 4337 1
4336 4416 2
4336 4335 2
4337 4257 1
4337 4338 3
4337 4417 3
4337 4336 1
4338 4258 3
4338 4339 4
4338 4418 4
4338 4337 4
4339 4259 1
4339 4340 5
4339 4419 3
4339 4338 3
4340 4260 5
4340 4341 5
4340 4420 4
4340 4339 1
4341 4261 4
4341 4342 1
4341 4421 3
4341 4340 3
4342 4262 2
4342 4343 3
4342 4422 5
4342 4341 2
4343 4263 1
4343 4344 1
4343 4423 2
4343 4342 5
4344 4264 3
4344 4345 1
4344 4424 1
4344 4343 5
4345 4265 2
4345 4346 5
4345 4425 3
4345 4344 1
4346 4266 4
4346 4347 4
4346 4426 3
4346 4345 5
4347 4267 4
4347 4348 3
4347 4427 5
4347 4346 3
4348 4268 3
4348 4349 3
4348 4428 1
4348 4347 5
4349 4269 5
4349 4350 1
4349 4429 4
4349 4348 4
4350 4270 4
4350 4351 5
4350 4430 1
4350 4349 5
4351 4271 5
4351 4352 5
4351 4431 1
4351 4350 2
4352 4272 4
4352 4353 3
4352 4432 4
4352 4351 3
4353 4273 2
4353 4354 2
4353 4433 2
4353 4352 1
4354 4274 5
4354 4355 4
4354 4434 3
4354 4353 4
4355 4275 2
4355 4356 1
4355 4435 1
4355 4354 3
4356 4276 1
4356 4357 2
4356 4436 2
4356 4355 4
4357 4277 5
4357 4358 2
4357 4437 4
4357 4356 2
4358 4278 4
4358 4359 5
4358 4438 5
4358 4357 3
4359 4279 2
4359 4360 1
4359 4439 1
4359 4358 2
4360 4280 1
4360 4361 3
4360 4440 4
4360 4359 1
4361 4281 2
4361 4362 4
4361 4441 2
4361 4360 4
4362 4282 1
4362 4363 1
4362 4442 4
4362 4361 3
4363 4283 5
4363 4364 3
4363 4443 4
4363 4362 3
4364 4284 5
4364 4365 5
4364 4444 5
4364 4363 3
4365 4285 3
4365 4366 5
4365 4445 2
4365 4364 5
4366 4286 5
4366 4367 3
4366 4446 5
4366 4365 2
4367 4287 2
4367 4368 1
4367 4447 4
4367 4366 4
4368 4288 3
4368 4369 3
4368 4448 5
4368 4367 3
4369 4289 4
4369 4370 4
4369 4449 1
4369 4368 5
4370 4290 3
4370 4371 3
4370 4450 1
4370 4369 2
4371 4291 5
4371 4372 2
4371 4451 2
4371 4370 2
4372 4292 4
4372 4373 2
4372 4452 1
4372 4371 5
4373 4293 5
4373 4374 3
4373 4453 4
4373 4372 4
4374 4294 4
4374 4375 5
4374 4454 3
4374 4373 3
4375 4295 1
4375 4376 2
4375 4455 2
4375 4374 5
4376 4296 4
4376 4377 1
4376 4456 3
4376 4375 1
4377 4297 4
4377 4378 4
4377 4457 4
4377 4376 2
4378 4298 4
4378 4379 4
4378 4458 1
4378 4377 3
4379 4299 3
4379 4380 1
4379 4459 3
4379 4378 2
4380 4300 4
4380 4381 4
4380 4460 4
4380 4379 5
4381 4301 2
4381 4382 4
4381 4461 4
4381 4380 2
4382 4302 3
4382 4383 2
4382 4462 5
4382 4381 2
4383 4303 3
4383 4384 2
4383 4463 5
4383 4382 3
4384 4304 5
4384 4385 4
4384 4464 1
4384 4383 1
4385 4305 1
4385 4386 1
4385 4465 1
4385 4384 2
4386 4306 5
4386 4387 4
4386 4466 4
4386 4385 1
4387 4307 2
4387 4388 1
4387 4467 1
4387 4386 4
4388 4308 2
4388 4389 1
4388 4468 2
4388 4387 3
4389 4309 3
4389 4390 3
4389 4469 5
4389 4388 1
4390 4310 1
4390 4391 2
4390 4470 3
4390 4389 3
4391 4311 1
4391 4392 1
4391 4471 5
4391 4390 1
4392 4312 1
4392 4393 5
4392 4472 1
4392 4391 2
4393 4313 2
4393 4394 4
4393 4473 4
4393 4392 1
4394 4314 3
4394 4395 5
4394 4474 3
4394 4393 5
4395 4315 5
4395 4396 1
4395 4475 5
4395 4394 3
4396 4316 2
4396 4397 1
4396 4476 4
4396 4395 5
4397 4317 3
4397 4398 2
4397 4477 5
4397 4396 1
4398 4318 4
4398 4399 5
4398 4478 2
4398 4397 3
4399 4319 1
4399 4479 4
4399 4398 3
4400 4320 2
4400 4401 4
4400 4480 4
4401 4321 3
4401 4402 5
4401 4481 3
4401 4400 3
4402 4322 4
4402 4403 4
4402 4482 2
4402 4401 3
4403 4323 3
4403 4404 2
4403 4483 2
4403 4402 4
4404 4324 2
4404 4405 2
4404 4484 1
4404 4403 1
4405 4325 1
4405 4406 5
4405 4485 1
4405 4404 2
4406 4326 1
4406 4407 4
4406 4486 2
4406 4405 2
4407 4327 1
4407 4408 3
4407 4487 3
4407 4406 3
4408 4328 5
4408 4409 2
4408 4488 4
4408 4407 4
4409 4329 4
4409 4410 1
4409 4489 5
4409 4408 5
4410 4330 3
4410 4411 2
4410 4490 4
4410 4409 1
4411 4331 3
4411 4412 2
4411 4491 4
4411 4410 2
4412 4332 3
4412 4413 1
4412 4492 1
4412 4411 1
4413 4333 3
4413 4414 4
4413 4493 2
4413 4412 4
4414 4334 4
4414 4415 4
4414 4494 3
4414 4413 4
4415 4335 2
4415 4416 3
4415 4495 4
4415 4414 3
4416 4336 5
4416 4417 2
4416 4496 1
4416 4415 2
4417 4337 3
4417 4418 4
4417 4497 1
4417 4416 4
4418 4338 3
4418 4419 2
4418 4498 1
4418 4417 2
4419 4339 2
4419 4420 5
4419 4499 5
4419 4418 4
4420 4340 3
4420 4421 2
4420 4500 2
4420 4419 4
4421 4341 1
4421 4422 1
4421 4501 3
4421 4420 3
4422 4342 5
4422 4423 3
4422 4502 3
4422 4421 1
4423 4343 1
4423 4424 4
4423 4503 5
4423 4422 2
4424 4344 2
4424 4425 2
4424 4504 3
4424 4423 5
4425 4345 3
4425 4426 5
4425 4505 4
4425 4424 5
4426 4346 5
4426 4427 5
4426 4506 5
4426 4425 2
4427 4347 4
4427 4428 1
4427 4507 4
4427 4426 5
4428 4348 5
4428 4429 3
4428 4508 5
4428 4427 4
4429 4349 1
4429 4430 3
4429 4509 3
4429 4428 1
4430 4350 4
4430 4431 5
4430 4510 1
4430 4429 4
4431 4351 4
4431 4432 4
4431 4511 5
4431 4430 5
4432 4352 2
4432 4433 3
4432 4512 5
4432 4431 2
4433 4353 4
4433 4434 3
4433 4513 3
4433 4432 1
4434 4354 2
4434 4435 5
4434 4514 3
4434 4433 4
4435 4355 3
4435 4436 1
4435 4515 5
4435 4434 2
4436 4356 1
4436 4437 2
4436 4516 4
4436 4435 2
4437 4357 4
4437 4438 1
4437 4517 4
4437 4436 1
4438 4358 1
4438 4439 3
4438 4518 5
4438 4437 5
4439 4359 4
4439 4440 1
4439 4519 5
4439 4438 3
4440 4360 5
4440 4441 1
4440 4520 4
4440 4439 5
4441 4361 2
4441 4442 5
4441 4521 5
4441 4440 3
4442 4362 1
4442 4443 2
4442 4522 4
4442 4441 5
4443 4363 3
4443 4444 2
4443 4523 5
4443 4442 2
4444 4364 1
4444 4445 4
4444 4524 1
4444 4443 3
4445 4365 2
4445 4446 4
4445 4525 1
4445 4444 1
4446 4366 2
4446 4447 3
4446 4526 2
4446 4445 3
4447 4367 3
4447 4448 4
4447 4527 2
4447 4446 4
4448 4368 2
4448 4449 2
4448 4528 3
4448 4447 1
4449 4369 3
4449 4450 3
4449 4529 5
4449 4448 5
4450 4370 1
4450 4451 1
4450 4530 2
4450 4449 1
4451 4371 1
4451 4452 2
4451 4531 1
4451 4450 3
4452 4372 2
4452 4453 1
4452 4532 4
4452 4451 3
4453 4373 1
4453 4454 5
4453 4533 5
4453 4452 4
4454 4374 5
4454 4455 1
4454 4534 4
4454 4453 5
4455 4375 3
4455 4456 1
4455 4535 3
4455 4454 1
4456 4376 3
4456 4457 2
4456 4536 4
4456 4455 2
4457 4377 5
4457 4458 3
4457 4537 1
4457 4456 5
4458 4378 1
4458 4459 1
4458 4538 2
4458 4457 2
4459 4379 3
4459 4460 2
4459 4539 5
4459 4458 5
4460 4380 2
4460 4461 4
4460 4540 3
4460 4459 1
4461 4381 3
4461 4462 4
4461 4541 4
4461 4460 1
4462 4382 5
4462 4463 4
4462 4542 2
4462 4461 2
4463 4383 2
4463 4464 5
4463 4543 4
4463 4462 5
4464 4384 1
4464 4465 2
4464 4544 4
4464 4463 5
4465 4385 4
4465 4466 4
4465 4545 3
4465 4464 3
4466 4386 2
4466 4467 1
4466 4546 1
4466 4465 4
4467 4387 2
4467 4468 1
4467 4547 5
4467 4466 3
4468 4388 1
4468 4469 3
4468 4548 3
4468 4467 4
4469 4389 1
4469 4470 3
4469 4549 4
4469 4468 1
4470 4390 2
4470 4471 1
4470 4550 5
4470 4469 5
4471 4391 5
4471 4472 1
4471 4551 5
4471 4470 2
4472 4392 4
4472 4473 4
4472 4552 5
4472 4471 5
4473 4393 3
4473 4474 1
4473 4553 5
4473 4472 1
4474 4394 3
4474 4475 2
4474 4554 3
4474 4473 5
4475 4395 4
4475 4476 3
4475 4555 1
4475 4474 1
4476 4396 1
4476 4477 3
4476 4556 2
4476 4475 3
4477 4397 4
4477 4478 2
4477 4557 3
4477 4476 3
4478 4398 4
4478 4479 1
4478 4558 5
4478 4477 3
4479 4399 1
4479 4559 4
4479 4478 3
4480 4400 3
4480 4481 4
4480 4560 1
4481 4401 1
4481 4482 3
4481 4561 3
4481 4480 2
4482 4402 1
4482 4483 2
4482 4562 5
4482 4481 5
4483 4403 5
4483 4484 1
4483 4563 3
4483 4482 1
4484 4404 1
4484 4485 3
4484 4564 3
4484 4483 3
4485 4405 1
4485 4486 2
4485 4565 5
4485 4484 2
4486 4406 5
4486 4487 1
4486 4566 2
4486 4485 1
4487 4407 3
4487 4488 3
4487 4567 5
4487 4486 5
4488 4408 1
4488 4489 5
4488 4568 5
4488 4487 5
4489 4409 3
4489 4490 5
4489 4569 3
4489 4488 1
4490 4410 4
4490 4491 1
4490 4570 3
4490 4489 4
4491 4411 1
4491 4492 3
4491 4571 3
4491 4490 1
4492 4412 2
4492 4493 1
4492 4572 1
4492 4491 5
4493 4413 1
4493 4494 1
4493 4573 4
4493 4492 1
4494 4414 4
4494 4495 3
4494 4574 4
4494 4493 5
4495 4415 1
4495 4496 3
4495 4575 2
4495 4494 5
4496 4416 5
4496 4497 2
4496 4576 1
4496 4495 3
4497 4417 2
4497 4498 2
4497 4577 5
4497 4496 1
4498 4418 1
4498 4499 4
4498 4578 2
4498 4497 2
4499 4419 2
4499 4500 5
4499 4579 2
4499 4498 4
4500 4420 1
4500 4501 5
4500 4580 3
4500 4499 5
4501 4421 2
4501 4502 4
4501 4581 5
4501 4500 2
4502 4422 1
4502 4503 4
4502 4582 2
4502 4501 5
4503 4423 4
4503 4504 2
4503 4583 5
4503 4502 3
4504 4424 3
4504 4505 2
4504 4584 4
4504 4503 5
4505 4425 4
4505 4506 5
4505 4585 3
4505 4504 3
4506 4426 2
4506 4507 5
4506 4586 1
4506 4505 4
4507 4427 3
4507 4508 5
4507 4587 4
4507 4506 1
4508 4428 1
4508 4509 4
4508 4588 5
4508 4507 2
4509 4429 3
4509 4510 2
4509 4589 5
4509 4508 2
4510 4430 5
4510 4511 1
4510 4590 2
4510 4509 2
4511 4431 1
4511 4512 2
4511 4591 2
4511 4510 1
4512 4432 1
4512 4513 4
4512 4592 2
4512 4511 2
4513 4433 3
4513 4514 1
4513 4593 5
4513 4512 1
4514 4434 2
4514 4515 1
4514 4594 1
4514 4513 4
4515 4435 1
4515 4516 3
4515 4595 2
4515 4514 4
4516 4436 2
4516 4517 2
4516 4596 1
4516 4515 3
4517 4437 3
4517 4518 4
4517 4597 4
4517 4516 5
4518 4438 3
4518 4519 4
4518 4598 2
4518 4517 2
4519 4439 2
4519 4520 4
4519 4599 3
4519 4518 2
4520 4440 2
4520 4521 4
4520 4600 4
4520 4519 3
4521 4441 4
4521 4522 1
4521 4601 3
4521 4520 1
4522 4442 4
4522 4523 4
4522 4602 2
4522 4521 1
4523 4443 1
4523 4524 4
4523 4603 5
4523 4522 3
4524 4444 2
4524 4525 4
4524 4604 1
4524 4523 3
4525 4445 2
4525 4526 3
4525 4605 3
4525 4524 2
4526 4446 4
4526 4527 1
4526 4606 4
4526 4525 5
4527 4447 1
4527 4528 5
4527 4607 4
4527 4526 3
4528 4448 3
4528 4529 2
4528 4608 4
4528 4527 2
4529 4449 3
4529 4530 4
4529 4609 4
4529 4528 3
4530 4450 2
4530 4531 4
4530 4610 2
4530 4529 4
4531 4451 2
4531 4532 1
4531 4611 2
4531 4530 4
4532 4452 4
4532 4533 2
4532 4612 5
4532 4531 5
4533 4453 2
4533 4534 1
4533 4613 3
4533 4532 3
4534 4454 5
4534 4535 3
4534 4614 1
4534 4533 3
4535 4455 5
4535 4536 3
4535 4615 4
4535 4534 1
4536 4456 1
4536 4537 5
4536 4616 1
4536 4535 2
4537 4457 3
4537 4538 3
4537 4617 2
4537 4536 5
4538 4458 5
4538 4539 5
4538 4618 5
4538 4537 2
4539 4459 4
4539 4540 5
4539 4619 1
4539 4538 2
4540 4460 1
4540 4541 3
4540 4620 5
4540 4539 4
4541 4461 5
4541 4542 3
4541 4621 1
4541 4540 4
4542 4462 2
4542 4543 2
4542 4622 1
4542 4541 3
4543 4463 4
4543 4544 3
4543 4623 3
4543 4542 5
4544 4464 2
4544 4545 4
4544 4624 5
4544 4543 5
4545 4465 5
4545 4546 3
4545 4625 1
4545 4544 4
4546 4466 4
4546 4547 5
4546 4626 2
4546 4545 2
4547 4467 3
4547 4548 1
4547 4627 3
4547 4546 3
4548 4468 4
4548 4549 2
4548 4628 5
4548 4547 3
4549 4469 4
4549 4550 2
4549 4629 4
4549 4548 5
4550 4470 1
4550 4551 1
4550 4630 1
4550 4549 5
4551 4471 2
4551 4552 2
4551 4631 4
4551 4550 1
4552 4472 2
4552 4553 4
4552 4632 4
4552 4551 5
4553 4473 1
4553 4554 1
4553 4633 5
4553 4552 4
4554 4474 2
4554 4555 2
4554 4634 2
4554 4553 2
4555 4475 3
4555 4556 1
4555 4635 1
4555 4554 3
4556 4476 1
4556 4557 5
4556 4636 4
4556 4555 1
4557 4477 3
4557 4558 5
4557 4637 4
4557 4556 2
4558 4478 1
4558 4559 3
4558 4638 2
4558 4557 5
4559 4479 1
4559 4639 1
4559 4558 3
4560 4480 5
4560 4561 5
4560 4640 2
4561 4481 1
4561 4562 4
4561 4641 3
4561 4560 5
4562 4482 2
4562 4563 1
4562 4642 4
4562 4561 2
4563 4483 4
4563 4564 3
4563 4643 1
4563 4562 1
4564 4484 5
4564 4565 5
4564 4644 2
4564 4563 5
4565 4485 3
4565 4566 1
4565 4645 4
4565 4564 3
4566 4486 3
4566 4567 4
4566 4646 5
4566 4565 2
4567 4487 1
4567 4568 1
4567 4647 5
4567 4566 1
4568 4488 3
4568 4569 2
4568 4648 2
4568 4567 2
4569 4489 2
4569 4570 1
4569 4649 2
4569 4568 2
4570 4490 2
4570 4571 2
4570 4650 2
4570 4569 3
4571 4491 4
4571 4572 1
4571 4651 4
4571 4570 2
4572 4492 5
4572 4573 2
4572 4652 1
4572 4571 1
4573 4493 2
4573 4574 3
4573 4653 3
4573 4572 4
4574 4494 2
4574 4575 1
4574 4654 2
4574 4573 4
4575 4495 4
4575 4576 1
4575 4655 2
4575 4574 3
4576 4496 1
4576 4577 5
4576 4656 2
4576 4575 4
4577 4497 1
4577 4578 1
4577 4657 2
4577 4576 2
4578 4498 1
4578 4579 2
4578 4658 4
4578 4577 1
4579 4499 4
4579 4580 2
4579 4659 2
4579 4578 3
4580 4500 5
4580 4581 5
4580 4660 5
4580 4579 5
4581 4501 5
4581 4582 3
4581 4661 4
4581 4580 2
4582 4502 5
4582 4583 5
4582 4662 5
4582 4581 2
4583 4503 4
4583 4584 4
4583 4663 2
4583 4582 5
4584 4504 4
4584 4585 3
4584 4664 3
4584 4583 3
4585 4505 5
4585 4586 2
4585 4665 1
4585 4584 2
4586 4506 4
4586 4587 3
4586 4666 4
4586 4585 5
4587 4507 4
4587 4588 1
4587 4667 5
4587 4586 1
4588 4508 2
4588 4589 1
4588 4668 2
4588 4587 5
4589 4509 1
4589 4590 5
4589 4669 4
4589 4588 4
4590 4510 5
4590 4591 2
4590 4670 1
4590 4589 5
4591 4511 2
4591 4592 5
4591 4671 2
4591 4590 2
4592 4512 2
4592 4593 1
4592 4672 5
4592 4591 5
4593 4513 5
4593 4594 1
4593 4673 2
4593 4592 5
4594 4514 5
4594 4595 1
4594 4674 3
4594 4593 5
4595 4515 5
4595 4596 1
4595 4675 3
4595 4594 3
4596 4516 3
4596 4597 5
4596 4676 2
4596 4595 2
4597 4517 1
4597 4598 4
4597 4677 4
4597 4596 2
4598 4518 2
4598 4599 2
4598 4678 1
4598 4597 5
4599 4519 2
4599 4600 5
4599 4679 4
4599 4598 1
4600 4520 4
4600 4601 5
4600 4680 1
4600 4599 3
4601 4521 4
4601 4602 2
4601 4681 3
4601 4600 3
4602 4522 1
4602 4603 1
4602 4682 1
4602 4601 1
4603 4523 1
4603 4604 1
4603 4683 1
4603 4602 3
4604 4524 2
4604 4605 5
4604 4684 1
4604 4603 1
4605 4525 2
4605 4606 4
4605 4685 1
4605 4604 4
4606 4526 5
4606 4607 3
4606 4686 1
4606 4605 5
4607 4527 1
4607 4608 2
4607 4687 3
4607 4606 3
4608 4528 4
4608 4609 1
4608 4688 5
4608 4607 3
4609 4529 3
4609 4610 3
4609 4689 2
4609 4608 1
4610 4530 5
4610 4611 2
4610 4690 5
4610 4609 5
4611 4531 5
4611 4612 4
4611 4691 3
4611 4610 4
4612 4532 5
4612 4613 1
4612 4692 2
4612 4611 2
4613 4533 3
4613 4614 5
4613 4693 5
4613 4612 1
4614 4534 3
4614 4615 4
4614 4694 4
4614 4613 1
4615 4535 5
4615 4616 4
4615 4695 4
4615 4614 1
4616 4536 1
4616 4617 5
4616 4696 1
4616 4615 1
4617 4537 3
4617 4618 2
4617 4697 4
4617 4616 3
4618 4538 3
4618 4619 1
4618 4698 3
4618 4617 5
4619 4539 3
4619 4620 5
4619 4699 2
4619 4618 4
4620 4540 4
4620 4621 5
4620 4700 1
4620 4619 2
4621 4541 4
4621 4622 2
4621 4701 3
4621 4620 5
4622 4542 2
4622 4623 3
4622 4702 3
4622 4621 1
4623 4543 3
4623 4624 3
4623 4703 2
4623 4622 5
4624 4544 4
4624 4625 1
4624 4704 5
4624 4623 1
4625 4545 4
4625 4626 1
4625 4705 4
4625 4624 2
4626 4546 2
4626 4627 4
4626 4706 5
4626 4625 5
4627 4547 5
4627 4628 4
4627 4707 5
4627 4626 3
4628 4548 1
4628 4629 5
4628 4708 5
4628 4627 2
4629 4549 2
4629 4630 1
4629 4709 1
4629 4628 3
4630 4550 1
4630 4631 1
4630 4710 4
4630 4629 3
4631 4551 5
4631 4632 1
4631 4711 5
4631 4630 5
4632 4552 1
4632 4633 3
4632 4712 3
4632 4631 2
4633 4553 5
4633 4634 4
4633 4713 4
4633 4632 2
4634 4554 5
4634 4635 2
4634 4714 4
4634 4633 2
4635 4555 5
4635 4636 1
4635 4715 4
4635 4634 3
4636 4556 2
4636 4637 2
4636 4716 1
4636 4635 2
4637 4557 4
4637 4638 5
4637 4717 3
4637 4636 2
4638 4558 5
4638 4639 5
4638 4718 3
4638 4637 4
4639 4559 3
4639 4719 2
4639 4638 1
4640 4560 2
4640 4641 4
4640 4720 2
4641 4561 3
4641 4642 5
4641 4721 4
4641 4640 2
4642 4562 1
4642 4643 3
4642 4722 3
4642 4641 1
4643 4563 4
4643 4644 1
4643 4723 4
4643 4642 3
4644 4564 4
4644 4645 2
4644 4724 3
4644 4643 3
4645 4565 3
4645 4646 1
4645 4725 2
4645 4644 4
4646 4566 2
4646 4647 3
4646 4726 3
4646 4645 5
4647 4567 2
4647 4648 3
4647 4727 2
4647 4646 1
4648 4568 1
4648 4649 4
4648 4728 4
4648 4647 3
4649 4569 4
4649 4650 3
4649 4729 3
4649 4648 5
4650 4570 5
4650 4651 5
4650 4730 5
4650 4649 1
4651 4571 2
4651 4652 1
4651 4731 3
4651 4650 2
4652 4572 5
4652 4653 5
4652 4732 5
4652 4651 2
4653 4573 3
4653 4654 3
4653 4733 2
4653 4652 4
4654 4574 5
4654 4655 1
4654 4734 3
4654 4653 1
4655 4575 3
4655 4656 1
4655 4735 3
4655 4654 2
4656 4576 2
4656 4657 2
4656 4736 2
4656 4655 3
4657 4577 2
4657 4658 5
4657 4737 3
4657 4656 5
4658 4578 3
4658 4659 1
4658 4738 4
4658 4657 2
4659 4579 2
4659 4660 1
4659 4739 1
4659 4658 1
4660 4580 5
4660 4661 4
4660 4740 5
4660 4659 4
4661 4581 1
4661 4662 5
4661 4741 1
4661 4660 5
4662 4582 2
4662 4663 2
4662 4742 5
4662 4661 1
4663 4583 2
4663 4664 4
4663 4743 2
4663 4662 2
4664 4584 4
4664 4665 3
4664 4744 2
4664 4663 1
4665 4585 4
4665 4666 1
4665 4745 1
4665 4664 1
4666 4586 5
4666 4667 5
4666 4746 4
4666 4665 3
4667 4587 4
4667 4668 1
4667 4747 4
4667 4666 5
4668 4588 4
4668 4669 5
4668 4748 5
4668 4667 1
4669 4589 1
4669 4670 2
4669 4749 2
4669 4668 1
4670 4590 1
4670 4671 5
4670 4750 1
4670 4669 3
4671 4591 4
4671 4672 1
4671 4751 5
4671 4670 2
4672 4592 5
4672 4673 5
4672 4752 1
4672 4671 2
4673 4593 4
4673 4674 3
4673 4753 4
4673 4672 4
4674 4594 3
4674 4675 3
4674 4754 5
4674 4673 1
4675 4595 4
4675 4676 1
4675 4755 5
4675 4674 2
4676 4596 4
4676 4677 3
4676 4756 5
4676 4675 3
4677 4597 2
4677 4678 1
4677 4757 1
4677 4676 3
4678 4598 5
4678 4679 1
4678 4758 1
4678 4677 5
4679 4599 5
4679 4680 3
4679 4759 1
4679 4678 5
4680 4600 3
4680 4681 2
4680 4760 2
4680 4679 4
4681 4601 5
4681 4682 4
4681 4761 3
4681 4680 1
4682 4602 5
4682 4683 2
4682 4762 4
4682 4681 2
4683 4603 2
4683 4684 2
4683 4763 2
4683 4682 5
4684 4604 5
4684 4685 5
4684 4764 2
4684 4683 1
4685 4605 2
4685 4686 4
4685 4765 3
4685 4684 3
4686 4606 3
4686 4687 4
4686 4766 1
4686 4685 1
4687 4607 3
4687 4688 1
4687 4767 3
4687 4686 2
4688 4608 5
4688 4689 5
4688 4768 4
4688 4687 1
4689 4609 3
4689 4690 1
4689 4769 3
4689 4688 2
4690 4610 4
4690 4691 4
4690 4770 4
4690 4689 4
4691 4611 1
4691 4692 5
4691 4771 1
4691 4690 1
4692 4612 2
4692 4693 4
4692 4772 1
4692 4691 1
4693 4613 2
4693 4694 1
4693 4773 5
4693 4692 2
4694 4614 3
4694 4695 4
4694 4774 4
4694 4693 5
4695 4615 1
4695 4696 1
4695 4775 4
4695 4694 2
4696 4616 4
4696 4697 1
4696 4776 3
4696 4695 2
4697 4617 1
4697 4698 2
4697 4777 2
4697 4696 3
4698 4618 3
4698 4699 3
4698 4778 1
4698 4697 4
4699 4619 5
4699 4700 5
4699 4779 2
4699 4698 4
4700 4620 5
4700 4701 1
4700 4780 4
4700 4699 4
4701 4621 4
4701 4702 5
4701 4781 2
4701 4700 5
4702 4622 2
4702 4703 5
4702 4782 3
4702 4701 3
4703 4623 1
4703 4704 1
4703 4783 2
4703 4702 3
4704 4624 5
4704 4705 1
4704 4784 5
4704 4703 4
4705 4625 2
4705 4706 3
4705 4785 3
4705 4704 2
4706 4626 4
4706 4707 5
4706 4786 5
4706 4705 2
4707 4627 4
4707 4708 1
4707 4787 2
4707 4706 2
4708 4628 3
4708 4709 5
4708 4788 1
4708 4707 1
4709 4629 1
4709 4710 3
4709 4789 4
4709 4708 1
4710 4630 5
4710 4711 1
4710 4790 5
4710 4709 3
4711 4631 5
4711 4712 5
4711 4791 1
4711 4710 3
4712 4632 3
4712 4713 5
4712 4792 2
4712 4711 1
4713 4633 4
4713 4714 3
4713 4793 5
4713 4712 2
4714 4634 4
4714 4715 5
4714 4794 5
4714 4713 5
4715 4635 4
4715 4716 5
4715 4795 5
4715 4714 4
4716 4636 3
4716 4717 5
4716 4796 5
4716 4715 5
4717 4637 4
4717 4718 1
4717 4797 5
4717 4716 3
4718 4638 2
4718 4719 5
4718 4798 3
4718 4717 5
4719 4639 4
4719 4799 5
4719 4718 2
4720 4640 2
4720 4721 3
4720 4800 5
4721 4641 1
4721 4722 3
4721 4801 1
4721 4720 5
4722 4642 3
4722 4723 5
4722 4802 5
4722 4721 2
4723 4643 2
4723 4724 2
4723 4803 1
4723 4722 2
4724 4644 2
4724 4725 3
4724 4804 2
4724 4723 4
4725 4645 4
4725 4726 5
4725 4805 5
4725 4724 1
4726 4646 4
4726 4727 5
4726 4806 1
4726 4725 5
4727 4647 4
4727 4728 2
4727 4807 4
4727 4726 1
4728 4648 4
4728 4729 4
4728 4808 1
4728 4727 4
4729 4649 2
4729 4730 2
4729 4809 3
4729 4728 5
4730 4650 2
4730 4731 5
4730 4810 5
4730 4729 2
4731 4651 3
4731 4732 5
4731 4811 3
4731 4730 2
4732 4652 5
4732 4733 2
4732 4812 5
4732 4731 1
4733 4653 3
4733 4734 1
4733 4813 3
4733 4732 4
4734 4654 1
4734 4735 2
4734 4814 5
4734 4733 5
4735 4655 4
4735 4736 3
4735 4815 1
4735 4734 5
4736 4656 2
4736 4737 4
4736 4816 5
4736 4735 3
4737 4657 5
4737 4738 2
4737 4817 4
4737 4736 3
4738 4658 1
4738 4739 5
4738 4818 4
4738 4737 5
4739 4659 4
4739 4740 3
4739 4819 4
4739 4738 1
4740 4660 2
4740 4741 1
4740 4820 5
4740 4739 4
4741 4661 4
4741 4742 1
4741 4821 2
4741 4740 2
4742 4662 5
4742 4743 3
4742 4822 5
4742 4741 3
4743 4663 1
4743 4744 3
4743 4823 2
4743 4742 3
4744 4664 4
4744 4745 5
4744 4824 2
4744 4743 2
4745 4665 5
4745 4746 3
4745 4825 5
4745 4744 3
4746 4666 1
4746 4747 1
4746 4826 2
4746 4745 4
4747 4667 2
4747 4748 1
4747 4827 1
4747 4746 5
4748 4668 4
4748 4749 5
4748 4828 4
4748 4747 4
4749 4669 1
4749 4750 1
4749 4829 1
4749 4748 4
4750 4670 5
4750 4751 2
4750 4830 1
4750 4749 1
4751 4671 2
4751 4752 5
4751 4831 3
4751 4750 1
4752 4672 1
4752 4753 1
4752 4832 4
4752 4751 5
4753 4673 1
4753 4754 5
4753 4833 3
4753 4752 1
4754 4674 3
4754 4755 5
4754 4834 1
4754 4753 3
4755 4675 1
4755 4756 4
4755 4835 4
4755 4754 2
4756 4676 5
4756 4757 2
4756 4836 5
4756 4755 4
4757 4677 4
4757 4758 2
4757 4837 1
4757 4756 3
4758 4678 2
4758 4759 3
4758 4838 3
4758 4757 1
4759 4679 4
4759 4760 4
4759 4839 4
4759 4758 5
4760 4680 3
4760 4761 4
4760 4840 2
4760 4759 1
4761 4681 4
4761 4762 2
4761 4841 4
4761 4760 4
4762 4682 2
4762 4763 5
4762 4842 2
4762 4761 3
4763 4683 1
4763 4764 5
4763 4843 1
4763 4762 4
4764 4684 4
4764 4765 4
4764 4844 1
4764 4763 2
4765 4685 5
4765 4766 5
4765 4845 1
4765 4764 3
4766 4686 1
4766 4767 4
4766 4846 5
4766 4765 5
4767 4687 3
4767 4768 1
4767 4847 2
4767 4766 2
4768 4688 2
4768 4769 4
4768 4848 2
4768 4767 1
4769 4689 2
4769 4770 3
4769 4849 3
4769 4768 2
4770 4690 2
4770 4771 3
4770 4850 4
4770 4769 1
4771 4691 4
4771 4772 5
4771 4851 1
4771 4770 4
4772 4692 1
4772 4773 2
4772 4852 2
4772 4771 1
4773 4693 1
4773 4774 5
4773 4853 2
4773 4772 1
4774 4694 4
4774 4775 1
4774 4854 2
4774 4773 4
4775 4695 2
4775 4776 5
4775 4855 3
4775 4774 2
4776 4696 4
4776 4777 4
4776 4856 5
4776 4775 5
4777 4697 3
4777 4778 4
4777 4857 1
4777 4776 2
4778 4698 2
4778 4779 4
4778 4858 1
4778 4777 5
4779 4699 3
4779 4780 3
4779 4859 3
4779 4778 5
4780 4700 1
4780 4781 2
4780 4860 5
4780 4779 3
4781 4701 1
4781 4782 2
4781 4861 4
4781 4780 3
4782 4702 5
4782 4783 1
4782 4862 1
4782 4781 4
4783 4703 3
4783 4784 3
4783 4863 1
4783 4782 2
4784 4704 4
4784 4785 2
4784 4864 3
4784 4783 1
4785 4705 4
4785 4786 4
4785 4865 5
4785 4784 1
4786 4706 2
4786 4787 4
4786 4866 4
4786 4785 5
4787 4707 2
4787 4788 2
4787 4867 1
4787 4786 1
4788 4708 2
4788 4789 1
4788 4868 4
4788 4787 5
4789 4709 5
4789 4790 2
4789 4869 1
4789 4788 2
4790 4710 3
4790 4791 5
4790 4870 4
4790 4789 2
4791 4711 5
4791 4792 5
4791 4871 3
4791 4790 4
4792 4712 5
4792 4793 4
4792 4872 2
4792 4791 4
4793 4713 2
4793 4794 5
4793 4873 2
4793 4792 1
4794 4714 5
4794 4795 2
4794 4874 5
4794 4793 3
4795 4715 4
4795 4796 1
4795 4875 3
4795 4794 2
4796 4716 5
4796 4797 4
4796 4876 1
4796 4795 4
4797 4717 5
4797 4798 5
4797 4877 4
4797 4796 4
4798 4718 1
4798 4799 4
4798 4878 4
4798 4797 1
4799 4719 4
4799 4879 4
4799 4798 2
4800 4720 4
4800 4801 5
4800 4880 2
4801 4721 1
4801 4802 3
4801 4881 1
4801 4800 4
4802 4722 5
4802 4803 2
4802 4882 1
4802 4801 2
4803 4723 2
4803 4804 2
4803 4883 3
4803 4802 3
4804 4724 2
4804 4805 1
4804 4884 4
4804 4803 3
4805 4725 1
4805 4806 3
4805 4885 5
4805 4804 4
4806 4726 1
4806 4807 3
4806 4886 4
4806 4805 5
4807 4727 2
4807 4808 1
4807 4887 5
4807 4806 2
4808 4728 1
4808 4809 5
4808 4888 2
4808 4807 3
4809 4729 5
4809 4810 4
4809 4889 4
4809 4808 5
4810 4730 1
4810 4811 5
4810 4890 5
4810 4809 5
4811 4731 3
4811 4812 2
4811 4891 4
4811 4810 5
4812 4732 5
4812 4813 5
4812 4892 3
4812 4811 5
4813 4733 1
4813 4814 2
4813 4893 2
4813 4812 1
4814 4734 3
4814 4815 1
4814 4894 5
4814 4813 2
4815 4735 5
4815 4816 4
4815 4895 5
4815 4814 3
4816 4736 5
4816 4817 3
4816 4896 2
4816 4815 3
4817 4737 5
4817 4818 3
4817 4897 5
4817 4816 5
4818 4738 5
4818 4819 1
4818 4898 1
4818 4817 3
4819 4739 3
4819 4820 4
4819 4899 5
4819 4818 5
4820 4740 4
4820 4821 1
4820 4900 4
4820 4819 1
4821 4741 3
4821 4822 2
4821 4901 2
4821 4820 5
4822 4742 4
4822 4823 4
4822 4902 4
4822 4821 4
4823 4743 2
4823 4824 5
4823 4903 2
4823 4822 1
4824 4744 5
4824 4825 4
4824 4904 3
4824 4823 4
4825 4745 1
4825 4826 5
4825 4905 1
4825 4824 4
4826 4746 4
4826 4827 5
4826 4906 5
4826 4825 4
4827 4747 4
4827 4828 5
4827 4907 2
4827 4826 5
4828 4748 5
4828 4829 4
4828 4908 5
4828 4827 4
4829 4749 2
4829 4830 2
4829 4909 3
4829 4828 5
4830 4750 5
4830 4831 2
4830 4910 4
4830 4829 1
4831 4751 5
4831 4832 3
4831 4911 5
4831 4830 1
4832 4752 4
4832 4833 2
4832 4912 2
4832 4831 3
4833 4753 1
4833 4834 3
4833 4913 1
4833 4832 3
4834 4754 4
4834 4835 4
4834 4914 5
4834 4833 3
4835 4755 4
4835 4836 5
4835 4915 1
4835 4834 1
4836 4756 1
4836 4837 2
4836 4916 3
4836 4835 5
4837 4757 2
4837 4838 3
4837 4917 3
4837 4836 3
4838 4758 3
4838 4839 2
4838 4918 5
4838 4837 4
4839 4759 4
4839 4840 5
4839 4919 4
4839 4838 2
4840 4760 2
4840 4841 3
4840 4920 5
4840 4839 3
4841 4761 2
4841 4842 2
4841 4921 2
4841 4840 5
4842 4762 5
4842 4843 3
4842 4922 4
4842 4841 2
4843 4763 2
4843 4844 5
4843 4923 5
4843 4842 1
4844 4764 3
4844 4845 4
4844 4924 2
4844 4843 3
4845 4765 1
4845 4846 3
4845 4925 2
4845 4844 5
4846 4766 3
4846 4847 4
4846 4926 2
4846 4845 3
4847 4767 4
4847 4848 2
4847 4927 5
4847 4846 2
4848 4768 4
4848 4849 5
4848 4928 2
4848 4847 2
4849 4769 3
4849 4850 5
4849 4929 5
4849 4848 3
4850 4770 1
4850 4851 2
4850 4930 5
4850 4849 1
4851 4771 5
4851 4852 4
4851 4931 3
4851 4850 3
4852 4772 1
4852 4853 4
4852 4932 5
4852 4851 3
4853 4773 4
4853 4854 5
4853 4933 3
4853 4852 1
4854 4774 5
4854 4855 3
4854 4934 4
4854 4853 3
4855 4775 3
4855 4856 2
4855 4935 1
4855 4854 2
4856 4776 3
4856 4857 5
4856 4936 1
4856 4855 5
4857 4777 5
4857 4858 1
4857 4937 1
4857 4856 4
4858 4778 5
4858 4859 4
4858 4938 2
4858 4857 1
4859 4779 2
4859 4860 5
4859 4939 3
4859 4858 5
4860 4780 2
4860 4861 3
4860 4940 1
4860 4859 1
4861 4781 3
4861 4862 2
4861 4941 4
4861 4860 3
4862 4782 1
4862 4863 3
4862 4942 3
4862 4861 4
4863 4783 1
4863 4864 3
4863 4943 3
4863 4862 2
4864 4784 1
4864 4865 2
4864 4944 2
4864 4863 3
4865 4785 5
4865 4866 2
4865 4945 4
4865 4864 4
4866 4786 5
4866 4867 1
4866 4946 2
4866 4865 4
4867 4787 4
4867 4868 3
4867 4947 1
4867 4866 1
4868 4788 5
4868 4869 3
4868 4948 2
4868 4867 1
4869 4789 3
4869 4870 1
4869 4949 1
4869 4868 3
4870 4790 2
4870 4871 4
4870 4950 4
4870 4869 5
4871 4791 5
4871 4872 1
4871 4951 5
4871 4870 5
4872 4792 4
4872 4873 5
4872 4952 1
4872 4871 5
4873 4793 2
4873 4874 4
4873 4953 1
4873 4872 3
4874 4794 3
4874 4875 2
4874 4954 2
4874 4873 5
4875 4795 5
4875 4876 5
4875 4955 3
4875 4874 4
4876 4796 2
4876 4877 2
4876 4956 3
4876 4875 5
4877 4797 4
4877 4878 4
4877 4957 1
4877 4876 3
4878 4798 5
4878 4879 5
4878 4958 4
4878 4877 4
4879 4799 5
4879 4959 4
4879 4878 3
4880 4800 3
4880 4881 2
4880 4960 2
4881 4801 4
4881 4882 3
4881 4961 5
4881 4880 3
4882 4802 3
4882 4883 5
4882 4962 3
4882 4881 5
4883 4803 4
4883 4884 3
4883 4963 3
4883 4882 5
4884 4804 3
4884 4885 2
4884 4964 5
4884 4883 2
4885 4805 3
4885 4886 5
4885 4965 1
4885 4884 1
4886 4806 4
4886 4887 3
4886 4966 1
4886 4885 2
4887 4807 1
4887 4888 1
4887 4967 1
4887 4886 2
4888 4808 3
4888 4889 3
4888 4968 2
4888 4887 5
4889 4809 2
4889 4890 1
4889 4969 2
4889 4888 2
4890 4810 1
4890 4891 3
4890 4970 3
4890 4889 1
4891 4811 2
4891 4892 1
4891 4971 3
4891 4890 3
4892 4812 4
4892 4893 1
4892 4972 5
4892 4891 2
4893 4813 4
4893 4894 5
4893 4973 2
4893 4892 1
4894 4814 3
4894 4895 3
4894 4974 3
4894 4893 5
4895 4815 5
4895 4896 5
4895 4975 4
4895 4894 4
4896 4816 5
4896 4897 5
4896 4976 4
4896 4895 2
4897 4817 4
4897 4898 2
4897 4977 4
4897 4896 4
4898 4818 4
4898 4899 3
4898 4978 4
4898 4897 2
4899 4819 1
4899 4900 2
4899 4979 3
4899 4898 5
4900 4820 2
4900 4901 3
4900 4980 3
4900 4899 2
4901 4821 1
4901 4902 5
4901 4981 2
4901 4900 2
4902 4822 5
4902 4903 1
4902 4982 2
4902 4901 2
4903 4823 1
4903 4904 2
4903 4983 2
4903 4902 5
4904 4824 2
4904 4905 1
4904 4984 3
4904 4903 5
4905 4825 1
4905 4906 1
4905 4985 4
4905 4904 1
4906 4826 1
4906 4907 5
4906 4986 2
4906 4905 4
4907 4827 3
4907 4908 4
4907 4987 2
4907 4906 2
4908 4828 5
4908 4909 4
4908 4988 3
4908 4907 1
4909 4829 5
4909 4910 2
4909 4989 4
4909 4908 4
4910 4830 5
4910 4911 1
4910 4990 4
4910 4909 2
4911 4831 2
4911 4912 3
4911 4991 4
4911 4910 4
4912 4832 3
4912 4913 3
4912 4992 3
4912 4911 5
4913 4833 3
4913 4914 4
4913 4993 2
4913 4912 4
4914 4834 2
4914 4915 5
4914 4994 1
4914 4913 3
4915 4835 2
4915 4916 5
4915 4995 1
4915 4914 5
4916 4836 4
4916 4917 4
4916 4996 5
4916 4915 2
4917 4837 1
4917 4918 4
4917 4997 1
4917 4916 5
4918 4838 2
4918 4919 4
4918 4998 1
4918 4917 4
4919 4839 2
4919 4920 1
4919 4999 4
4919 4918 2
4920 4840 2
4920 4921 4
4920 5000 2
4920 4919 5
4921 4841 5
4921 4922 2
4921 5001 1
4921 4920 3
4922 4842 2
4922 4923 2
4922 5002 2
4922 4921 5
4923 4843 5
4923 4924 5
4923 5003 2
4923 4922 4
4924 4844 2
4924 4925 1
4924 5004 4
4924 4923 3
4925 4845 5
4925 4926 1
4925 5005 3
4925 4924 2
4926 4846 5
4926 4927 5
4926 5006 2
4926 4925 2
4927 4847 2
4927 4928 3
4927 5007 3
4927 4926 2
4928 4848 5
4928 4929 5
4928 5008 2
4928 4927 3
4929 4849 5
4929 4930 3
4929 5009 3
4929 4928 4
4930 4850 1
4930 4931 4
4930 5010 4
4930 4929 4
4931 4851 2
4931 4932 2
4931 5011 4
4931 4930 3
4932 4852 2
4932 4933 1
4932 5012 5
4932 4931 3
4933 4853 3
4933 4934 3
4933 5013 5
4933 4932 4
4934 4854 5
4934 4935 1
4934 5014 2
4934 4933 4
4935 4855 5
4935 4936 5
4935 5015 4
4935 4934 1
4936 4856 2
4936 4937 5
4936 5016 2
4936 4935 4
4937 4857 1
4937 4938 2
4937 5017 1
4937 4936 3
4938 4858 2
4938 4939 5
4938 5018 4
4938 4937 5
4939 4859 4
4939 4940 1
4939 5019 2
4939 4938 4
4940 4860 3
4940 4941 2
4940 5020 5
4940 4939 5
4941 4861 5
4941 4942 2
4941 5021 2
4941 4940 2
4942 4862 1
4942 4943 1
4942 5022 2
4942 4941 3
4943 4863 4
4943 4944 1
4943 5023 5
4943 4942 2
4944 4864 2
4944 4945 1
4944 5024 1
4944 4943 3
4945 4865 5
4945 4946 4
4945 5025 5
4945 4944 4
4946 4866 5
4946 4947 5
4946 5026 5
4946 4945 5
4947 4867 4
4947 4948 3
4947 5027 2
4947 4946 3
4948 4868 5
4948 4949 3
4948 5028 2
4948 4947 2
4949 4869 5
4949 4950 4
4949 5029 1
4949 4948 1
4950 4870 2
4950 4951 1
4950 5030 3
4950 4949 3
4951 4871 2
4951 4952 4
4951 5031 1
4951 4950 5
4952 4872 5
4952 4953 3
4952 5032 1
4952 4951 4
4953 4873 1
4953 4954 3
4953 5033 2
4953 4952 2
4954 4874 5
4954 4955 1
4954 5034 1
4954 4953 2
4955 4875 5
4955 4956 2
4955 5035 5
4955 4954 3
4956 4876 1
4956 4957 1
4956 5036 3
4956 4955 2
4957 4877 4
4957 4958 3
4957 5037 5
4957 4956 2
4958 4878 1
4958 4959 5
4958 5038 2
4958 4957 1
4959 4879 5
4959 5039 4
4959 4958 4
4960 4880 1
4960 4961 2
4960 5040 5
4961 4881 4
4961 4962 1
4961 5041 5
4961 4960 1
4962 4882 2
4962 4963 4
4962 5042 1
4962 4961 2
4963 4883 2
4963 4964 1
4963 5043 2
4963 4962 2
4964 4884 1
4964 4965 4
4964 5044 4
4964 4963 4
4965 4885 2
4965 4966 1
4965 5045 1
4965 4964 5
4966 4886 1
4966 4967 1
4966 5046 1
4966 4965 4
4967 4887 4
4967 4968 1
4967 5047 2
4967 4966 2
4968 4888 1
4968 4969 1
4968 5048 5
4968 4967 1
4969 4889 4
4969 4970 2
4969 5049 3
4969 4968 5
4970 4890 4
4970 4971 2
4970 5050 2
4970 4969 5
4971 4891 2
4971 4972 1
4971 5051 3
4971 4970 5
4972 4892 2
4972 4973 4
4972 5052 4
4972 4971 3
4973 4893 2
4973 4974 5
4973 5053 1
4973 4972 2
4974 4894 4
4974 4975 3
4974 5054 5
4974 4973 1
4975 4895 2
4975 4976 3
4975 5055 2
4975 4974 1
4976 4896 1
4976 4977 3
4976 5056 1
4976 4975 5
4977 4897 4
4977 4978 5
4977 5057 2
4977 4976 3
4978 4898 1
4978 4979 5
4978 5058 3
4978 4977 2
4979 4899 2
4979 4980 5
4979 5059 3
4979 4978 4
4980 4900 2
4980 4981 1
4980 5060 5
4980 4979 2
4981 4901 3
4981 4982 3
4981 5061 4
4981 4980 1
4982 4902 1
4982 4983 2
4982 5062 5
4982 4981 5
4983 4903 3
4983 4984 2
4983 5063 5
4983 4982 4
4984 4904 1
4984 4985 1
4984 5064 2
4984 4983 4
4985 4905 1
4985 4986 2
4985 5065 3
4985 4984 2
4986 4906 4
4986 4987 3
4986 5066 5
4986 4985 3
4987 4907 5
4987 4988 3
4987 5067 4
4987 4986 3
4988 4908 2
4988 4989 2
4988 5068 1
4988 4987 3
4989 4909 1
4989 4990 2
4989 5069 1
4989 4988 2
4990 4910 4
4990 4991 1
4990 5070 4
4990 4989 1
4991 4911 3
4991 4992 5
4991 5071 2
4991 4990 4
4992 4912 2
4992 4993 5
4992 5072 4
4992 4991 3
4993 4913 1
4993 4994 2
4993 5073 5
4993 4992 5
4994 4914 1
4994 4995 4
4994 5074 1
4994 4993 4
4995 4915 4
4995 4996 5
4995 5075 1
4995 4994 4
4996 4916 2
4996 4997 2
4996 5076 2
4996 4995 3
4997 4917 5
4997 4998 1
4997 5077 3
4997 4996 3
4998 4918 3
4998 4999 2
4998 5078 1
4998 4997 2
4999 4919 3
4999 5000 1
4999 5079 2
4999 4998 1
5000 4920 1
5000 5001 1
5000 5080 5
5000 4999 3
5001 4921 4
5001 5002 4
5001 5081 5
5001 5000 4
5002 4922 3
5002 5003 4
5002 5082 3
5002 5001 5
5003 4923 1
5003 5004 3
5003 5083 4
5003 5002 5
5004 4924 3
5004 5005 3
5004 5084 3
5004 5003 4
5005 4925 2
5005 5006 2
5005 5085 3
5005 5004 4
5006 4926 1
5006 5007 2
5006 5086 3
5006 5005 4
5007 4927 4
5007 5008 1
5007 5087 1
5007 5006 1
5008 4928 5
5008 5009 1
5008 5088 1
5008 5007 5
5009 4929 1
5009 5010 1
5009 5089 2
5009 5008 1
5010 4930 4
5010 5011 5
5010 5090 2
5010 5009 1
5011 4931 4
5011 5012 4
5011 5091 3
5011 5010 1
5012 4932 4
5012 5013 2
5012 5092 4
5012 5011 5
5013 4933 1
5013 5014 5
5013 5093 1
5013 5012 5
5014 4934 1
5014 5015 3
5014 5094 4
5014 5013 1
5015 4935 2
5015 5016 5
5015 5095 1
5015 5014 1
5016 4936 3
5016 5017 1
5016 5096 4
5016 5015 1
5017 4937 2
5017 5018 5
5017 5097 1
5017 5016 4
5018 4938 4
5018 5019 1
5018 5098 2
5018 5017 1
5019 4939 4
5019 5020 2
5019 5099 3
5019 5018 1
5020 4940 1
5020 5021 3
5020 5100 3
5020 5019 5
5021 4941 3
5021 5022 4
5021 5101 3
5021 5020 2
5022 4942 4
5022 5023 2
5022 5102 1
5022 5021 2
5023 4943 1
5023 5024 1
5023 5103 5
5023 5022 4
5024 4944 2
5024 5025 3
5024 5104 5
5024 5023 5
5025 4945 3
5025 5026 4
5025 5105 4
5025 5024 4
5026 4946 5
5026 5027 3
5026 5106 4
5026 5025 1
5027 4947 2
5027 5028 1
5027 5107 5
5027 5026 1
5028 4948 3
5028 5029 2
5028 5108 2
5028 5027 5
5029 4949 4
5029 5030 2
5029 5109 4
5029 5028 3
5030 4950 4
5030 5031 4
5030 5110 4
5030 5029 2
5031 4951 1
5031 5032 3
5031 5111 5
5031 5030 1
5032 4952 5
5032 5033 2
5032 5112 2
5032 5031 4
5033 4953 1
5033 5034 1
5033 5113 1
5033 5032 3
5034 4954 4
5034 5035 4
5034 5114 4
5034 5033 1
5035 4955 3
5035 5036 3
5035 5115 5
5035 5034 1
5036 4956 1
5036 5037 1
5036 5116 1
5036 5035 4
5037 4957 5
5037 5038 4
5037 5117 4
5037 5036 1
5038 4958 3
5038 5039 1
5038 5118 1
5038 5037 3
5039 4959 5
5039 5119 2
5039 5038 5
5040 4960 5
5040 5041 1
5040 5120 5
5041 4961 3
5041 5042 5
5041 5121 1
5041 5040 3
5042 4962 2
5042 5043 1
5042 5122 3
5042 5041 2
5043 4963 1
5043 5044 3
5043 5123 5
5043 5042 5
5044 4964 5
5044 5045 1
5044 5124 5
5044 5043 3
5045 4965 5
5045 5046 4
5045 5125 4
5045 5044 5
5046 4966 5
5046 5047 4
5046 5126 2
5046 5045 1
5047 4967 2
5047 5048 4
5047 5127 5
5047 5046 4
5048 4968 1
5048 5049 4
5048 5128 4
5048 5047 5
5049 4969 5
5049 5050 3
5049 5129 1
5049 5048 4
5050 4970 4
5050 5051 1
5050 5130 2
5050 5049 2
5051 4971 4
5051 5052 3
5051 5131 1
5051 5050 4
5052 4972 4
5052 5053 5
5052 5132 3
5052 5051 2
5053 4973 2
5053 5054 2
5053 5133 3
5053 5052 4
5054 4974 2
5054 5055 2
5054 5134 5
5054 5053 5
5055 4975 5
5055 5056 3
5055 5135 5
5055 5054 5
5056 4976 1
5056 5057 5
5056 5136 4
5056 5055 1
5057 4977 1
5057 5058 3
5057 5137 2
5057 5056 4
5058 4978 2
5058 5059 1
5058 5138 2
5058 5057 4
5059 4979 1
5059 5060 5
5059 5139 4
5059 5058 5
5060 4980 2
5060 5061 1
5060 5140 1
5060 5059 4
5061 4981 1
5061 5062 2
5061 5141 1
5061 5060 3
5062 4982 1
5062 5063 5
5062 5142 1
5062 5061 2
5063 4983 3
5063 5064 5
5063 5143 5
5063 5062 5
5064 4984 5
5064 5065 5
5064 5144 5
5064 5063 4
5065 4985 2
5065 5066 1
5065 5145 1
5065 5064 4
5066 4986 1
5066 5067 5
5066 5146 5
5066 5065 5
5067 4987 3
5067 5068 5
5067 5147 1
5067 5066 1
5068 4988 5
5068 5069 4
5068 5148 3
5068 5067 3
5069 4989 5
5069 5070 2
5069 5149 2
5069 5068 1
5070 4990 4
5070 5071 3
5070 5150 5
5070 5069 5
5071 4991 2
5071 5072 5
5071 5151 4
5071 5070 5
5072 4992 3
5072 5073 4
5072 5152 1
5072 5071 5
5073 4993 2
5073 5074 1
5073 5153 1
5073 5072 3
5074 4994 5
5074 5075 1
5074 5154 4
5074 5073 4
5075 4995 3
5075 5076 4
5075 5155 1
5075 5074 2
5076 4996 2
5076 5077 4
5076 5156 5
5076 5075 1
5077 4997 3
5077 5078 5
5077 5157 4
5077 5076 1
5078 4998 1
5078 5079 2
5078 5158 5
5078 5077 4
5079 4999 5
5079 5080 3
5079 5159 2
5079 5078 5
5080 5000 4
5080 5081 5
5080 5160 5
5080 5079 2
5081 5001 4
5081 5082 4
5081 5161 5
5081 5080 4
5082 5002 1
5082 5083 3
5082 5162 1
5082 5081 5
5083 5003 3
5083 5084 2
5083 5163 1
5083 5082 3
5084 5004 1
5084 5085 5
5084 5164 4
5084 5083 1
5085 5005 3
5085 5086 4
5085 5165 1
5085 5084 4
5086 5006 5
5086 5087 2
5086 5166 2
5086 5085 4
5087 5007 3
5087 5088 5
5087 5167 5
5087 5086 2
5088 5008 3
5088 5089 4
5088 5168 3
5088 5087 1
5089 5009 4
5089 5090 5
5089 5169 4
5089 5088 2
5090 5010 3
5090 5091 1
5090 5170 5
5090 5089 4
5091 5011 3
5091 5092 5
5091 5171 4
5091 5090 4
5092 5012 5
5092 5093 2
5092 5172 3
5092 5091 5
5093 5013 4
5093 5094 1
5093 5173 3
5093 5092 4
5094 5014 5
5094 5095 3
5094 5174 2
5094 5093 1
5095 5015 4
5095 5096 1
5095 5175 2
5095 5094 5
5096 5016 3
5096 5097 1
5096 5176 4
5096 5095 2
5097 5017 2
5097 5098 3
5097 5177 5
5097 5096 2
5098 5018 4
5098 5099 3
5098 5178 5
5098 5097 5
5099 5019 2
5099 5100 1
5099 5179 5
5099 5098 5
5100 5020 2
5100 5101 3
5100 5180 5
5100 5099 4
5101 5021 5
5101 5102 5
5101 5181 2
5101 5100 5
5102 5022 1
5102 5103 4
5102 5182 2
5102 5101 3
5103 5023 4
5103 5104 4
5103 5183 2
5103 5102 5
5104 5024 4
5104 5105 5
5104 5184 5
5104 5103 1
5105 5025 4
5105 5106 1
5105 5185 5
5105 5104 1
5106 5026 1
5106 5107 3
5106 5186 1
5106 5105 2
5107 5027 1
5107 5108 5
5107 5187 2
5107 5106 3
5108 5028 5
5108 5109 2
5108 5188 2
5108 5107 4
5109 5029 1
5109 5110 2
5109 5189 2
5109 5108 4
5110 5030 4
5110 5111 1
5110 5190 3
5110 5109 2
5111 5031 2
5111 5112 1
5111 5191 3
5111 5110 3
5112 5032 5
5112 5113 5
5112 5192 1
5112 5111 4
5113 5033 3
5113 5114 1
5113 5193 2
5113 5112 3
5114 5034 3
5114 5115 3
5114 5194 4
5114 5113 2
5115 5035 3
5115 5116 1
5115 5195 5
5115 5114 1
5116 5036 4
5116 5117 3
5116 5196 1
5116 5115 2
5117 5037 3
5117 5118 3
5117 5197 1
5117 5116 5
5118 5038 4
5118 5119 4
5118 5198 1
5118 5117 4
5119 5039 4
5119 5199 1
5119 5118 5
5120 5040 2
5120 5121 3
5120 5200 5
5121 5041 5
5121 5122 5
5121 5201 5
5121 5120 1
5122 5042 5
5122 5123 5
5122 5202 1
5122 5121 4
5123 5043 4
5123 5124 5
5123 5203 2
5123 5122 1
5124 5044 3
5124 5125 1
5124 5204 4
5124 5123 3
5125 5045 4
5125 5126 5
5125 5205 1
5125 5124 2
5126 5046 3
5126 5127 5
5126 5206 2
5126 5125 4
5127 5047 4
5127 5128 3
5127 5207 5
5127 5126 4
5128 5048 5
5128 5129 5
5128 5208 5
5128 5127 2
5129 5049 5
5129 5130 4
5129 5209 5
5129 5128 5
5130 5050 4
5130 5131 3
5130 5210 5
5130 5129 4
5131 5051 5
5131 5132 3
5131 5211 1
5131 5130 3
5132 5052 3
5132 5133 5
5132 5212 3
5132 5131 3
5133 5053 1
5133 5134 1
5133 5213 1
5133 5132 5
5134 5054 2
5134 5135 5
5134 5214 2
5134 5133 1
5135 5055 4
5135 5136 3
5135 5215 2
5135 5134 4
5136 5056 1
5136 5137 3
5136 5216 1
5136 5135 1
5137 5057 4
5137 5138 1
5137 5217 4
5137 5136 1
5138 5058 2
5138 5139 5
5138 5218 5
5138 5137 5
5139 5059 4
5139 5140 2
5139 5219 4
5139 5138 3
5140 5060 2
5140 5141 4
5140 5220 2
5140 5139 1
5141 5061 5
5141 5142 5
5141 5221 3
5141 5140 3
5142 5062 3
5142 5143 5
5142 5222 1
5142 5141 4
5143 5063 4
5143 5144 1
5143 5223 1
5143 5142 1
5144 5064 5
5144 5145 5
5144 5224 3
5144 5143 2
5145 5065 3
5145 5146 5
5145 5225 5
5145 5144 3
5146 5066 2
5146 5147 1
5146 5226 3
5146 5145 4
5147 5067 4
5147 5148 3
5147 5227 5
5147 5146 5
5148 5068 4
5148 5149 4
5148 5228 4
5148 5147 4
5149 5069 1
5149 5150 3
5149 5229 4
5149 5148 3
5150 5070 2
5150 5151 1
5150 5230 3
5150 5149 3
5151 5071 4
5151 5152 3
5151 5231 4
5151 5150 4
5152 5072 3
5152 5153 5
5152 5232 1
5152 5151 5
5153 5073 4
5153 5154 3
5153 5233 3
5153 5152 2
5154 5074 2
5154 5155 5
5154 5234 5
5154 5153 1
5155 5075 4
5155 5156 2
5155 5235 2
5155 5154 3
5156 5076 3
5156 5157 4
5156 5236 4
5156 5155 2
5157 5077 2
5157 5158 4
5157 5237 3
5157 5156 3
5158 5078 1
5158 5159 1
5158 5238 4
5158 5157 3
5159 5079 5
5159 5160 5
5159 5239 3
5159 5158 2
5160 5080 1
5160 5161 1
5160 5240 4
5160 5159 2
5161 5081 2
5161 5162 1
5161 5241 2
5161 5160 2
5162 5082 3
5162 5163 2
5162 5242 4
5162 5161 4
5163 5083 4
5163 5164 4
5163 5243 3
5163 5162 4
5164 5084 2
5164 5165 3
5164 5244 5
5164 5163 1
5165 5085 4
5165 5166 1
5165 5245 1
5165 5164 1
5166 5086 2
5166 5167 3
5166 5246 1
5166 5165 1
5167 5087 3
5167 5168 5
5167 5247 3
5167 5166 5
5168 5088 5
5168 5169 4
5168 5248 1
5168 5167 1
5169 5089 5
5169 5170 1
5169 5249 1
5169 5168 4
5170 5090 5
5170 5171 5
5170 5250 4
5170 5169 4
5171 5091 4
5171 5172 5
5171 5251 2
5171 5170 2
5172 5092 1
5172 5173 2
5172 5252 5
5172 5171 5
5173 5093 3
5173 5174 4
5173 5253 1
5173 5172 3
5174 5094 4
5174 5175 2
5174 5254 4
5174 5173 3
5175 5095 2
5175 5176 4
5175 5255 1
5175 5174 2
5176 5096 1
5176 5177 2
5176 5256 1
5176 5175 2
5177 5097 5
5177 5178 3
5177 5257 2
5177 5176 4
5178 5098 3
5178 5179 2
5178 5258 4
5178 5177 3
5179 5099 5
5179 5180 4
5179 5259 5
5179 5178 1
5180 5100 4
5180 5181 5
5180 5260 3
5180 5179 2
5181 5101 3
5181 5182 3
5181 5261 5
5181 5180 2
5182 5102 3
5182 5183 2
5182 5262 1
5182 5181 5
5183 5103 2
5183 5184 5
5183 5263 3
5183 5182 3
5184 5104 3
5184 5185 3
5184 5264 1
5184 5183 1
5185 5105 4
5185 5186 3
5185 5265 3
5185 5184 3
5186 5106 3
5186 5187 4
5186 5266 3
5186 5185 2
5187 5107 2
5187 5188 1
5187 5267 1
5187 5186 2
5188 5108 2
5188 5189 2
5188 5268 4
5188 5187 3
5189 5109 5
5189 5190 5
5189 5269 4
5189 5188 5
5190 5110 1
5190 5191 4
5190 5270 4
5190 5189 4
5191 5111 2
5191 5192 2
5191 5271 3
5191 5190 2
5192 5112 4
5192 5193 2
5192 5272 1
5192 5191 2
5193 5113 5
5193 5194 5
5193 5273 4
5193 5192 2
5194 5114 1
5194 5195 4
5194 5274 3
5194 5193 1
5195 5115 5
5195 5196 1
5195 5275 1
5195 5194 5
5196 5116 4
5196 5197 2
5196 5276 1
5196 5195 3
5197 5117 3
5197 5198 2
5197 5277 1
5197 5196 4
5198 5118 5
5198 5199 2
5198 5278 3
5198 5197 5
5199 5119 5
5199 5279 2
5199 5198 3
5200 5120 5
5200 5201 2
5200 5280 3
5201 5121 2
5201 5202 3
5201 5281 1
5201 5200 1
5202 5122 1
5202 5203 5
5202 5282 1
5202 5201 4
5203 5123 4
5203 5204 4
5203 5283 5
5203 5202 3
5204 5124 5
5204 5205 1
5204 5284 4
5204 5203 3
5205 5125 2
5205 5206 3
5205 5285 3
5205 5204 3
5206 5126 3
5206 5207 3
5206 5286 3
5206 5205 4
5207 5127 1
5207 5208 5
5207 5287 2
5207 5206 5
5208 5128 3
5208 5209 1
5208 5288 4
5208 5207 5
5209 5129 5
5209 5210 2
5209 5289 4
5209 5208 5
5210 5130 1
5210 5211 1
5210 5290 3
5210 5209 2
5211 5131 5
5211 5212 1
5211 5291 2
5211 5210 5
5212 5132 4
5212 5213 5
5212 5292 5
5212 5211 3
5213 5133 5
5213 5214 4
5213 5293 5
5213 5212 5
5214 5134 5
5214 5215 4
5214 5294 5
5214 5213 5
5215 5135 5
5215 5216 2
5215 5295 5
5215 5214 1
5216 5136 3
5216 5217 3
5216 5296 4
5216 5215 5
5217 5137 2
5217 5218 4
5217 5297 1
5217 5216 3
5218 5138 4
5218 5219 2
5218 5298 3
5218 5217 4
5219 5139 2
5219 5220 1
5219 5299 1
5219 5218 5
5220 5140 5
5220 5221 4
5220 5300 3
5220 5219 2
5221 5141 3
5221 5222 2
5221 5301 2
5221 5220 5
5222 5142 2
5222 5223 5
5222 5302 4
5222 5221 2
5223 5143 5
5223 5224 2
5223 5303 2
5223 5222 5
5224 5144 1
5224 5225 2
5224 5304 1
5224 5223 5
5225 5145 4
5225 5226 1
5225 5305 4
5225 5224 2
5226 5146 5
5226 5227 2
5226 5306 2
5226 5225 5
5227 5147 5
5227 5228 1
5227 5307 5
5227 5226 5
5228 5148 2
5228 5229 2
5228 5308 2
5228 5227 1
5229 5149 1
5229 5230 1
5229 5309 1
5229 5228 2
5230 5150 2
5230 5231 2
5230 5310 1
5230 5229 1
5231 5151 1
5231 5232 5
5231 5311 4
5231 5230 4
5232 5152 4
5232 5233 4
5232 5312 1
5232 5231 1
5233 5153 1
5233 5234 5
5233 5313 5
5233 5232 5
5234 5154 4
5234 5235 4
5234 5314 1
5234 5233 1
5235 5155 5
5235 5236 1
5235 5315 3
5235 5234 2
5236 5156 3
5236 5237 4
5236 5316 1
5236 5235 3
5237 5157 1
5237 5238 2
5237 5317 5
5237 5236 3
5238 5158 3
5238 5239 2
5238 5318 1
5238 5237 5
5239 5159 5
5239 5240 1
5239 5319 4
5239 5238 3
5240 5160 4
5240 5241 5
5240 5320 2
5240 5239 2
5241 5161 3
5241 5242 3
5241 5321 4
5241 5240 5
5242 5162 3
5242 5243 1
5242 5322 1
5242 5241 1
5243 5163 2
5243 5244 1
5243 5323 4
5243 5242 4
5244 5164 2
5244 5245 1
5244 5324 3
5244 5243 3
5245 5165 3
5245 5246 5
5245 5325 4
5245 5244 4
5246 5166 1
5246 5247 3
5246 5326 1
5246 5245 1
5247 5167 4
5247 5248 4
5247 5327 4
5247 5246 4
5248 5168 3
5248 5249 1
5248 5328 1
5248 5247 1
5249 5169 4
5249 5250 3
5249 5329 3
5249 5248 1
5250 5170 1
5250 5251 2
5250 5330 3
5250 5249 1
5251 5171 4
5251 5252 5
5251 5331 3
5251 5250 1
5252 5172 4
5252 5253 5
5252 5332 5
5252 5251 3
5253 5173 5
5253 5254 4
5253 5333 1
5253 5252 5
5254 5174 5
5254 5255 1
5254 5334 3
5254 5253 5
5255 5175 2
5255 5256 4
5255 5335 4
5255 5254 5
5256 5176 2
5256 5257 3
5256 5336 5
5256 5255 2
5257 5177 4
5257 5258 5
5257 5337 5
5257 5256 5
5258 5178 5
5258 5259 4
5258 5338 2
5258 5257 4
5259 5179 5
5259 5260 4
5259 5339 1
5259 5258 5
5260 5180 2
5260 5261 5
5260 5340 4
5260 5259 5
5261 5181 5
5261 5262 5
5261 5341 5
5261 5260 1
5262 5182 4
5262 5263 5
5262 5342 4
5262 5261 5
5263 5183 1
5263 5264 3
5263 5343 1
5263 5262 3
5264 5184 5
5264 5265 4
5264 5344 2
5264 5263 3
5265 5185 4
5265 5266 1
5265 5345 5
5265 5264 4
5266 5186 4
5266 5267 1
5266 5346 5
5266 5265 2
5267 5187 2
5267 5268 1
5267 5347 1
5267 5266 2
5268 5188 4
5268 5269 3
5268 5348 4
5268 5267 5
5269 5189 5
5269 5270 5
5269 5349 2
5269 5268 4
5270 5190 1
5270 5271 3
5270 5350 1
5270 5269 5
5271 5191 1
5271 5272 5
5271 5351 3
5271 5270 2
5272 5192 1
5272 5273 4
5272 5352 3
5272 5271 3
5273 5193 5
5273 5274 3
5273 5353 1
5273 5272 4
5274 5194 4
5274 5275 4
5274 5354 3
5274 5273 1
5275 5195 2
5275 5276 4
5275 5355 3
5275 5274 4
5276 5196 5
5276 5277 2
5276 5356 1
5276 5275 1
5277 5197 5
5277 5278 5
5277 5357 2
5277 5276 3
5278 5198 1
5278 5279 5
5278 5358 5
5278 5277 4
5279 5199 2
5279 5359 4
5279 5278 3
5280 5200 2
5280 5281 2
5280 5360 2
5281 5201 5
5281 5282 4
5281 5361 3
5281 5280 5
5282 5202 5
5282 5283 1
5282 5362 4
5282 5281 1
5283 5203 3
5283 5284 3
5283 5363 3
5283 5282 2
5284 5204 1
5284 5285 5
5284 5364 3
5284 5283 3
5285 5205 3
5285 5286 4
5285 5365 1
5285 5284 3
5286 5206 4
5286 5287 5
5286 5366 2
5286 5285 1
5287 5207 5
5287 5288 2
5287 5367 2
5287 5286 3
5288 5208 4
5288 5289 1
5288 5368 5
5288 5287 1
5289 5209 1
5289 5290 1
5289 5369 4
5289 5288 2
5290 5210 3
5290 5291 4
5290 5370 3
5290 5289 1
5291 5211 4
5291 5292 2
5291 5371 2
5291 5290 2
5292 5212 3
5292 5293 4
5292 5372 2
5292 5291 5
5293 5213 2
5293 5294 5
5293 5373 5
5293 5292 3
5294 5214 3
5294 5295 1
5294 5374 1
5294 5293 1
5295 5215 4
5295 5296 5
5295 5375 5
5295 5294 2
5296 5216 2
5296 5297 3
5296 5376 4
5296 5295 2
5297 5217 1
5297 5298 2
5297 5377 4
5297 5296 1
5298 5218 4
5298 5299 5
5298 5378 3
5298 5297 1
5299 5219 4
5299 5300 1
5299 5379 1
5299 5298 3
5300 5220 5
5300 5301 1
5300 5380 1
5300 5299 1
5301 5221 5
5301 5302 3
5301 5381 1
5301 5300 5
5302 5222 2
5302 5303 4
5302 5382 1
5302 5301 1
5303 5223 3
5303 5304 2
5303 5383 4
5303 5302 1
5304 5224 1
5304 5305 3
5304 5384 2
5304 5303 4
5305 5225 1
5305 5306 5
5305 5385 2
5305 5304 2
5306 5226 1
5306 5307 1
5306 5386 4
5306 5305 1
5307 5227 4
5307 5308 5
5307 5387 3
5307 5306 1
5308 5228 1
5308 5309 4
5308 5388 3
5308 5307 1
5309 5229 5
5309 5310 5
5309 5389 3
5309 5308 5
5310 5230 3
5310 5311 3
5310 5390 2
5310 5309 2
5311 5231 5
5311 5312 5
5311 5391 4
5311 5310 4
5312 5232 5
5312 5313 5
5312 5392 5
5312 5311 2
5313 5233 4
5313 5314 3
5313 5393 2
5313 5312 5
5314 5234 3
5314 5315 3
5314 5394 4
5314 5313 1
5315 5235 4
5315 5316 1
5315 5395 5
5315 5314 5
5316 5236 2
5316 5317 4
5316 5396 2
5316 5315 3
5317 5237 5
5317 5318 1
5317 5397 2
5317 5316 1
5318 5238 1
5318 5319 3
5318 5398 3
5318 5317 1
5319 5239 2
5319 5320 3
5319 5399 5
5319 5318 5
5320 5240 4
5320 5321 2
5320 5400 2
5320 5319 1
5321 5241 4
5321 5322 3
5321 5401 2
5321 5320 3
5322 5242 4
5322 5323 3
5322 5402 5
5322 5321 2
5323 5243 3
5323 5324 2
5323 5403 4
5323 5322 5
5324 5244 1
5324 5325 4
5324 5404 3
5324 5323 5
5325 5245 4
5325 5326 1
5325 5405 4
5325 5324 4
5326 5246 2
5326 5327 5
5326 5406 5
5326 5325 2
5327 5247 3
5327 5328 3
5327 5407 5
5327 5326 5
5328 5248 2
5328 5329 5
5328 5408 3
5328 5327 2
5329 5249 3
5329 5330 2
5329 5409 4
5329 5328 3
5330 5250 4
5330 5331 2
5330 5410 5
5330 5329 1
5331 5251 3
5331 5332 3
5331 5411 1
5331 5330 4
5332 5252 4
5332 5333 3
5332 5412 1
5332 5331 4
5333 5253 3
5333 5334 4
5333 5413 5
5333 5332 3
5334 5254 3
5334 5335 1
5334 5414 3
5334 5333 4
5335 5255 2
5335 5336 2
5335 5415 5
5335 5334 2
5336 5256 1
5336 5337 5
5336 5416 1
5336 5335 5
5337 5257 3
5337 5338 3
5337 5417 1
5337 5336 1
5338 5258 4
5338 5339 3
5338 5418 1
5338 5337 5
5339 5259 1
5339 5340 2
5339 5419 1
5339 5338 1
5340 5260 1
5340 5341 4
5340 5420 5
5340 5339 4
5341 5261 1
5341 5342 5
5341 5421 1
5341 5340 2
5342 5262 3
5342 5343 3
5342 5422 4
5342 5341 4
5343 5263 1
5343 5344 2
5343 5423 2
5343 5342 1
5344 5264 4
5344 5345 5
5344 5424 3
5344 5343 2
5345 5265 3
5345 5346 3
5345 5425 1
5345 5344 2
5346 5266 1
5346 5347 1
5346 5426 2
5346 5345 2
5347 5267 4
5347 5348 3
5347 5427 5
5347 5346 3
5348 5268 1
5348 5349 1
5348 5428 2
5348 5347 4
5349 5269 1
5349 5350 1
5349 5429 3
5349 5348 1
5350 5270 3
5350 5351 2
5350 5430 2
5350 5349 3
5351 5271 5
5351 5352 3
5351 5431 4
5351 5350 5
5352 5272 3
5352 5353 1
5352 5432 4
5352 5351 3
5353 5273 1
5353 5354 4
5353 5433 1
5353 5352 4
5354 5274 2
5354 5355 2
5354 5434 4
5354 5353 5
5355 5275 5
5355 5356 1
5355 5435 3
5355 5354 5
5356 5276 3
5356 5357 1
5356 5436 2
5356 5355 1
5357 5277 1
5357 5358 1
5357 5437 4
5357 5356 3
5358 5278 5
5358 5359 2
5358 5438 3
5358 5357 1
5359 5279 2
5359 5439 5
5359 5358 1
5360 5280 1
5360 5361 3
5360 5440 3
5361 5281 2
5361 5362 1
5361 5441 2
5361 5360 4
5362 5282 1
5362 5363 5
5362 5442 5
5362 5361 3
5363 5283 1
5363 5364 1
5363 5443 5
5363 5362 3
5364 5284 5
5364 5365 1
5364 5444 2
5364 5363 3
5365 5285 5
5365 5366 5
5365 5445 2
5365 5364 5
5366 5286 3
5366 5367 3
5366 5446 2
5366 5365 3
5367 5287 5
5367 5368 3
5367 5447 2
5367 5366 1
5368 5288 3
5368 5369 4
5368 5448 1
5368 5367 1
5369 5289 1
5369 5370 4
5369 5449 4
5369 5368 5
5370 5290 5
5370 5371 1
5370 5450 1
5370 5369 4
5371 5291 5
5371 5372 4
5371 5451 5
5371 5370 1
5372 5292 1
5372 5373 5
5372 5452 4
5372 5371 4
5373 5293 4
5373 5374 3
5373 5453 1
5373 5372 2
5374 5294 4
5374 5375 5
5374 5454 3
5374 5373 2
5375 5295 2
5375 5376 2
5375 5455 5
5375 5374 3
5376 5296 3
5376 5377 5
5376 5456 3
5376 5375 2
5377 5297 1
5377 5378 1
5377 5457 4
5377 5376 4
5378 5298 4
5378 5379 4
5378 5458 2
5378 5377 3
5379 5299 3
5379 5380 1
5379 5459 2
5379 5378 2
5380 5300 3
5380 5381 1
5380 5460 1
5380 5379 4
5381 5301 2
5381 5382 4
5381 5461 3
5381 5380 3
5382 5302 2
5382 5383 4
5382 5462 2
5382 5381 3
5383 5303 1
5383 5384 4
5383 5463 5
5383 5382 3
5384 5304 2
5384 5385 5
5384 5464 1
5384 5383 2
5385 5305 5
5385 5386 2
5385 5465 2
5385 5384 2
5386 5306 3
5386 5387 3
5386 5466 1
5386 5385 1
5387 5307 1
5387 5388 1
5387 5467 5
5387 5386 1
5388 5308 4
5388 5389 1
5388 5468 3
5388 5387 2
5389 5309 1
5389 5390 5
5389 5469 5
5389 5388 4
5390 5310 5
5390 5391 3
5390 5470 2
5390 5389 1
5391 5311 2
5391 5392 1
5391 5471 1
5391 5390 4
5392 5312 4
5392 5393 4
5392 5472 2
5392 5391 2
5393 5313 5
5393 5394 1
5393 5473 3
5393 5392 3
5394 5314 4
5394 5395 3
5394 5474 5
5394 5393 5
5395 5315 5
5395 5396 4
5395 5475 3
5395 5394 5
5396 5316 2
5396 5397 1
5396 5476 2
5396 5395 5
5397 5317 5
5397 5398 4
5397 5477 3
5397 5396 2
5398 5318 4
5398 5399 1
5398 5478 2
5398 5397 2
5399 5319 4
5399 5400 2
5399 5479 1
5399 5398 2
5400 5320 4
5400 5401 3
5400 5480 3
5400 5399 5
5401 5321 2
5401 5402 1
5401 5481 3
5401 5400 4
5402 5322 4
5402 5403 1
5402 5482 5
5402 5401 2
5403 5323 1
5403 5404 4
5403 5483 1
5403 5402 1
5404 5324 3
5404 5405 2
5404 5484 2
5404 5403 5
5405 5325 1
5405 5406 2
5405 5485 2
5405 5404 4
5406 5326 2
5406 5407 1
5406 5486 5
5406 5405 2
5407 5327 1
5407 5408 3
5407 5487 5
5407 5406 1
5408 5328 5
5408 5409 5
5408 5488 4
5408 5407 1
5409 5329 3
5409 5410 5
5409 5489 1
5409 5408 4
5410 5330 1
5410 5411 1
5410 5490 5
5410 5409 4
5411 5331 2
5411 5412 5
5411 5491 3
5411 5410 3
5412 5332 5
5412 5413 5
5412 5492 1
5412 5411 5
5413 5333 3
5413 5414 5
5413 5493 4
5413 5412 4
5414 5334 2
5414 5415 1
5414 5494 4
5414 5413 5
5415 5335 5
5415 5416 1
5415 5495 1
5415 5414 3
5416 5336 2
5416 5417 4
5416 5496 5
5416 5415 5
5417 5337 2
5417 5418 1
5417 5497 5
5417 5416 4
5418 5338 5
5418 5419 2
5418 5498 5
5418 5417 5
5419 5339 4
5419 5420 2
5419 5499 5
5419 5418 3
5420 5340 3
5420 5421 3
5420 5500 1
5420 5419 1
5421 5341 5
5421 5422 2
5421 5501 2
5421 5420 4
5422 5342 2
5422 5423 1
5422 5502 1
5422 5421 2
5423 5343 5
5423 5424 2
5423 5503 5
5423 5422 3
5424 5344 5
5424 5425 2
5424 5504 2
5424 5423 2
5425 5345 2
5425 5426 1
5425 5505 3
5425 5424 1
5426 5346 3
5426 5427 3
5426 5506 4
5426 5425 3
5427 5347 2
5427 5428 2
5427 5507 5
5427 5426 1
5428 5348 1
5428 5429 4
5428 5508 3
5428 5427 5
5429 5349 5
5429 5430 2
5429 5509 1
5429 5428 2
5430 5350 1
5430 5431 2
5430 5510 1
5430 5429 2
5431 5351 1
5431 5432 3
5431 5511 2
5431 5430 2
5432 5352 2
5432 5433 2
5432 5512 4
5432 5431 4
5433 5353 3
5433 5434 2
5433 5513 1
5433 5432 2
5434 5354 3
5434 5435 2
5434 5514 1
5434 5433 2
5435 5355 5
5435 5436 1
5435 5515 4
5435 5434 3
5436 5356 1
5436 5437 4
5436 5516 3
5436 5435 4
5437 5357 2
5437 5438 1
5437 5517 1
5437 5436 3
5438 5358 5
5438 5439 2
5438 5518 4
5438 5437 4
5439 5359 4
5439 5519 3
5439 5438 4
5440 5360 5
5440 5441 1
5440 5520 5
5441 5361 5
5441 5442 2
5441 5521 2
5441 5440 1
5442 5362 1
5442 5443 2
5442 5522 5
5442 5441 1
5443 5363 4
5443 5444 1
5443 5523 4
5443 5442 3
5444 5364 4
5444 5445 5
5444 5524 1
5444 5443 2
5445 5365 5
5445 5446 5
5445 5525 2
5445 5444 1
5446 5366 1
5446 5447 3
5446 5526 2
5446 5445 5
5447 5367 3
5447 5448 1
5447 5527 5
5447 5446 4
5448 5368 4
5448 5449 2
5448 5528 2
5448 5447 5
5449 5369 1
5449 5450 2
5449 5529 1
5449 5448 4
5450 5370 4
5450 5451 1
5450 5530 5
5450 5449 1
5451 5371 3
5451 5452 4
5451 5531 5
5451 5450 3
5452 5372 4
5452 5453 4
5452 5532 4
5452 5451 1
5453 5373 4
5453 5454 2
5453 5533 4
5453 5452 2
5454 5374 1
5454 5455 5
5454 5534 5
5454 5453 4
5455 5375 3
5455 5456 3
5455 5535 1
5455 5454 3
5456 5376 5
5456 5457 3
5456 5536 3
5456 5455 3
5457 5377 1
5457 5458 4
5457 5537 4
5457 5456 4
5458 5378 2
5458 5459 3
5458 5538 5
5458 5457 2
5459 5379 2
5459 5460 5
5459 5539 4
5459 5458 3
5460 5380 1
5460 5461 3
5460 5540 5
5460 5459 4
5461 5381 2
5461 5462 4
5461 5541 2
5461 5460 2
5462 5382 2
5462 5463 4
5462 5542 2
5462 5461 4
5463 5383 1
5463 5464 1
5463 5543 3
5463 5462 2
5464 5384 3
5464 5465 2
5464 5544 4
5464 5463 2
5465 5385 3
5465 5466 5
5465 5545 3
5465 5464 3
5466 5386 2
5466 5467 1
5466 5546 5
5466 5465 5
5467 5387 1
5467 5468 5
5467 5547 4
5467 5466 5
5468 5388 5
5468 5469 1
5468 5548 5
5468 5467 4
5469 5389 2
5469 5470 2
5469 5549 3
5469 5468 1
5470 5390 5
5470 5471 5
5470 5550 4
5470 5469 3
5471 5391 2
5471 5472 2
5471 5551 5
5471 5470 3
5472 5392 2
5472 5473 2
5472 5552 3
5472 5471 4
5473 5393 2
5473 5474 3
5473 5553 1
5473 5472 3
5474 5394 5
5474 5475 2
5474 5554 2
5474 5473 2
5475 5395 3
5475 5476 2
5475 5555 1
5475 5474 2
5476 5396 1
5476 5477 1
5476 5556 3
5476 5475 5
5477 5397 4
5477 5478 4
5477 5557 1
5477 5476 3
5478 5398 3
5478 5479 3
5478 5558 4
5478 5477 4
5479 5399 5
5479 5480 3
5479 5559 4
5479 5478 3
5480 5400 4
5480 5481 4
5480 5560 5
5480 5479 3
5481 5401 3
5481 5482 2
5481 5561 3
5481 5480 2
5482 5402 4
5482 5483 3
5482 5562 5
5482 5481 4
5483 5403 3
5483 5484 4
5483 5563 4
5483 5482 5
5484 5404 5
5484 5485 4
5484 5564 1
5484 5483 4
5485 5405 2
5485 5486 3
5485 5565 2
5485 5484 1
5486 5406 2
5486 5487 3
5486 5566 3
5486 5485 3
5487 5407 1
5487 5488 5
5487 5567 1
5487 5486 5
5488 5408 3
5488 5489 5
5488 5568 3
5488 5487 5
5489 5409 1
5489 5490 3
5489 5569 2
5489 5488 4
5490 5410 5
5490 5491 2
5490 5570 3
5490 5489 3
5491 5411 5
5491 5492 4
5491 5571 4
5491 5490 3
5492 5412 4
5492 5493 2
5492 5572 1
5492 5491 2
5493 5413 1
5493 5494 4
5493 5573 3
5493 5492 2
5494 5414 2
5494 5495 3
5494 5574 5
5494 5493 1
5495 5415 3
5495 5496 2
5495 5575 4
5495 5494 1
5496 5416 3
5496 5497 1
5496 5576 3
5496 5495 5
5497 5417 5
5497 5498 2
5497 5577 2
5497 5496 2
5498 5418 4
5498 5499 1
5498 5578 3
5498 5497 3
5499 5419 3
5499 5500 2
5499 5579 1
5499 5498 4
5500 5420 5
5500 5501 4
5500 5580 2
5500 5499 4
5501 5421 2
5501 5502 1
5501 5581 1
5501 5500 1
5502 5422 5
5502 5503 1
5502 5582 4
5502 5501 5
5503 5423 3
5503 5504 2
5503 5583 2
5503 5502 1
5504 5424 1
5504 5505 3
5504 5584 5
5504 5503 4
5505 5425 1
5505 5506 5
5505 5585 3
5505 5504 3
5506 5426 2
5506 5507 2
5506 5586 3
5506 5505 3
5507 5427 2
5507 5508 4
5507 5587 5
5507 5506 4
5508 5428 3
5508 5509 3
5508 5588 4
5508 5507 1
5509 5429 1
5509 5510 4
5509 5589 2
5509 5508 2
5510 5430 1
5510 5511 5
5510 5590 4
5510 5509 3
5511 5431 2
5511 5512 2
5511 5591 4
5511 5510 4
5512 5432 4
5512 5513 2
5512 5592 5
5512 5511 4
5513 5433 4
5513 5514 3
5513 5593 4
5513 5512 2
5514 5434 2
5514 5515 4
5514 5594 1
5514 5513 1
5515 5435 3
5515 5516 1
5515 5595 1
5515 5514 3
5516 5436 2
5516 5517 4
5516 5596 5
5516 5515 1
5517 5437 1
5517 5518 3
5517 5597 3
5517 5516 5
5518 5438 1
5518 5519 1
5518 5598 1
5518 5517 2
5519 5439 4
5519 5599 2
5519 5518 2
5520 5440 1
5520 5521 3
5520 5600 2
5521 5441 3
5521 5522 4
5521 5601 2
5521 5520 1
5522 5442 4
5522 5523 1
5522 5602 5
5522 5521 3
5523 5443 2
5523 5524 5
5523 5603 1
5523 5522 2
5524 5444 4
5524 5525 5
5524 5604 1
5524 5523 4
5525 5445 2
5525 5526 1
5525 5605 2
5525 5524 1
5526 5446 2
5526 5527 4
5526 5606 5
5526 5525 3
5527 5447 3
5527 5528 2
5527 5607 5
5527 5526 4
5528 5448 2
5528 5529 1
5528 5608 5
5528 5527 2
5529 5449 5
5529 5530 4
5529 5609 2
5529 5528 3
5530 5450 2
5530 5531 3
5530 5610 5
5530 5529 3
5531 5451 2
5531 5532 2
5531 5611 2
5531 5530 2
5532 5452 2
5532 5533 4
5532 5612 2
5532 5531 5
5533 5453 2
5533 5534 5
5533 5613 5
5533 5532 5
5534 5454 2
5534 5535 1
5534 5614 3
5534 5533 3
5535 5455 4
5535 5536 2
5535 5615 3
5535 5534 2
5536 5456 2
5536 5537 2
5536 5616 4
5536 5535 4
5537 5457 1
5537 5538 5
5537 5617 3
5537 5536 1
5538 5458 4
5538 5539 4
5538 5618 1
5538 5537 1
5539 5459 5
5539 5540 4
5539 5619 1
5539 5538 5
5540 5460 2
5540 5541 4
5540 5620 5
5540 5539 4
5541 5461 1
5541 5542 5
5541 5621 2
5541 5540 2
5542 5462 4
5542 5543 1
5542 5622 1
5542 5541 1
5543 5463 4
5543 5544 1
5543 5623 2
5543 5542 4
5544 5464 1
5544 5545 3
5544 5624 5
5544 5543 2
5545 5465 5
5545 5546 5
5545 5625 2
5545 5544 1
5546 5466 4
5546 5547 4
5546 5626 3
5546 5545 5
5547 5467 3
5547 5548 4
5547 5627 4
5547 5546 2
5548 5468 3
5548 5549 4
5548 5628 3
5548 5547 2
5549 5469 2
5549 5550 2
5549 5629 2
5549 5548 2
5550 5470 2
5550 5551 2
5550 5630 5
5550 5549 1
5551 5471 1
5551 5552 5
5551 5631 3
5551 5550 3
5552 5472 2
5552 5553 3
5552 5632 5
5552 5551 5
5553 5473 2
5553 5554 2
5553 5633 2
5553 5552 3
5554 5474 4
5554 5555 1
5554 5634 4
5554 5553 2
5555 5475 5
5555 5556 3
5555 5635 2
5555 5554 3
5556 5476 1
5556 5557 4
5556 5636 2
5556 5555 4
5557 5477 2
5557 5558 1
5557 5637 1
5557 5556 5
5558 5478 1
5558 5559 3
5558 5638 4
5558 5557 4
5559 5479 3
5559 5560 1
5559 5639 2
5559 5558 1
5560 5480 4
5560 5561 3
5560 5640 2
5560 5559 5
5561 5481 3
5561 5562 1
5561 5641 5
5561 5560 3
5562 5482 2
5562 5563 1
5562 5642 1
5562 5561 2
5563 5483 4
5563 5564 2
5563 5643 4
5563 5562 1
5564 5484 5
5564 5565 3
5564 5644 4
5564 5563 2
5565 5485 5
5565 5566 4
5565 5645 3
5565 5564 4
5566 5486 1
5566 5567 3
5566 5646 3
5566 5565 4
5567 5487 1
5567 5568 3
5567 5647 3
5567 5566 3
5568 5488 5
5568 5569 1
5568 5648 2
5568 5567 1
5569 5489 3
5569 5570 1
5569 5649 4
5569 5568 3
5570 5490 1
5570 5571 1
5570 5650 5
5570 5569 3
5571 5491 3
5571 5572 4
5571 5651 3
5571 5570 1
5572 5492 5
5572 5573 1
5572 5652 5
5572 5571 4
5573 5493 5
5573 5574 2
5573 5653 5
5573 5572 3
5574 5494 4
5574 5575 5
5574 5654 4
5574 5573 3
5575 5495 2
5575 5576 1
5575 5655 4
5575 5574 1
5576 5496 2
5576 5577 1
5576 5656 3
5576 5575 2
5577 5497 4
5577 5578 2
5577 5657 1
5577 5576 1
5578 5498 5
5578 5579 4
5578 5658 1
5578 5577 2
5579 5499 1
5579 5580 2
5579 5659 3
5579 5578 1
5580 5500 2
5580 5581 5
5580 5660 2
5580 5579 4
5581 5501 5
5581 5582 4
5581 5661 4
5581 5580 5
5582 5502 5
5582 5583 4
5582 5662 4
5582 5581 1
5583 5503 5
5583 5584 5
5583 5663 4
5583 5582 2
5584 5504 1
5584 5585 2
5584 5664 4
5584 5583 4
5585 5505 4
5585 5586 2
5585 5665 1
5585 5584 5
5586 5506 2
5586 5587 2
5586 5666 4
5586 5585 4
5587 5507 1
5587 5588 4
5587 5667 3
5587 5586 5
5588 5508 5
5588 5589 5
5588 5668 5
5588 5587 4
5589 5509 5
5589 5590 4
5589 5669 3
5589 5588 2
5590 5510 2
5590 5591 5
5590 5670 3
5590 5589 2
5591 5511 1
5591 5592 5
5591 5671 1
5591 5590 4
5592 5512 3
5592 5593 3
5592 5672 2
5592 5591 1
5593 5513 5
5593 5594 5
5593 5673 3
5593 5592 2
5594 5514 2
5594 5595 1
5594 5674 2
5594 5593 1
5595 5515 2
5595 5596 1
5595 5675 5
5595 5594 1
5596 5516 3
5596 5597 1
5596 5676 3
5596 5595 4
5597 5517 4
5597 5598 3
5597 5677 3
5597 5596 5
5598 5518 4
5598 5599 3
5598 5678 4
5598 5597 1
5599 5519 1
5599 5679 1
5599 5598 2
5600 5520 4
5600 5601 5
5600 5680 4
5601 5521 4
5601 5602 3
5601 5681 3
5601 5600 5
5602 5522 4
5602 5603 4
5602 5682 4
5602 5601 3
5603 5523 5
5603 5604 4
5603 5683 5
5603 5602 4
5604 5524 3
5604 5605 1
5604 5684 4
5604 5603 2
5605 5525 4
5605 5606 3
5605 5685 4
5605 5604 1
5606 5526 3
5606 5607 3
5606 5686 1
5606 5605 1
5607 5527 4
5607 5608 2
5607 5687 3
5607 5606 3
5608 5528 2
5608 5609 4
5608 5688 2
5608 5607 1
5609 5529 5
5609 5610 4
5609 5689 3
5609 5608 5
5610 5530 4
5610 5611 5
5610 5690 2
5610 5609 4
5611 5531 4
5611 5612 1
5611 5691 1
5611 5610 5
5612 5532 3
5612 5613 2
5612 5692 5
5612 5611 4
5613 5533 2
5613 5614 3
5613 5693 2
5613 5612 1
5614 5534 3
5614 5615 5
5614 5694 4
5614 5613 1
5615 5535 2
5615 5616 3
5615 5695 3
5615 5614 1
5616 5536 2
5616 5617 5
5616 5696 2
5616 5615 4
5617 5537 4
5617 5618 2
5617 5697 4
5617 5616 3
5618 5538 2
5618 5619 1
5618 5698 3
5618 5617 5
5619 5539 3
5619 5620 5
5619 5699 5
5619 5618 5
5620 5540 5
5620 5621 3
5620 5700 5
5620 5619 4
5621 5541 3
5621 5622 3
5621 5701 4
5621 5620 4
5622 5542 2
5622 5623 3
5622 5702 3
5622 5621 3
5623 5543 3
5623 5624 2
5623 5703 3
5623 5622 3
5624 5544 1
5624 5625 3
5624 5704 5
5624 5623 1
5625 5545 4
5625 5626 5
5625 5705 5
5625 5624 5
5626 5546 2
5626 5627 5
5626 5706 2
5626 5625 3
5627 5547 3
5627 5628 5
5627 5707 4
5627 5626 3
5628 5548 2
5628 5629 5
5628 5708 3
5628 5627 4
5629 5549 3
5629 5630 1
5629 5709 5
5629 5628 5
5630 5550 2
5630 5631 2
5630 5710 2
5630 5629 1
5631 5551 5
5631 5632 3
5631 5711 5
5631 5630 4
5632 5552 2
5632 5633 5
5632 5712 4
5632 5631 2
5633 5553 5
5633 5634 5
5633 5713 5
5633 5632 5
5634 5554 3
5634 5635 1
5634 5714 2
5634 5633 2
5635 5555 1
5635 5636 1
5635 5715 5
5635 5634 4
5636 5556 2
5636 5637 1
5636 5716 2
5636 5635 1
5637 5557 4
5637 5638 1
5637 5717 4
5637 5636 3
5638 5558 3
5638 5639 5
5638 5718 3
5638 5637 2
5639 5559 3
5639 5640 4
5639 5719 3
5639 5638 3
5640 5560 4
5640 5641 5
5640 5720 2
5640 5639 2
5641 5561 1
5641 5642 2
5641 5721 1
5641 5640 1
5642 5562 3
5642 5643 3
5642 5722 5
5642 5641 4
5643 5563 3
5643 5644 4
5643 5723 1
5643 5642 2
5644 5564 5
5644 5645 2
5644 5724 5
5644 5643 1
5645 5565 1
5645 5646 2
5645 5725 3
5645 5644 1
5646 5566 2
5646 5647 1
5646 5726 2
5646 5645 4
5647 5567 3
5647 5648 4
5647 5727 3
5647 5646 5
5648 5568 5
5648 5649 4
5648 5728 2
5648 5647 3
5649 5569 5
5649 5650 3
5649 5729 4
5649 5648 1
5650 5570 5
5650 5651 4
5650 5730 1
5650 5649 5
5651 5571 5
5651 5652 2
5651 5731 1
5651 5650 3
5652 5572 3
5652 5653 5
5652 5732 3
5652 5651 2
5653 5573 3
5653 5654 3
5653 5733 4
5653 5652 4
5654 5574 2
5654 5655 1
5654 5734 1
5654 5653 2
5655 5575 5
5655 5656 5
5655 5735 3
5655 5654 1
5656 5576 2
5656 5657 3
5656 5736 2
5656 5655 2
5657 5577 4
5657 5658 2
5657 5737 2
5657 5656 1
5658 5578 2
5658 5659 2
5658 5738 3
5658 5657 4
5659 5579 3
5659 5660 2
5659 5739 3
5659 5658 4
5660 5580 2
5660 5661 1
5660 5740 1
5660 5659 3
5661 5581 2
5661 5662 4
5661 5741 5
5661 5660 4
5662 5582 5
5662 5663 4
5662 5742 5
5662 5661 1
5663 5583 1
5663 5664 5
5663 5743 3
5663 5662 2
5664 5584 5
5664 5665 3
5664 5744 4
5664 5663 5
5665 5585 1
5665 5666 2
5665 5745 1
5665 5664 4
5666 5586 4
5666 5667 3
5666 5746 1
5666 5665 4
5667 5587 3
5667 5668 2
5667 5747 1
5667 5666 3
5668 5588 2
5668 5669 3
5668 5748 1
5668 5667 2
5669 5589 2
5669 5670 5
5669 5749 3
5669 5668 1
5670 5590 2
5670 5671 2
5670 5750 5
5670 5669 5
5671 5591 3
5671 5672 4
5671 5751 4
5671 5670 3
5672 5592 2
5672 5673 4
5672 5752 3
5672 5671 2
5673 5593 2
5673 5674 2
5673 5753 2
5673 5672 5
5674 5594 2
5674 5675 5
5674 5754 2
5674 5673 1
5675 5595 2
5675 5676 1
5675 5755 2
5675 5674 3
5676 5596 4
5676 5677 5
5676 5756 1
5676 5675 2
5677 5597 2
5677 5678 1
5677 5757 2
5677 5676 1
5678 5598 2
5678 5679 2
5678 5758 3
5678 5677 4
5679 5599 4
5679 5759 4
5679 5678 1
5680 5600 1
5680 5681 4
5680 5760 4
5681 5601 3
5681 5682 1
5681 5761 4
5681 5680 4
5682 5602 2
5682 5683 4
5682 5762 5
5682 5681 5
5683 5603 3
5683 5684 3
5683 5763 2
5683 5682 1
5684 5604 2
5684 5685 3
5684 5764 3
5684 5683 2
5685 5605 1
5685 5686 1
5685 5765 2
5685 5684 2
5686 5606 5
5686 5687 5
5686 5766 3
5686 5685 4
5687 5607 2
5687 5688 2
5687 5767 1
5687 5686 2
5688 5608 3
5688 5689 2
5688 5768 1
5688 5687 2
5689 5609 5
5689 5690 3
5689 5769 4
5689 5688 1
5690 5610 5
5690 5691 1
5690 5770 1
5690 5689 4
5691 5611 2
5691 5692 2
5691 5771 2
5691 5690 3
5692 5612 1
5692 5693 3
5692 5772 1
5692 5691 4
5693 5613 4
5693 5694 3
5693 5773 5
5693 5692 4
5694 5614 1
5694 5695 4
5694 5774 4
5694 5693 3
5695 5615 3
5695 5696 4
5695 5775 1
5695 5694 5
5696 5616 5
5696 5697 2
5696 5776 3
5696 5695 1
5697 5617 4
5697 5698 3
5697 5777 5
5697 5696 2
5698 5618 5
5698 5699 4
5698 5778 2
5698 5697 4
5699 5619 2
5699 5700 3
5699 5779 5
5699 5698 1
5700 5620 2
5700 5701 2
5700 5780 3
5700 5699 5
5701 5621 1
5701 5702 5
5701 5781 3
5701 5700 4
5702 5622 4
5702 5703 5
5702 5782 3
5702 5701 3
5703 5623 5
5703 5704 2
5703 5783 2
5703 5702 4
5704 5624 2
5704 5705 2
5704 5784 4
5704 5703 5
5705 5625 1
5705 5706 2
5705 5785 1
5705 5704 2
5706 5626 1
5706 5707 1
5706 5786 1
5706 5705 1
5707 5627 5
5707 5708 4
5707 5787 5
5707 5706 1
5708 5628 2
5708 5709 3
5708 5788 5
5708 5707 4
5709 5629 5
5709 5710 1
5709 5789 1
5709 5708 4
5710 5630 1
5710 5711 4
5710 5790 3
5710 5709 1
5711 5631 2
5711 5712 5
5711 5791 2
5711 5710 3
5712 5632 1
5712 5713 5
5712 5792 5
5712 5711 5
5713 5633 3
5713 5714 3
5713 5793 2
5713 5712 5
5714 5634 3
5714 5715 1
5714 5794 4
5714 5713 1
5715 5635 2
5715 5716 2
5715 5795 2
5715 5714 4
5716 5636 4
5716 5717 3
5716 5796 2
5716 5715 2
5717 5637 5
5717 5718 4
5717 5797 2
5717 5716 2
5718 5638 1
5718 5719 3
5718 5798 3
5718 5717 2
5719 5639 2
5719 5720 1
5719 5799 4
5719 5718 2
5720 5640 4
5720 5721 3
5720 5800 3
5720 5719 5
5721 5641 4
5721 5722 2
5721 5801 2
5721 5720 1
5722 5642 5
5722 5723 2
5722 5802 2
5722 5721 3
5723 5643 3
5723 5724 3
5723 5803 4
5723 5722 1
5724 5644 3
5724 5725 5
5724 5804 5
5724 5723 4
5725 5645 5
5725 5726 5
5725 5805 5
5725 5724 3
5726 5646 1
5726 5727 3
5726 5806 4
5726 5725 1
5727 5647 2
5727 5728 1
5727 5807 3
5727 5726 5
5728 5648 4
5728 5729 5
5728 5808 3
5728 5727 1
5729 5649 5
5729 5730 3
5729 5809 2
5729 5728 4
5730 5650 4
5730 5731 3
5730 5810 5
5730 5729 2
5731 5651 4
5731 5732 4
5731 5811 2
5731 5730 2
5732 5652 5
5732 5733 3
5732 5812 4
5732 5731 2
5733 5653 3
5733 5734 2
5733 5813 4
5733 5732 4
5734 5654 4
5734 5735 3
5734 5814 2
5734 5733 2
5735 5655 3
5735 5736 5
5735 5815 2
5735 5734 1
5736 5656 4
5736 5737 1
5736 5816 4
5736 5735 3
5737 5657 5
5737 5738 1
5737 5817 2
5737 5736 5
5738 5658 2
5738 5739 1
5738 5818 3
5738 5737 5
5739 5659 2
5739 5740 2
5739 5819 5
5739 5738 3
5740 5660 1
5740 5741 1
5740 5820 3
5740 5739 4
5741 5661 2
5741 5742 1
5741 5821 2
5741 5740 5
5742 5662 3
5742 5743 3
5742 5822 5
5742 5741 4
5743 5663 2
5743 5744 4
5743 5823 2
5743 5742 4
5744 5664 2
5744 5745 4
5744 5824 2
5744 5743 5
5745 5665 3
5745 5746 2
5745 5825 1
5745 5744 4
5746 5666 4
5746 5747 1
5746 5826 3
5746 5745 3
5747 5667 5
5747 5748 5
5747 5827 1
5747 5746 5
5748 5668 3
5748 5749 1
5748 5828 2
5748 5747 2
5749 5669 1
5749 5750 2
5749 5829 5
5749 5748 1
5750 5670 1
5750 5751 3
5750 5830 5
5750 5749 5
5751 5671 2
5751 5752 2
5751 5831 1
5751 5750 1
5752 5672 2
5752 5753 2
5752 5832 1
5752 5751 2
5753 5673 1
5753 5754 3
5753 5833 3
5753 5752 5
5754 5674 1
5754 5755 3
5754 5834 5
5754 5753 2
5755 5675 4
5755 5756 5
5755 5835 4
5755 5754 5
5756 5676 4
5756 5757 4
5756 5836 3
5756 5755 1
5757 5677 1
5757 5758 5
5757 5837 1
5757 5756 5
5758 5678 3
5758 5759 3
5758 5838 5
5758 5757 5
5759 5679 1
5759 5839 4
5759 5758 3
5760 5680 3
5760 5761 2
5760 5840 1
5761 5681 1
5761 5762 4
5761 5841 2
5761 5760 5
5762 5682 5
5762 5763 4
5762 5842 4
5762 5761 5
5763 5683 4
5763 5764 2
5763 5843 3
5763 5762 5
5764 5684 3
5764 5765 4
5764 5844 4
5764 5763 3
5765 5685 4
5765 5766 3
5765 5845 1
5765 5764 5
5766 5686 4
5766 5767 2
5766 5846 2
5766 5765 3
5767 5687 2
5767 5768 1
5767 5847 5
5767 5766 2
5768 5688 4
5768 5769 2
5768 5848 2
5768 5767 1
5769 5689 2
5769 5770 2
5769 5849 1
5769 5768 3
5770 5690 1
5770 5771 1
5770 5850 3
5770 5769 2
5771 5691 5
5771 5772 3
5771 5851 5
5771 5770 2
5772 5692 1
5772 5773 3
5772 5852 4
5772 5771 5
5773 5693 5
5773 5774 1
5773 5853 1
5773 5772 4
5774 5694 5
5774 5775 4
5774 5854 2
5774 5773 4
5775 5695 5
5775 5776 5
5775 5855 5
5775 5774 5
5776 5696 3
5776 5777 5
5776 5856 5
5776 5775 1
5777 5697 2
5777 5778 5
5777 5857 2
5777 5776 1
5778 5698 5
5778 5779 1
5778 5858 1
5778 5777 2
5779 5699 4
5779 5780 4
5779 5859 4
5779 5778 1
5780 5700 2
5780 5781 1
5780 5860 1
5780 5779 1
5781 5701 3
5781 5782 2
5781 5861 2
5781 5780 5
5782 5702 3
5782 5783 2
5782 5862 5
5782 5781 4
5783 5703 2
5783 5784 1
5783 5863 1
5783 5782 3
5784 5704 1
5784 5785 3
5784 5864 2
5784 5783 3
5785 5705 2
5785 5786 5
5785 5865 2
5785 5784 5
5786 5706 1
5786 5787 3
5786 5866 5
5786 5785 2
5787 5707 4
5787 5788 5
5787 5867 2
5787 5786 5
5788 5708 5
5788 5789 1
5788 5868 1
5788 5787 4
5789 5709 4
5789 5790 5
5789 5869 4
5789 5788 2
5790 5710 4
5790 5791 4
5790 5870 2
5790 5789 2
5791 5711 2
5791 5792 5
5791 5871 2
5791 5790 5
5792 5712 5
5792 5793 4
5792 5872 2
5792 5791 2
5793 5713 4
5793 5794 4
5793 5873 1
5793 5792 5
5794 5714 3
5794 5795 1
5794 5874 5
5794 5793 4
5795 5715 2
5795 5796 4
5795 5875 4
5795 5794 1
5796 5716 2
5796 5797 4
5796 5876 5
5796 5795 3
5797 5717 1
5797 5798 1
5797 5877 1
5797 5796 2
5798 5718 2
5798 5799 5
5798 5878 2
5798 5797 2
5799 5719 2
5799 5800 5
5799 5879 2
5799 5798 1
5800 5720 5
5800 5801 5
5800 5880 2
5800 5799 3
5801 5721 2
5801 5802 4
5801 5881 5
5801 5800 1
5802 5722 5
5802 5803 4
5802 5882 3
5802 5801 1
5803 5723 4
5803 5804 4
5803 5883 4
5803 5802 4
5804 5724 1
5804 5805 1
5804 5884 4
5804 5803 3
5805 5725 5
5805 5806 2
5805 5885 1
5805 5804 5
5806 5726 5
5806 5807 1
5806 5886 3
5806 5805 2
5807 5727 1
5807 5808 5
5807 5887 2
5807 5806 4
5808 5728 5
5808 5809 4
5808 5888 4
5808 5807 1
5809 5729 4
5809 5810 5
5809 5889 1
5809 5808 3
5810 5730 5
5810 5811 4
5810 5890 5
5810 5809 5
5811 5731 2
5811 5812 5
5811 5891 3
5811 5810 3
5812 5732 4
5812 5813 2
5812 5892 1
5812 5811 2
5813 5733 4
5813 5814 4
5813 5893 3
5813 5812 4
5814 5734 5
5814 5815 4
5814 5894 2
5814 5813 5
5815 5735 3
5815 5816 5
5815 5895 1
5815 5814 2
5816 5736 3
5816 5817 4
5816 5896 2
5816 5815 3
5817 5737 5
5817 5818 5
5817 5897 5
5817 5816 5
5818 5738 2
5818 5819 3
5818 5898 3
5818 5817 2
5819 5739 5
5819 5820 3
5819 5899 4
5819 5818 1
5820 5740 4
5820 5821 3
5820 5900 2
5820 5819 5
5821 5741 5
5821 5822 1
5821 5901 4
5821 5820 3
5822 5742 4
5822 5823 2
5822 5902 5
5822 5821 4
5823 5743 4
5823 5824 5
5823 5903 3
5823 5822 1
5824 5744 4
5824 5825 5
5824 5904 5
5824 5823 4
5825 5745 4
5825 5826 1
5825 5905 5
5825 5824 1
5826 5746 5
5826 5827 5
5826 5906 4
5826 5825 3
5827 5747 4
5827 5828 3
5827 5907 5
5827 5826 3
5828 5748 5
5828 5829 5
5828 5908 3
5828 5827 4
5829 5749 3
5829 5830 1
5829 5909 5
5829 5828 2
5830 5750 5
5830 5831 5
5830 5910 3
5830 5829 1
5831 5751 4
5831 5832 4
5831 5911 2
5831 5830 3
5832 5752 4
5832 5833 5
5832 5912 3
5832 5831 2
5833 5753 4
5833 5834 5
5833 5913 5
5833 5832 5
5834 5754 1
5834 5835 4
5834 5914 3
5834 5833 5
5835 5755 5
5835 5836 1
5835 5915 3
5835 5834 3
5836 5756 3
5836 5837 1
5836 5916 5
5836 5835 2
5837 5757 5
5837 5838 4
5837 5917 1
5837 5836 3
5838 5758 2
5838 5839 1
5838 5918 1
5838 5837 2
5839 5759 4
5839 5919 2
5839 5838 4
5840 5760 1
5840 5841 4
5840 5920 4
5841 5761 3
5841 5842 5
5841 5921 5
5841 5840 1
5842 5762 1
5842 5843 5
5842 5922 2
5842 5841 3
5843 5763 5
5843 5844 3
5843 5923 3
5843 5842 5
5844 5764 1
5844 5845 2
5844 5924 1
5844 5843 5
5845 5765 5
5845 5846 5
5845 5925 5
5845 5844 2
5846 5766 1
5846 5847 3
5846 5926 4
5846 5845 3
5847 5767 5
5847 5848 5
5847 5927 2
5847 5846 5
5848 5768 5
5848 5849 4
5848 5928 3
5848 5847 1
5849 5769 5
5849 5850 3
5849 5929 4
5849 5848 2
5850 5770 1
5850 5851 2
5850 5930 4
5850 5849 3
5851 5771 1
5851 5852 1
5851 5931 1
5851 5850 2
5852 5772 1
5852 5853 3
5852 5932 4
5852 5851 4
5853 5773 1
5853 5854 5
5853 5933 5
5853 5852 3
5854 5774 2
5854 5855 1
5854 5934 3
5854 5853 4
5855 5775 3
5855 5856 1
5855 5935 5
5855 5854 3
5856 5776 5
5856 5857 2
5856 5936 4
5856 5855 5
5857 5777 3
5857 5858 4
5857 5937 4
5857 5856 5
5858 5778 1
5858 5859 5
5858 5938 4
5858 5857 1
5859 5779 1
5859 5860 5
5859 5939 4
5859 5858 2
5860 5780 4
5860 5861 1
5860 5940 1
5860 5859 1
5861 5781 2
5861 5862 4
5861 5941 3
5861 5860 1
5862 5782 1
5862 5863 2
5862 5942 3
5862 5861 3
5863 5783 3
5863 5864 3
5863 5943 2
5863 5862 5
5864 5784 5
5864 5865 1
5864 5944 4
5864 5863 4
5865 5785 3
5865 5866 3
5865 5945 4
5865 5864 5
5866 5786 4
5866 5867 3
5866 5946 2
5866 5865 3
5867 5787 1
5867 5868 4
5867 5947 2
5867 5866 2
5868 5788 1
5868 5869 3
5868 5948 3
5868 5867 5
5869 5789 5
5869 5870 4
5869 5949 4
5869 5868 2
5870 5790 3
5870 5871 4
5870 5950 2
5870 5869 2
5871 5791 2
5871 5872 1
5871 5951 5
5871 5870 1
5872 5792 3
5872 5873 2
5872 5952 2
5872 5871 3
5873 5793 4
5873 5874 1
5873 5953 3
5873 5872 4
5874 5794 3
5874 5875 4
5874 5954 4
5874 5873 3
5875 5795 5
5875 5876 3
5875 5955 3
5875 5874 3
5876 5796 5
5876 5877 2
5876 5956 5
5876 5875 4
5877 5797 3
5877 5878 2
5877 5957 1
5877 5876 2
5878 5798 5
5878 5879 2
5878 5958 3
5878 5877 1
5879 5799 4
5879 5880 1
5879 5959 2
5879 5878 3
5880 5800 3
5880 5881 3
5880 5960 2
5880 5879 1
5881 5801 2
5881 5882 5
5881 5961 1
5881 5880 1
5882 5802 2
5882 5883 4
5882 5962 2
5882 5881 2
5883 5803 1
5883 5884 1
5883 5963 4
5883 5882 2
5884 5804 2
5884 5885 4
5884 5964 4
5884 5883 2
5885 5805 4
5885 5886 3
5885 5965 5
5885 5884 5
5886 5806 2
5886 5887 5
5886 5966 3
5886 5885 5
5887 5807 3
5887 5888 3
5887 5967 5
5887 5886 3
5888 5808 2
5888 5889 2
5888 5968 5
5888 5887 3
5889 5809 2
5889 5890 3
5889 5969 2
5889 5888 3
5890 5810 1
5890 5891 4
5890 5970 1
5890 5889 5
5891 5811 3
5891 5892 4
5891 5971 3
5891 5890 5
5892 5812 1
5892 5893 4
5892 5972 1
5892 5891 1
5893 5813 3
5893 5894 1
5893 5973 5
5893 5892 1
5894 5814 3
5894 5895 3
5894 5974 5
5894 5893 1
5895 5815 3
5895 5896 4
5895 5975 4
5895 5894 3
5896 5816 3
5896 5897 4
5896 5976 2
5896 5895 3
5897 5817 2
5897 5898 3
5897 5977 2
5897 5896 3
5898 5818 4
5898 5899 5
5898 5978 3
5898 5897 1
5899 5819 4
5899 5900 1
5899 5979 3
5899 5898 5
5900 5820 3
5900 5901 5
5900 5980 4
5900 5899 2
5901 5821 3
5901 5902 3
5901 5981 5
5901 5900 2
5902 5822 1
5902 5903 3
5902 5982 2
5902 5901 4
5903 5823 5
5903 5904 5
5903 5983 1
5903 5902 2
5904 5824 2
5904 5905 1
5904 5984 5
5904 5903 2
5905 5825 4
5905 5906 1
5905 5985 1
5905 5904 2
5906 5826 2
5906 5907 5
5906 5986 5
5906 5905 2
5907 5827 4
5907 5908 1
5907 5987 5
5907 5906 4
5908 5828 5
5908 5909 5
5908 5988 2
5908 5907 5
5909 5829 1
5909 5910 3
5909 5989 2
5909 5908 4
5910 5830 5
5910 5911 4
5910 5990 2
5910 5909 1
5911 5831 3
5911 5912 5
5911 5991 4
5911 5910 2
5912 5832 3
5912 5913 1
5912 5992 3
5912 5911 2
5913 5833 1
5913 5914 4
5913 5993 3
5913 5912 4
5914 5834 3
5914 5915 2
5914 5994 3
5914 5913 2
5915 5835 4
5915 5916 5
5915 5995 1
5915 5914 1
5916 5836 5
5916 5917 5
5916 5996 1
5916 5915 3
5917 5837 4
5917 5918 4
5917 5997 2
5917 5916 3
5918 5838 3
5918 5919 4
5918 5998 4
5918 5917 1
5919 5839 4
5919 5999 4
5919 5918 4
5920 5840 2
5920 5921 5
5920 6000 4
5921 5841 5
5921 5922 1
5921 6001 3
5921 5920 2
5922 5842 2
5922 5923 4
5922 6002 2
5922 5921 5
5923 5843 5
5923 5924 5
5923 6003 3
5923 5922 4
5924 5844 4
5924 5925 3
5924 6004 3
5924 5923 1
5925 5845 5
5925 5926 5
5925 6005 5
5925 5924 5
5926 5846 1
5926 5927 1
5926 6006 1
5926 5925 1
5927 5847 5
5927 5928 5
5927 6007 5
5927 5926 3
5928 5848 4
5928 5929 2
5928 6008 5
5928 5927 1
5929 5849 5
5929 5930 2
5929 6009 3
5929 5928 2
5930 5850 1
5930 5931 1
5930 6010 5
5930 5929 5
5931 5851 4
5931 5932 5
5931 6011 3
5931 5930 3
5932 5852 2
5932 5933 3
5932 6012 4
5932 5931 3
5933 5853 5
5933 5934 5
5933 6013 3
5933 5932 5
5934 5854 5
5934 5935 4
5934 6014 5
5934 5933 3
5935 5855 4
5935 5936 2
5935 6015 5
5935 5934 3
5936 5856 4
5936 5937 3
5936 6016 5
5936 5935 3
5937 5857 5
5937 5938 2
5937 6017 5
5937 5936 1
5938 5858 5
5938 5939 1
5938 6018 2
5938 5937 2
5939 5859 1
5939 5940 4
5939 6019 5
5939 5938 4
5940 5860 5
5940 5941 5
5940 6020 1
5940 5939 2
5941 5861 3
5941 5942 5
5941 6021 5
5941 5940 2
5942 5862 5
5942 5943 4
5942 6022 1
5942 5941 4
5943 5863 1
5943 5944 3
5943 6023 5
5943 5942 5
5944 5864 3
5944 5945 3
5944 6024 3
5944 5943 1
5945 5865 3
5945 5946 2
5945 6025 4
5945 5944 4
5946 5866 2
5946 5947 5
5946 6026 4
5946 5945 5
5947 5867 1
5947 5948 1
5947 6027 2
5947 5946 2
5948 5868 1
5948 5949 2
5948 6028 5
5948 5947 5
5949 5869 3
5949 5950 4
5949 6029 5
5949 5948 1
5950 5870 1
5950 5951 5
5950 6030 2
5950 5949 5
5951 5871 4
5951 5952 5
5951 6031 1
5951 5950 3
5952 5872 3
5952 5953 5
5952 6032 1
5952 5951 1
5953 5873 5
5953 5954 5
5953 6033 2
5953 5952 1
5954 5874 4
5954 5955 4
5954 6034 5
5954 5953 1
5955 5875 3
5955 5956 3
5955 6035 2
5955 5954 5
5956 5876 4
5956 5957 4
5956 6036 5
5956 5955 2
5957 5877 2
5957 5958 3
5957 6037 1
5957 5956 3
5958 5878 5
5958 5959 5
5958 6038 1
5958 5957 4
5959 5879 1
5959 5960 3
5959 6039 2
5959 5958 2
5960 5880 4
5960 5961 1
5960 6040 1
5960 5959 1
5961 5881 5
5961 5962 2
5961 6041 5
5961 5960 1
5962 5882 1
5962 5963 2
5962 6042 5
5962 5961 2
5963 5883 5
5963 5964 4
5963 6043 3
5963 5962 2
5964 5884 3
5964 5965 3
5964 6044 1
5964 5963 2
5965 5885 4
5965 5966 1
5965 6045 5
5965 5964 1
5966 5886 5
5966 5967 3
5966 6046 5
5966 5965 1
5967 5887 5
5967 5968 1
5967 6047 1
5967 5966 3
5968 5888 3
5968 5969 1
5968 6048 2
5968 5967 3
5969 5889 2
5969 5970 4
5969 6049 2
5969 5968 4
5970 5890 1
5970 5971 3
5970 6050 5
5970 5969 4
5971 5891 2
5971 5972 4
5971 6051 4
5971 5970 2
5972 5892 4
5972 5973 1
5972 6052 2
5972 5971 3
5973 5893 5
5973 5974 5
5973 6053 4
5973 5972 5
5974 5894 2
5974 5975 2
5974 6054 3
5974 5973 2
5975 5895 5
5975 5976 1
5975 6055 1
5975 5974 3
5976 5896 5
5976 5977 3
5976 6056 4
5976 5975 1
5977 5897 3
5977 5978 3
5977 6057 4
5977 5976 2
5978 5898 1
5978 5979 3
5978 6058 4
5978 5977 4
5979 5899 2
5979 5980 5
5979 6059 4
5979 5978 5
5980 5900 2
5980 5981 3
5980 6060 3
5980 5979 1
5981 5901 1
5981 5982 4
5981 6061 3
5981 5980 2
5982 5902 4
5982 5983 5
5982 6062 1
5982 5981 2
5983 5903 5
5983 5984 2
5983 6063 4
5983 5982 4
5984 5904 2
5984 5985 4
5984 6064 1
5984 5983 2
5985 5905 5
5985 5986 5
5985 6065 4
5985 5984 4
5986 5906 4
5986 5987 1
5986 6066 3
5986 5985 2
5987 5907 3
5987 5988 2
5987 6067 5
5987 5986 1
5988 5908 4
5988 5989 3
5988 6068 3
5988 5987 1
5989 5909 4
5989 5990 1
5989 6069 1
5989 5988 1
5990 5910 5
5990 5991 4
5990 6070 3
5990 5989 2
5991 5911 3
5991 5992 5
5991 6071 3
5991 5990 4
5992 5912 3
5992 5993 1
5992 6072 3
5992 5991 1
5993 5913 1
5993 5994 2
5993 6073 5
5993 5992 5
5994 5914 1
5994 5995 2
5994 6074 4
5994 5993 2
5995 5915 1
5995 5996 3
5995 6075 2
5995 5994 4
5996 5916 4
5996 5997 2
5996 6076 4
5996 5995 2
5997 5917 5
5997 5998 1
5997 6077 3
5997 5996 3
5998 5918 3
5998 5999 4
5998 6078 1
5998 5997 5
5999 5919 5
5999 6079 2
5999 5998 5
6000 5920 3
6000 6001 2
6000 6080 1
6001 5921 5
6001 6002 4
6001 6081 5
6001 6000 1
6002 5922 4
6002 6003 4
6002 6082 4
6002 6001 3
6003 5923 5
6003 6004 1
6003 6083 5
6003 6002 2
6004 5924 2
6004 6005 5
6004 6084 5
6004 6003 3
6005 5925 5
6005 6006 5
6005 6085 4
6005 6004 3
6006 5926 3
6006 6007 3
6006 6086 1
6006 6005 2
6007 5927 3
6007 6008 5
6007 6087 4
6007 6006 2
6008 5928 4
6008 6009 1
6008 6088 4
6008 6007 3
6009 5929 2
6009 6010 1
6009 6089 4
6009 6008 5
6010 5930 5
6010 6011 1
6010 6090 1
6010 6009 4
6011 5931 3
6011 6012 1
6011 6091 2
6011 6010 3
6012 5932 2
6012 6013 5
6012 6092 5
6012 6011 5
6013 5933 1
6013 6014 5
6013 6093 4
6013 6012 2
6014 5934 5
6014 6015 4
6014 6094 4
6014 6013 3
6015 5935 5
6015 6016 2
6015 6095 2
6015 6014 2
6016 5936 4
6016 6017 3
6016 6096 4
6016 6015 4
6017 5937 1
6017 6018 3
6017 6097 1
6017 6016 2
6018 5938 1
6018 6019 5
6018 6098 1
6018 6017 5
6019 5939 1
6019 6020 3
6019 6099 2
6019 6018 5
6020 5940 4
6020 6021 1
6020 6100 2
6020 6019 5
6021 5941 2
6021 6022 4
6021 6101 2
6021 6020 3
6022 5942 3
6022 6023 2
6022 6102 1
6022 6021 3
6023 5943 1
6023 6024 2
6023 6103 2
6023 6022 1
6024 5944 5
6024 6025 1
6024 6104 3
6024 6023 4
6025 5945 4
6025 6026 2
6025 6105 1
6025 6024 3
6026 5946 3
6026 6027 1
6026 6106 1
6026 6025 1
6027 5947 4
6027 6028 5
6027 6107 3
6027 6026 1
6028 5948 5
6028 6029 2
6028 6108 2
6028 6027 3
6029 5949 3
6029 6030 2
6029 6109 5
6029 6028 1
6030 5950 1
6030 6031 5
6030 6110 4
6030 6029 5
6031 5951 3
6031 6032 1
6031 6111 2
6031 6030 2
6032 5952 3
6032 6033 5
6032 6112 4
6032 6031 1
6033 5953 5
6033 6034 5
6033 6113 4
6033 6032 2
6034 5954 4
6034 6035 3
6034 6114 5
6034 6033 4
6035 5955 2
6035 6036 2
6035 6115 2
6035 6034 3
6036 5956 1
6036 6037 4
6036 6116 3
6036 6035 2
6037 5957 2
6037 6038 3
6037 6117 1
6037 6036 3
6038 5958 2
6038 6039 2
6038 6118 4
6038 6037 1
6039 5959 1
6039 6040 5
6039 6119 5
6039 6038 1
6040 5960 1
6040 6041 2
6040 6120 3
6040 6039 4
6041 5961 5
6041 6042 4
6041 6121 1
6041 6040 4
6042 5962 2
6042 6043 1
6042 6122 4
6042 6041 1
6043 5963 2
6043 6044 5
6043 6123 4
6043 6042 4
6044 5964 2
6044 6045 1
6044 6124 2
6044 6043 1
6045 5965 1
6045 6046 5
6045 6125 3
6045 6044 2
6046 5966 4
6046 6047 4
6046 6126 2
6046 6045 1
6047 5967 5
6047 6048 3
6047 6127 2
6047 6046 4
6048 5968 5
6048 6049 5
6048 6128 1
6048 6047 1
6049 5969 3
6049 6050 4
6049 6129 4
6049 6048 5
6050 5970 3
6050 6051 1
6050 6130 1
6050 6049 1
6051 5971 4
6051 6052 2
6051 6131 2
6051 6050 3
6052 5972 5
6052 6053 1
6052 6132 1
6052 6051 4
6053 5973 2
6053 6054 5
6053 6133 4
6053 6052 1
6054 5974 2
6054 6055 1
6054 6134 4
6054 6053 2
6055 5975 2
6055 6056 1
6055 6135 1
6055 6054 2
6056 5976 5
6056 6057 4
6056 6136 5
6056 6055 1
6057 5977 5
6057 6058 4
6057 6137 1
6057 6056 4
6058 5978 4
6058 6059 2
6058 6138 2
6058 6057 1
6059 5979 1
6059 6060 3
6059 6139 3
6059 6058 3
6060 5980 4
6060 6061 1
6060 6140 4
6060 6059 1
6061 5981 5
6061 6062 2
6061 6141 5
6061 6060 1
6062 5982 4
6062 6063 1
6062 6142 4
6062 6061 3
6063 5983 3
6063 6064 2
6063 6143 4
6063 6062 1
6064 5984 2
6064 6065 2
6064 6144 3
6064 6063 3
6065 5985 2
6065 6066 2
6065 6145 3
6065 6064 2
6066 5986 1
6066 6067 4
6066 6146 1
6066 6065 2
6067 5987 3
6067 6068 2
6067 6147 2
6067 6066 5
6068 5988 3
6068 6069 1
6068 6148 2
6068 6067 1
6069 5989 5
6069 6070 3
6069 6149 3
6069 6068 4
6070 5990 4
6070 6071 2
6070 6150 4
6070 6069 5
6071 5991 1
6071 6072 2
6071 6151 2
6071 6070 4
6072 5992 3
6072 6073 3
6072 6152 1
6072 6071 2
6073 5993 2
6073 6074 4
6073 6153 4
6073 6072 1
6074 5994 4
6074 6075 5
6074 6154 3
6074 6073 5
6075 5995 1
6075 6076 2
6075 6155 3
6075 6074 3
6076 5996 3
6076 6077 5
6076 6156 5
6076 6075 3
6077 5997 1
6077 6078 4
6077 6157 1
6077 6076 2
6078 5998 1
6078 6079 1
6078 6158 5
6078 6077 1
6079 5999 3
6079 6159 5
6079 6078 5
6080 6000 1
6080 6081 2
6080 6160 4
6081 6001 5
6081 6082 4
6081 6161 3
6081 6080 5
6082 6002 5
6082 6083 4
6082 6162 3
6082 6081 4
6083 6003 5
6083 6084 4
6083 6163 5
6083 6082 4
6084 6004 2
6084 6085 2
6084 6164 4
6084 6083 4
6085 6005 1
6085 6086 1
6085 6165 5
6085 6084 5
6086 6006 3
6086 6087 3
6086 6166 4
6086 6085 3
6087 6007 1
6087 6088 5
6087 6167 2
6087 6086 4
6088 6008 5
6088 6089 1
6088 6168 5
6088 6087 1
6089 6009 5
6089 6090 1
6089 6169 4
6089 6088 3
6090 6010 5
6090 6091 5
6090 6170 2
6090 6089 1
6091 6011 4
6091 6092 3
6091 6171 1
6091 6090 1
6092 6012 4
6092 6093 5
6092 6172 5
6092 6091 2
6093 6013 4
6093 6094 5
6093 6173 2
6093 6092 2
6094 6014 3
6094 6095 2
6094 6174 3
6094 6093 5
6095 6015 3
6095 6096 5
6095 6175 4
6095 6094 3
6096 6016 4
6096 6097 1
6096 6176 5
6096 6095 2
6097 6017 1
6097 6098 2
6097 6177 5
6097 6096 5
6098 6018 4
6098 6099 3
6098 6178 3
6098 6097 4
6099 6019 2
6099 6100 2
6099 6179 1
6099 6098 2
6100 6020 1
6100 6101 2
6100 6180 2
6100 6099 4
6101 6021 2
6101 6102 1
6101 6181 3
6101 6100 3
6102 6022 1
6102 6103 2
6102 6182 2
6102 6101 1
6103 6023 1
6103 6104 1
6103 6183 1
6103 6102 5
6104 6024 5
6104 6105 4
6104 6184 2
6104 6103 3
6105 6025 4
6105 6106 4
6105 6185 2
6105 6104 5
6106 6026 1
6106 6107 5
6106 6186 1
6106 6105 1
6107 6027 5
6107 6108 5
6107 6187 5
6107 6106 5
6108 6028 1
6108 6109 1
6108 6188 3
6108 6107 1
6109 6029 4
6109 6110 1
6109 6189 1
6109 6108 5
6110 6030 1
6110 6111 4
6110 6190 5
6110 6109 2
6111 6031 2
6111 6112 2
6111 6191 4
6111 6110 2
6112 6032 4
6112 6113 5
6112 6192 5
6112 6111 5
6113 6033 4
6113 6114 5
6113 6193 1
6113 6112 4
6114 6034 1
6114 6115 5
6114 6194 3
6114 6113 3
6115 6035 5
6115 6116 1
6115 6195 5
6115 6114 4
6116 6036 4
6116 6117 3
6116 6196 4
6116 6115 2
6117 6037 1
6117 6118 1
6117 6197 1
6117 6116 5
6118 6038 5
6118 6119 5
6118 6198 3
6118 6117 2
6119 6039 2
6119 6120 4
6119 6199 1
6119 6118 1
6120 6040 2
6120 6121 4
6120 6200 1
6120 6119 1
6121 6041 5
6121 6122 1
6121 6201 3
6121 6120 1
6122 6042 5
6122 6123 5
6122 6202 3
6122 6121 3
6123 6043 3
6123 6124 5
6123 6203 2
6123 6122 5
6124 6044 3
6124 6125 2
6124 6204 1
6124 6123 2
6125 6045 3
6125 6126 1
6125 6205 1
6125 6124 3
6126 6046 2
6126 6127 3
6126 6206 2
6126 6125 3
6127 6047 4
6127 6128 4
6127 6207 1
6127 6126 4
6128 6048 3
6128 6129 4
6128 6208 5
6128 6127 5
6129 6049 5
6129 6130 3
6129 6209 3
6129 6128 5
6130 6050 3
6130 6131 4
6130 6210 4
6130 6129 4
6131 6051 2
6131 6132 1
6131 6211 1
6131 6130 1
6132 6052 5
6132 6133 2
6132 6212 3
6132 6131 1
6133 6053 2
6133 6134 5
6133 6213 1
6133 6132 5
6134 6054 2
6134 6135 2
6134 6214 2
6134 6133 5
6135 6055 4
6135 6136 5
6135 6215 3
6135 6134 1
6136 6056 2
6136 6137 4
6136 6216 2
6136 6135 1
6137 6057 5
6137 6138 3
6137 6217 5
6137 6136 1
6138 6058 4
6138 6139 3
6138 6218 3
6138 6137 2
6139 6059 4
6139 6140 2
6139 6219 3
6139 6138 2
6140 6060 4
6140 6141 3
6140 6220 2
6140 6139 2
6141 6061 3
6141 6142 4
6141 6221 1
6141 6140 1
6142 6062 3
6142 6143 1
6142 6222 2
6142 6141 5
6143 6063 1
6143 6144 5
6143 6223 2
6143 6142 5
6144 6064 3
6144 6145 1
6144 6224 5
6144 6143 1
6145 6065 4
6145 6146 1
6145 6225 2
6145 6144 3
6146 6066 3
6146 6147 5
6146 6226 1
6146 6145 3
6147 6067 4
6147 6148 1
6147 6227 1
6147 6146 1
6148 6068 4
6148 6149 5
6148 6228 2
6148 6147 2
6149 6069 1
6149 6150 3
6149 6229 4
6149 6148 4
6150 6070 1
6150 6151 1
6150 6230 1
6150 6149 2
6151 6071 5
6151 6152 2
6151 6231 5
6151 6150 2
6152 6072 4
6152 6153 1
6152 6232 1
6152 6151 1
6153 6073 2
6153 6154 2
6153 6233 2
6153 6152 5
6154 6074 4
6154 6155 1
6154 6234 3
6154 6153 1
6155 6075 2
6155 6156 1
6155 6235 3
6155 6154 5
6156 6076 3
6156 6157 1
6156 6236 4
6156 6155 4
6157 6077 4
6157 6158 3
6157 6237 2
6157 6156 3
6158 6078 3
6158 6159 4
6158 6238 1
6158 6157 3
6159 6079 2
6159 6239 2
6159 6158 4
6160 6080 4
6160 6161 2
6160 6240 3
6161 6081 4
6161 6162 1
6161 6241 1
6161 6160 5
6162 6082 1
6162 6163 3
6162 6242 2
6162 6161 1
6163 6083 3
6163 6164 4
6163 6243 2
6163 6162 3
6164 6084 4
6164 6165 2
6164 6244 3
6164 6163 2
6165 6085 3
6165 6166 5
6165 6245 4
6165 6164 1
6166 6086 4
6166 6167 4
6166 6246 5
6166 6165 2
6167 6087 2
6167 6168 3
6167 6247 1
6167 6166 2
6168 6088 4
6168 6169 2
6168 6248 4
6168 6167 4
6169 6089 1
6169 6170 5
6169 6249 4
6169 6168 4
6170 6090 4
6170 6171 3
6170 6250 4
6170 6169 2
6171 6091 2
6171 6172 3
6171 6251 1
6171 6170 5
6172 6092 4
6172 6173 4
6172 6252 5
6172 6171 4
6173 6093 5
6173 6174 3
6173 6253 5
6173 6172 3
6174 6094 4
6174 6175 4
6174 6254 1
6174 6173 2
6175 6095 5
6175 6176 1
6175 6255 2
6175 6174 3
6176 6096 1
6176 6177 1
6176 6256 4
6176 6175 1
6177 6097 5
6177 6178 3
6177 6257 5
6177 6176 5
6178 6098 4
6178 6179 3
6178 6258 2
6178 6177 2
6179 6099 2
6179 6180 3
6179 6259 3
6179 6178 2
6180 6100 3
6180 6181 1
6180 6260 3
6180 6179 4
6181 6101 4
6181 6182 5
6181 6261 2
6181 6180 1
6182 6102 2
6182 6183 1
6182 6262 3
6182 6181 4
6183 6103 3
6183 6184 5
6183 6263 3
6183 6182 2
6184 6104 3
6184 6185 3
6184 6264 5
6184 6183 2
6185 6105 1
6185 6186 4
6185 6265 3
6185 6184 3
6186 6106 1
6186 6187 1
6186 6266 1
6186 6185 5
6187 6107 4
6187 6188 2
6187 6267 5
6187 6186 5
6188 6108 1
6188 6189 5
6188 6268 2
6188 6187 4
6189 6109 2
6189 6190 1
6189 6269 4
6189 6188 2
6190 6110 3
6190 6191 2
6190 6270 3
6190 6189 5
6191 6111 3
6191 6192 5
6191 6271 5
6191 6190 2
6192 6112 1
6192 6193 5
6192 6272 5
6192 6191 3
6193 6113 5
6193 6194 4
6193 6273 5
6193 6192 1
6194 6114 4
6194 6195 4
6194 6274 3
6194 6193 1
6195 6115 3
6195 6196 1
6195 6275 1
6195 6194 1
6196 6116 2
6196 6197 1
6196 6276 2
6196 6195 3
6197 6117 3
6197 6198 2
6197 6277 3
6197 6196 1
6198 6118 2
6198 6199 2
6198 6278 1
6198 6197 1
6199 6119 4
6199 6200 1
6199 6279 3
6199 6198 5
6200 6120 5
6200 6201 4
6200 6280 1
6200 6199 2
6201 6121 4
6201 6202 2
6201 6281 1
6201 6200 5
6202 6122 4
6202 6203 1
6202 6282 1
6202 6201 2
6203 6123 2
6203 6204 1
6203 6283 2
6203 6202 1
6204 6124 5
6204 6205 4
6204 6284 5
6204 6203 5
6205 6125 5
6205 6206 5
6205 6285 1
6205 6204 1
6206 6126 1
6206 6207 3
6206 6286 1
6206 6205 1
6207 6127 2
6207 6208 3
6207 6287 4
6207 6206 1
6208 6128 2
6208 6209 1
6208 6288 4
6208 6207 1
6209 6129 5
6209 6210 4
6209 6289 5
6209 6208 4
6210 6130 1
6210 6211 1
6210 6290 4
6210 6209 2
6211 6131 3
6211 6212 5
6211 6291 1
6211 6210 5
6212 6132 3
6212 6213 1
6212 6292 5
6212 6211 3
6213 6133 4
6213 6214 5
6213 6293 3
6213 6212 3
6214 6134 1
6214 6215 1
6214 6294 1
6214 6213 2
6215 6135 4
6215 6216 3
6215 6295 2
6215 6214 3
6216 6136 5
6216 6217 2
6216 6296 1
6216 6215 1
6217 6137 4
6217 6218 2
6217 6297 5
6217 6216 5
6218 6138 4
6218 6219 5
6218 6298 1
6218 6217 4
6219 6139 2
6219 6220 4
6219 6299 5
6219 6218 1
6220 6140 2
6220 6221 4
6220 6300 1
6220 6219 4
6221 6141 1
6221 6222 4
6221 6301 1
6221 6220 5
6222 6142 5
6222 6223 1
6222 6302 5
6222 6221 4
6223 6143 2
6223 6224 2
6223 6303 2
6223 6222 5
6224 6144 5
6224 6225 4
6224 6304 3
6224 6223 4
6225 6145 4
6225 6226 1
6225 6305 5
6225 6224 2
6226 6146 4
6226 6227 3
6226 6306 2
6226 6225 1
6227 6147 4
6227 6228 4
6227 6307 5
6227 6226 1
6228 6148 1
6228 6229 2
6228 6308 3
6228 6227 5
6229 6149 1
6229 6230 5
6229 6309 3
6229 6228 3
6230 6150 4
6230 6231 5
6230 6310 1
6230 6229 1
6231 6151 2
6231 6232 3
6231 6311 3
6231 6230 2
6232 6152 2
6232 6233 2
6232 6312 4
6232 6231 2
6233 6153 2
6233 6234 1
6233 6313 4
6233 6232 5
6234 6154 1
6234 6235 4
6234 6314 5
6234 6233 4
6235 6155 5
6235 6236 3
6235 6315 4
6235 6234 3
6236 6156 4
6236 6237 4
6236 6316 1
6236 6235 4
6237 6157 4
6237 6238 3
6237 6317 1
6237 6236 4
6238 6158 5
6238 6239 1
6238 6318 2
6238 6237 5
6239 6159 3
6239 6319 2
6239 6238 1
6240 6160 3
6240 6241 1
6240 6320 1
6241 6161 4
6241 6242 3
6241 6321 2
6241 6240 4
6242 6162 1
6242 6243 1
6242 6322 4
6242 6241 1
6243 6163 2
6243 6244 2
6243 6323 3
6243 6242 1
6244 6164 5
6244 6245 3
6244 6324 2
6244 6243 3
6245 6165 2
6245 6246 1
6245 6325 5
6245 6244 5
6246 6166 2
6246 6247 5
6246 6326 2
6246 6245 3
6247 6167 5
6247 6248 3
6247 6327 5
6247 6246 1
6248 6168 2
6248 6249 1
6248 6328 1
6248 6247 3
6249 6169 1
6249 6250 4
6249 6329 5
6249 6248 1
6250 6170 1
6250 6251 3
6250 6330 2
6250 6249 1
6251 6171 2
6251 6252 1
6251 6331 3
6251 6250 1
6252 6172 4
6252 6253 4
6252 6332 3
6252 6251 5
6253 6173 4
6253 6254 3
6253 6333 4
6253 6252 2
6254 6174 2
6254 6255 5
6254 6334 3
6254 6253 2
6255 6175 3
6255 6256 5
6255 6335 1
6255 6254 1
6256 6176 1
6256 6257 3
6256 6336 1
6256 6255 1
6257 6177 3
6257 6258 4
6257 6337 4
6257 6256 3
6258 6178 2
6258 6259 4
6258 6338 5
6258 6257 5
6259 6179 4
6259 6260 1
6259 6339 3
6259 6258 4
6260 6180 2
6260 6261 5
6260 6340 3
6260 6259 3
6261 6181 1
6261 6262 2
6261 6341 5
6261 6260 1
6262 6182 4
6262 6263 4
6262 6342 3
6262 6261 1
6263 6183 2
6263 6264 2
6263 6343 5
6263 6262 3
6264 6184 5
6264 6265 4
6264 6344 5
6264 6263 1
6265 6185 3
6265 6266 3
6265 6345 3
6265 6264 2
6266 6186 4
6266 6267 1
6266 6346 5
6266 6265 4
6267 6187 2
6267 6268 2
6267 6347 4
6267 6266 1
6268 6188 2
6268 6269 3
6268 6348 3
6268 6267 4
6269 6189 3
6269 6270 3
6269 6349 4
6269 6268 4
6270 6190 4
6270 6271 2
6270 6350 1
6270 6269 3
6271 6191 1
6271 6272 4
6271 6351 1
6271 6270 1
6272 6192 4
6272 6273 2
6272 6352 1
6272 6271 5
6273 6193 4
6273 6274 1
6273 6353 3
6273 6272 4
6274 6194 3
6274 6275 4
6274 6354 5
6274 6273 2
6275 6195 4
6275 6276 1
6275 6355 2
6275 6274 1
6276 6196 4
6276 6277 3
6276 6356 3
6276 6275 2
6277 6197 5
6277 6278 1
6277 6357 2
6277 6276 4
6278 6198 3
6278 6279 1
6278 6358 3
6278 6277 5
6279 6199 3
6279 6280 4
6279 6359 2
6279 6278 4
6280 6200 1
6280 6281 2
6280 6360 5
6280 6279 2
6281 6201 3
6281 6282 3
6281 6361 4
6281 6280 5
6282 6202 4
6282 6283 2
6282 6362 4
6282 6281 2
6283 6203 5
6283 6284 5
6283 6363 3
6283 6282 1
6284 6204 4
6284 6285 4
6284 6364 4
6284 6283 3
6285 6205 2
6285 6286 1
6285 6365 4
6285 6284 4
6286 6206 2
6286 6287 2
6286 6366 4
6286 6285 1
6287 6207 2
6287 6288 3
6287 6367 2
6287 6286 5
6288 6208 4
6288 6289 4
6288 6368 4
6288 6287 2
6289 6209 3
6289 6290 5
6289 6369 2
6289 6288 2
6290 6210 5
6290 6291 4
6290 6370 5
6290 6289 4
6291 6211 5
6291 6292 1
6291 6371 4
6291 6290 1
6292 6212 3
6292 6293 5
6292 6372 5
6292 6291 4
6293 6213 5
6293 6294 2
6293 6373 2
6293 6292 1
6294 6214 3
6294 6295 3
6294 6374 2
6294 6293 3
6295 6215 1
6295 6296 3
6295 6375 1
6295 6294 5
6296 6216 5
6296 6297 2
6296 6376 4
6296 6295 2
6297 6217 5
6297 6298 4
6297 6377 1
6297 6296 3
6298 6218 5
6298 6299 4
6298 6378 4
6298 6297 3
6299 6219 1
6299 6300 3
6299 6379 2
6299 6298 3
6300 6220 4
6300 6301 4
6300 6380 1
6300 6299 4
6301 6221 5
6301 6302 5
6301 6381 4
6301 6300 4
6302 6222 3
6302 6303 3
6302 6382 3
6302 6301 2
6303 6223 4
6303 6304 1
6303 6383 5
6303 6302 1
6304 6224 2
6304 6305 5
6304 6384 3
6304 6303 2
6305 6225 2
6305 6306 4
6305 6385 2
6305 6304 4
6306 6226 2
6306 6307 4
6306 6386 2
6306 6305 2
6307 6227 1
6307 6308 2
6307 6387 2
6307 6306 2
6308 6228 4
6308 6309 1
6308 6388 1
6308 6307 1
6309 6229 4
6309 6310 3
6309 6389 4
6309 6308 4
6310 6230 5
6310 6311 1
6310 6390 4
6310 6309 1
6311 6231 4
6311 6312 2
6311 6391 1
6311 6310 3
6312 6232 2
6312 6313 5
6312 6392 5
6312 6311 3
6313 6233 1
6313 6314 3
6313 6393 3
6313 6312 5
6314 6234 4
6314 6315 5
6314 6394 5
6314 6313 2
6315 6235 1
6315 6316 3
6315 6395 2
6315 6314 1
6316 6236 4
6316 6317 5
6316 6396 1
6316 6315 2
6317 6237 5
6317 6318 2
6317 6397 2
6317 6316 1
6318 6238 2
6318 6319 4
6318 6398 5
6318 6317 5
6319 6239 1
6319 6399 1
6319 6318 3
6320 6240 2
6320 6321 4
6321 6241 3
6321 6322 4
6321 6320 1
6322 6242 1
6322 6323 4
6322 6321 5
6323 6243 1
6323 6324 1
6323 6322 4
6324 6244 4
6324 6325 1
6324 6323 2
6325 6245 1
6325 6326 4
6325 6324 2
6326 6246 4
6326 6327 1
6326 6325 3
6327 6247 1
6327 6328 1
6327 6326 3
6328 6248 5
6328 6329 2
6328 6327 2
6329 6249 2
6329 6330 4
6329 6328 4
6330 6250 2
6330 6331 3
6330 6329 3
6331 6251 4
6331 6332 5
6331 6330 2
6332 6252 1
6332 6333 4
6332 6331 2
6333 6253 5
6333 6334 3
6333 6332 4
6334 6254 4
6334 6335 2
6334 6333 5
6335 6255 1
6335 6336 5
6335 6334 2
6336 6256 5
6336 6337 1
6336 6335 4
6337 6257 3
6337 6338 3
6337 6336 1
6338 6258 2
6338 6339 3
6338 6337 5
6339 6259 5
6339 6340 5
6339 6338 3
6340 6260 1
6340 6341 5
6340 6339 2
6341 6261 5
6341 6342 2
6341 6340 2
6342 6262 4
6342 6343 2
6342 6341 4
6343 6263 2
6343 6344 5
6343 6342 1
6344 6264 2
6344 6345 5
6344 6343 1
6345 6265 4
6345 6346 2
6345 6344 3
6346 6266 1
6346 6347 3
6346 6345 5
6347 6267 4
6347 6348 1
6347 6346 2
6348 6268 4
6348 6349 4
6348 6347 4
6349 6269 4
6349 6350 3
6349 6348 2
6350 6270 4
6350 6351 2
6350 6349 5
6351 6271 3
6351 6352 3
6351 6350 2
6352 6272 5
6352 6353 4
6352 6351 3
6353 6273 5
6353 6354 5
6353 6352 3
6354 6274 1
6354 6355 4
6354 6353 1
6355 6275 5
6355 6356 5
6355 6354 4
6356 6276 3
6356 6357 1
6356 6355 4
6357 6277 4
6357 6358 3
6357 6356 4
6358 6278 1
6358 6359 2
6358 6357 1
6359 6279 5
6359 6360 1
6359 6358 1
6360 6280 5
6360 6361 2
6360 6359 5
6361 6281 1
6361 6362 2
6361 6360 2
6362 6282 1
6362 6363 3
6362 6361 3
6363 6283 2
6363 6364 5
6363 6362 1
6364 6284 3
6364 6365 3
6364 6363 5
6365 6285 5
6365 6366 1
6365 6364 5
6366 6286 2
6366 6367 2
6366 6365 2
6367 6287 3
6367 6368 2
6367 6366 2
6368 6288 2
6368 6369 2
6368 6367 1
6369 6289 2
6369 6370 2
6369 6368 3
6370 6290 1
6370 6371 1
6370 6369 2
6371 6291 3
6371 6372 3
6371 6370 3
6372 6292 1
6372 6373 1
6372 6371 5
6373 6293 2
6373 6374 3
6373 6372 3
6374 6294 3
6374 6375 1
6374 6373 2
6375 6295 4
6375 6376 5
6375 6374 5
6376 6296 5
6376 6377 5
6376 6375 3
6377 6297 2
6377 6378 5
6377 6376 2
6378 6298 2
6378 6379 2
6378 6377 2
6379 6299 3
6379 6380 2
6379 6378 4
6380 6300 2
6380 6381 5
6380 6379 4
6381 6301 2
6381 6382 1
6381 6380 5
6382 6302 1
6382 6383 3
6382 6381 5
6383 6303 5
6383 6384 2
6383 6382 1
6384 6304 2
6384 6385 3
6384 6383 3
6385 6305 1
6385 6386 2
6385 6384 5
6386 6306 1
6386 6387 4
6386 6385 3
6387 6307 5
6387 6388 4
6387 6386 3
6388 6308 5
6388 6389 5
6388 6387 5
6389 6309 2
6389 6390 1
6389 6388 1
6390 6310 2
6390 6391 2
6390 6389 4
6391 6311 4
6391 6392 2
6391 6390 1
6392 6312 4
6392 6393 4
6392 6391 3
6393 6313 5
6393 6394 3
6393 6392 3
6394 6314 2
6394 6395 1
6394 6393 1
6395 6315 4
6395 6396 2
6395 6394 5
6396 6316 3
6396 6397 1
6396 6395 5
6397 6317 2
6397 6398 4
6397 6396 3
6398 6318 5
6398 6399 1
6398 6397 5
6399 6319 2
6399 6398 2
