# N=10, Total Nodes=100
# Format: u v base_weight
0 1 1
0 10 1
1 2 3
1 11 2
1 0 2
2 3 2
2 12 1
2 1 5
3 4 1
3 13 5
3 2 4
4 5 1
4 14 1
4 3 1
5 6 2
5 15 2
5 4 5
6 7 5
6 16 1
6 5 5
7 8 2
7 17 5
7 6 4
8 9 2
8 18 4
8 7 5
9 19 3
9 8 1
10 0 2
10 11 4
10 20 3
11 1 3
11 12 2
11 21 2
11 10 3
12 2 1
12 13 1
12 22 4
12 11 1
13 3 3
13 14 3
13 23 5
13 12 3
14 4 1
14 15 4
14 24 5
14 13 1
15 5 4
15 16 1
15 25 5
15 14 3
16 6 5
16 17 3
16 26 5
16 15 2
17 7 1
17 18 1
17 27 2
17 16 3
18 8 1
18 19 2
18 28 1
18 17 4
19 9 3
19 29 4
19 18 3
20 10 2
20 21 3
20 30 3
21 11 2
21 22 3
21 31 1
21 20 5
22 12 2
22 23 5
22 32 2
22 21 2
23 13 4
23 24 4
23 33 3
23 22 5
24 14 2
24 25 3
24 34 1
24 23 2
25 15 1
25 26 3
25 35 4
25 24 3
26 16 1
26 27 2
26 36 5
26 25 3
27 17 2
27 28 4
27 37 4
27 26 4
28 18 2
28 29 3
28 38 2
28 27 2
29 19 5
29 39 5
29 28 3
30 20 5
30 31 4
30 40 5
31 21 4
31 32 3
31 41 2
31 30 2
32 22 5
32 33 4
32 42 1
32 31 1
33 23 1
33 34 2
33 43 2
33 32 4
34 24 5
34 35 1
34 44 4
34 33 4
35 25 5
35 36 4
35 45 5
35 34 3
36 26 5
36 37 1
36 46 1
36 35 5
37 27 3
37 38 3
37 47 1
37 36 3
38 28 4
38 39 2
38 48 4
38 37 1
39 29 3
39 49 5
39 38 2
40 30 5
40 41 1
40 50 3
41 31 5
41 42 5
41 51 2
41 40 2
42 32 3
42 43 2
42 52 5
42 41 5
43 33 1
43 44 5
43 53 3
43 42 4
44 34 1
44 45 1
44 54 3
44 43 3
45 35 2
45 46 1
45 55 2
45 44 5
46 36 1
46 47 1
46 56 4
46 45 1
47 37 5
47 48 2
47 57 2
47 46 4
48 38 5
48 49 2
48 58 3
48 47 5
49 39 5
49 59 4
49 48 2
50 40 5
50 51 2
50 60 3
51 41 4
51 52 3
51 61 4
51 50 5
52 42 4
52 53 1
52 62 2
52 51 2
53 43 1
53 54 3
53 63 1
53 52 5
54 44 5
54 55 2
54 64 5
54 53 2
55 45 1
55 56 1
55 65 1
55 54 2
56 46 1
56 57 1
56 66 3
56 55 1
57 47 5
57 58 2
57 67 3
57 56 4
58 48 2
58 59 5
58 68 2
58 57 5
59 49 5
59 69 4
59 58 2
60 50 4
60 61 4
60 70 2
61 51 1
61 62 1
61 71 4
61 60 3
62 52 4
62 63 4
62 72 4
62 61 1
63 53 1
63 64 1
63 73 4
63 62 3
64 54 1
64 65 2
64 74 2
64 63 2
65 55 5
65 66 4
65 75 2
65 64 4
66 56 2
66 67 3
66 76 4
66 65 2
67 57 1
67 68 4
67 77 5
67 66 1
68 58 1
68 69 5
68 78 1
68 67 1
69 59 2
69 79 2
69 68 4
70 60 4
70 71 4
70 80 2
71 61 4
71 72 1
71 81 2
71 70 4
72 62 1
72 73 4
72 82 3
72 71 4
73 63 3
73 74 4
73 83 5
73 72 4
74 64 2
74 75 2
74 84 3
74 73 2
75 65 1
75 76 5
75 85 5
75 74 1
76 66 3
76 77 1
76 86 1
76 75 5
77 67 4
77 78 5
77 87 5
77 76 2
78 68 1
78 79 5
78 88 1
78 77 2
79 69 1
79 89 5
79 78 1
80 70 2
80 81 4
80 90 1
81 71 5
81 82 2
81 91 5
81 80 5
82 72 1
82 83 5
82 92 1
82 81 4
83 73 5
83 84 5
83 93 5
83 82 3
84 74 3
84 85 2
84 94 3
84 83 2
85 75 3
85 86 4
85 95 2
85 84 3
86 76 4
86 87 3
86 96 1
86 85 1
87 77 4
87 88 5
87 97 5
87 86 1
88 78 1
88 89 5
88 98 2
88 87 5
89 79 3
89 99 2
89 88 3
90 80 1
90 91 2
91 81 3
91 92 3
91 90 2
92 82 4
92 93 5
92 91 3
93 83 5
93 94 5
93 92 1
94 84 5
94 95 3
94 93 1
95 85 2
95 96 3
95 94 1
96 86 1
96 97 5
96 95 2
97 87 3
97 98 3
97 96 5
98 88 2
98 99 3
98 97 2
99 89 3
99 98 5
