# N=20, Total Nodes=400
# Format: u v base_weight
0 1 1
0 20 1
1 2 3
1 21 2
1 0 2
2 3 2
2 22 1
2 1 5
3 4 1
3 23 5
3 2 4
4 5 1
4 24 1
4 3 1
5 6 2
5 25 2
5 4 5
6 7 5
6 26 1
6 5 5
7 8 2
7 27 5
7 6 4
8 9 2
8 28 4
8 7 5
9 10 3
9 29 1
9 8 2
10 11 4
10 30 3
10 9 3
11 12 2
11 31 2
11 10 3
12 13 1
12 32 1
12 11 4
13 14 1
13 33 3
13 12 3
14 15 5
14 34 3
14 13 1
15 16 4
15 35 5
15 14 1
16 17 4
16 36 1
16 15 5
17 18 3
17 37 5
17 16 3
18 19 5
18 38 2
18 17 1
19 39 1
19 18 2
20 0 3
20 21 1
20 40 2
21 1 1
21 22 4
21 41 3
21 20 4
22 2 3
22 23 2
22 42 3
22 21 3
23 3 2
23 24 3
23 43 1
23 22 5
24 4 2
24 25 5
24 44 2
24 23 2
25 5 4
25 26 4
25 45 3
25 24 5
26 6 2
26 27 3
26 46 1
26 25 2
27 7 1
27 28 3
27 47 4
27 26 3
28 8 1
28 29 2
28 48 5
28 27 3
29 9 2
29 30 4
29 49 4
29 28 4
30 10 2
30 31 3
30 50 2
30 29 2
31 11 5
31 32 5
31 51 3
31 30 5
32 12 4
32 33 5
32 52 4
32 31 3
33 13 2
33 34 2
33 53 5
33 32 4
34 14 1
34 35 1
34 54 1
34 33 2
35 15 2
35 36 4
35 55 5
35 34 1
36 16 4
36 37 4
36 56 5
36 35 4
37 17 5
37 38 3
37 57 5
37 36 1
38 18 1
38 39 5
38 58 3
38 37 3
39 19 1
39 59 3
39 38 4
40 20 2
40 41 4
40 60 1
41 21 3
41 42 5
41 61 2
41 40 5
42 22 1
42 43 3
42 62 5
42 41 5
43 23 2
43 44 2
43 63 3
43 42 2
44 24 5
44 45 5
44 64 1
44 43 5
45 25 3
45 46 4
45 65 1
45 44 1
46 26 3
46 47 3
46 66 2
46 45 1
47 27 2
47 48 5
47 67 1
47 46 1
48 28 4
48 49 1
48 68 5
48 47 2
49 29 2
49 50 4
49 69 5
49 48 2
50 30 3
50 51 5
50 70 5
50 49 4
51 31 2
51 52 5
51 71 2
51 50 3
52 32 4
52 53 3
52 72 4
52 51 5
53 33 4
53 54 1
53 73 2
53 52 2
54 34 1
54 55 3
54 74 1
54 53 5
55 35 5
55 56 2
55 75 5
55 54 2
56 36 1
56 57 1
56 76 1
56 55 2
57 37 1
57 58 1
57 77 3
57 56 1
58 38 5
58 59 2
58 78 3
58 57 4
59 39 2
59 79 5
59 58 2
60 40 5
60 61 5
60 80 4
61 41 2
61 62 4
61 81 4
61 60 2
62 42 1
62 63 1
62 82 4
62 61 3
63 43 4
63 64 4
63 83 4
63 62 1
64 44 1
64 65 1
64 84 4
64 63 3
65 45 1
65 66 2
65 85 2
65 64 2
66 46 5
66 67 4
66 86 2
66 65 4
67 47 2
67 68 3
67 87 4
67 66 2
68 48 1
68 69 4
68 88 5
68 67 1
69 49 1
69 70 5
69 89 1
69 68 1
70 50 2
70 71 2
70 90 4
70 69 4
71 51 4
71 72 2
71 91 4
71 70 1
72 52 2
72 73 4
72 92 1
72 71 4
73 53 3
73 74 4
73 93 3
73 72 4
74 54 5
74 75 4
74 94 2
74 73 2
75 55 3
75 76 2
75 95 1
75 74 5
76 56 5
76 77 1
76 96 3
76 75 1
77 57 1
77 78 5
77 97 4
77 76 5
78 58 5
78 79 2
78 98 1
78 77 5
79 59 1
79 99 2
79 78 1
80 60 5
80 81 1
80 100 2
81 61 4
81 82 1
81 101 5
81 80 2
82 62 5
82 83 5
82 102 1
82 81 5
83 63 1
83 84 4
83 103 5
83 82 5
84 64 5
84 85 3
84 104 3
84 83 2
85 65 3
85 86 2
85 105 3
85 84 4
86 66 2
86 87 3
86 106 4
86 85 3
87 67 1
87 88 1
87 107 4
87 86 5
88 68 5
88 89 1
88 108 1
88 87 5
89 69 2
89 90 5
89 109 3
89 88 2
90 70 3
90 91 1
90 110 2
90 89 3
91 71 3
91 92 2
91 111 4
91 90 5
92 72 3
92 93 5
92 112 5
92 91 1
93 73 5
93 94 3
93 113 1
93 92 2
94 74 3
94 95 1
94 114 1
94 93 5
95 75 2
95 96 3
95 115 3
95 94 5
96 76 2
96 97 3
96 116 2
96 95 3
97 77 5
97 98 4
97 117 3
97 96 1
98 78 1
98 99 4
98 118 3
98 97 1
99 79 1
99 119 3
99 98 2
100 80 3
100 101 2
100 120 4
101 81 5
101 102 4
101 121 5
101 100 1
102 82 1
102 103 1
102 122 2
102 101 5
103 83 1
103 104 3
103 123 5
103 102 5
104 84 2
104 105 4
104 124 2
104 103 1
105 85 3
105 106 3
105 125 1
105 104 3
106 86 2
106 107 2
106 126 1
106 105 3
107 87 5
107 108 4
107 127 5
107 106 2
108 88 2
108 109 2
108 128 2
108 107 4
109 89 1
109 110 2
109 129 3
109 108 4
110 90 2
110 111 3
110 130 2
110 109 1
111 91 4
111 112 1
111 131 4
111 110 2
112 92 2
112 113 4
112 132 3
112 111 3
113 93 2
113 114 2
113 133 1
113 112 2
114 94 4
114 115 3
114 134 3
114 113 1
115 95 3
115 116 3
115 135 5
115 114 4
116 96 5
116 117 3
116 136 1
116 115 1
117 97 3
117 118 2
117 137 5
117 116 3
118 98 1
118 119 1
118 138 5
118 117 4
119 99 3
119 139 3
119 118 4
120 100 5
120 121 5
120 140 1
121 101 4
121 122 5
121 141 2
121 120 3
122 102 1
122 123 4
122 142 1
122 121 5
123 103 5
123 124 2
123 143 3
123 122 4
124 104 1
124 125 3
124 144 5
124 123 3
125 105 1
125 126 3
125 145 5
125 124 3
126 106 4
126 127 3
126 146 4
126 125 3
127 107 5
127 128 2
127 147 2
127 126 4
128 108 4
128 129 2
128 148 5
128 127 5
129 109 3
129 130 4
129 149 5
129 128 1
130 110 3
130 131 3
130 150 2
130 129 4
131 111 5
131 132 5
131 151 3
131 130 4
132 112 4
132 133 4
132 152 2
132 131 5
133 113 4
133 134 2
133 153 1
133 132 3
134 114 5
134 135 5
134 154 3
134 133 1
135 115 2
135 136 3
135 155 2
135 134 2
136 116 2
136 137 1
136 156 1
136 135 2
137 117 4
137 138 5
137 157 1
137 136 4
138 118 4
138 139 5
138 158 2
138 137 4
139 119 4
139 159 4
139 138 2
140 120 2
140 141 1
140 160 1
141 121 4
141 142 2
141 161 2
141 140 5
142 122 4
142 143 1
142 162 5
142 141 2
143 123 1
143 144 4
143 163 2
143 142 4
144 124 5
144 145 5
144 164 5
144 143 3
145 125 4
145 146 5
145 165 5
145 144 4
146 126 5
146 147 4
146 166 2
146 145 4
147 127 4
147 148 3
147 167 2
147 146 3
148 128 5
148 149 4
148 168 2
148 147 3
149 129 4
149 150 1
149 169 3
149 148 2
150 130 3
150 151 3
150 170 3
150 149 5
151 131 1
151 152 2
151 171 2
151 150 2
152 132 4
152 153 2
152 172 2
152 151 1
153 133 4
153 154 4
153 173 3
153 152 5
154 134 4
154 155 4
154 174 1
154 153 2
155 135 4
155 156 4
155 175 5
155 154 1
156 136 5
156 157 4
156 176 4
156 155 1
157 137 3
157 158 3
157 177 4
157 156 4
158 138 5
158 159 5
158 178 5
158 157 2
159 139 4
159 179 2
159 158 3
160 140 4
160 161 4
160 180 1
161 141 4
161 162 3
161 181 4
161 160 2
162 142 4
162 163 2
162 182 5
162 161 5
163 143 1
163 164 4
163 183 5
163 162 5
164 144 1
164 165 1
164 184 4
164 163 2
165 145 4
165 166 2
165 185 1
165 164 3
166 146 4
166 167 3
166 186 2
166 165 4
167 147 3
167 168 3
167 187 4
167 166 3
168 148 4
168 169 3
168 188 1
168 167 4
169 149 1
169 170 5
169 189 1
169 168 3
170 150 2
170 171 1
170 190 1
170 169 1
171 151 2
171 172 2
171 191 1
171 170 5
172 152 2
172 173 2
172 192 2
172 171 4
173 153 1
173 174 5
173 193 2
173 172 4
174 154 3
174 175 3
174 194 2
174 173 5
175 155 5
175 176 1
175 195 2
175 174 3
176 156 1
176 177 5
176 196 1
176 175 3
177 157 5
177 178 4
177 197 4
177 176 2
178 158 1
178 179 5
178 198 2
178 177 1
179 159 3
179 199 5
179 178 1
180 160 5
180 181 1
180 200 3
181 161 5
181 182 4
181 201 3
181 180 1
182 162 5
182 183 3
182 202 1
182 181 4
183 163 4
183 184 1
183 203 4
183 182 3
184 164 4
184 185 2
184 204 4
184 183 2
185 165 5
185 186 3
185 205 5
185 184 5
186 166 4
186 187 4
186 206 4
186 185 5
187 167 3
187 188 3
187 207 2
187 186 1
188 168 3
188 189 4
188 208 2
188 187 4
189 169 5
189 190 5
189 209 4
189 188 3
190 170 1
190 191 4
190 210 3
190 189 2
191 171 4
191 192 2
191 211 3
191 190 3
192 172 3
192 193 3
192 212 5
192 191 3
193 173 5
193 194 1
193 213 5
193 192 2
194 174 1
194 195 2
194 214 4
194 193 4
195 175 5
195 196 2
195 215 4
195 194 4
196 176 4
196 197 1
196 216 1
196 195 3
197 177 2
197 198 4
197 217 2
197 196 3
198 178 5
198 199 3
198 218 4
198 197 5
199 179 5
199 219 3
199 198 4
200 180 5
200 201 3
200 220 3
201 181 4
201 202 3
201 221 3
201 200 3
202 182 2
202 203 1
202 222 2
202 201 3
203 183 1
203 204 5
203 223 2
203 202 2
204 184 2
204 205 4
204 224 3
204 203 5
205 185 5
205 206 5
205 225 3
205 204 1
206 186 2
206 207 3
206 226 2
206 205 3
207 187 2
207 208 3
207 227 1
207 206 5
208 188 2
208 209 3
208 228 1
208 207 1
209 189 5
209 210 3
209 229 2
209 208 4
210 190 1
210 211 1
210 230 5
210 209 3
211 191 4
211 212 4
211 231 4
211 210 3
212 192 2
212 213 1
212 232 3
212 211 4
213 193 1
213 214 1
213 233 4
213 212 4
214 194 1
214 215 5
214 234 1
214 213 2
215 195 2
215 216 5
215 235 3
215 214 1
216 196 2
216 217 1
216 236 5
216 215 4
217 197 5
217 218 5
217 237 5
217 216 2
218 198 5
218 219 4
218 238 4
218 217 4
219 199 3
219 239 5
219 218 4
220 200 3
220 221 5
220 240 5
221 201 1
221 222 5
221 241 1
221 220 2
222 202 2
222 223 3
222 242 1
222 221 2
223 203 2
223 224 2
223 243 5
223 222 1
224 204 2
224 225 1
224 244 4
224 223 4
225 205 5
225 226 4
225 245 3
225 224 1
226 206 2
226 227 3
226 246 3
226 225 4
227 207 1
227 228 2
227 247 3
227 226 5
228 208 2
228 229 4
228 248 1
228 227 5
229 209 2
229 230 2
229 249 3
229 228 2
230 210 1
230 231 1
230 250 2
230 229 3
231 211 5
231 232 5
231 251 3
231 230 4
232 212 1
232 233 4
232 252 3
232 231 4
233 213 3
233 234 5
233 253 5
233 232 4
234 214 4
234 235 1
234 254 5
234 233 1
235 215 4
235 236 3
235 255 5
235 234 3
236 216 1
236 237 1
236 256 2
236 235 5
237 217 5
237 238 1
237 257 3
237 236 5
238 218 1
238 239 2
238 258 4
238 237 5
239 219 4
239 259 3
239 238 2
240 220 5
240 241 4
240 260 4
241 221 1
241 242 4
241 261 3
241 240 4
242 222 3
242 243 3
242 262 1
242 241 2
243 223 3
243 244 4
243 263 4
243 242 3
244 224 4
244 245 5
244 264 1
244 243 4
245 225 1
245 246 3
245 265 3
245 244 3
246 226 1
246 247 4
246 266 5
246 245 1
247 227 5
247 248 4
247 267 4
247 246 1
248 228 2
248 249 5
248 268 3
248 247 5
249 229 4
249 250 4
249 269 1
249 248 2
250 230 3
250 251 5
250 270 2
250 249 3
251 231 4
251 252 4
251 271 1
251 250 1
252 232 5
252 253 2
252 272 2
252 251 3
253 233 5
253 254 1
253 273 5
253 252 4
254 234 1
254 255 2
254 274 1
254 253 4
255 235 1
255 256 2
255 275 4
255 254 3
256 236 5
256 257 3
256 276 4
256 255 4
257 237 4
257 258 2
257 277 4
257 256 5
258 238 2
258 259 4
258 278 2
258 257 5
259 239 5
259 279 2
259 258 1
260 240 3
260 261 4
260 280 3
261 241 5
261 262 3
261 281 1
261 260 3
262 242 3
262 263 5
262 282 5
262 261 4
263 243 2
263 264 4
263 283 5
263 262 4
264 244 3
264 265 3
264 284 5
264 263 5
265 245 4
265 266 4
265 285 3
265 264 2
266 246 2
266 267 5
266 286 4
266 265 2
267 247 4
267 268 1
267 287 3
267 266 4
268 248 4
268 269 4
268 288 2
268 267 4
269 249 1
269 270 2
269 289 5
269 268 5
270 250 3
270 271 1
270 290 4
270 269 1
271 251 5
271 272 4
271 291 1
271 270 2
272 252 4
272 273 2
272 292 1
272 271 4
273 253 3
273 274 3
273 293 5
273 272 4
274 254 1
274 275 3
274 294 5
274 273 4
275 255 3
275 276 4
275 295 5
275 274 1
276 256 5
276 277 1
276 296 2
276 275 3
277 257 2
277 278 1
277 297 4
277 276 1
278 258 1
278 279 4
278 298 2
278 277 3
279 259 1
279 299 1
279 278 3
280 260 1
280 281 3
280 300 3
281 261 3
281 282 4
281 301 2
281 280 2
282 262 5
282 283 4
282 302 5
282 281 2
283 263 2
283 284 2
283 303 1
283 282 5
284 264 4
284 285 5
284 304 2
284 283 4
285 265 5
285 286 2
285 305 2
285 284 4
286 266 3
286 287 4
286 306 3
286 285 1
287 267 4
287 288 3
287 307 5
287 286 2
288 268 1
288 289 4
288 308 3
288 287 5
289 269 3
289 290 4
289 309 3
289 288 4
290 270 3
290 291 2
290 310 4
290 289 4
291 271 1
291 292 2
291 311 4
291 290 5
292 272 3
292 293 5
292 312 3
292 291 3
293 273 1
293 294 4
293 313 3
293 292 1
294 274 5
294 295 1
294 314 5
294 293 4
295 275 3
295 296 2
295 315 5
295 294 3
296 276 2
296 297 2
296 316 5
296 295 3
297 277 2
297 298 1
297 317 1
297 296 3
298 278 4
298 299 1
298 318 5
298 297 3
299 279 2
299 319 1
299 298 3
300 280 3
300 301 4
300 320 2
301 281 2
301 302 2
301 321 5
301 300 3
302 282 5
302 303 5
302 322 3
302 301 2
303 283 3
303 304 4
303 323 3
303 302 3
304 284 1
304 305 4
304 324 1
304 303 2
305 285 2
305 306 4
305 325 5
305 304 3
306 286 1
306 307 4
306 326 1
306 305 3
307 287 5
307 308 1
307 327 4
307 306 3
308 288 3
308 309 5
308 328 4
308 307 3
309 289 1
309 310 2
309 329 4
309 308 1
310 290 5
310 311 5
310 330 3
310 309 5
311 291 2
311 312 1
311 331 4
311 310 3
312 292 4
312 313 1
312 332 2
312 311 1
313 293 1
313 314 3
313 333 4
313 312 1
314 294 1
314 315 2
314 334 5
314 313 2
315 295 4
315 316 4
315 335 3
315 314 5
316 296 4
316 317 5
316 336 2
316 315 4
317 297 1
317 318 4
317 337 5
317 316 4
318 298 3
318 319 1
318 338 3
318 317 2
319 299 4
319 339 4
319 318 2
320 300 3
320 321 1
320 340 3
321 301 5
321 322 3
321 341 1
321 320 4
322 302 3
322 323 2
322 342 1
322 321 4
323 303 1
323 324 2
323 343 5
323 322 1
324 304 1
324 325 3
324 344 2
324 323 2
325 305 5
325 326 2
325 345 1
325 324 5
326 306 2
326 327 5
326 346 2
326 325 2
327 307 3
327 328 2
327 347 5
327 326 1
328 308 3
328 329 2
328 348 2
328 327 5
329 309 3
329 330 2
329 349 1
329 328 1
330 310 2
330 331 1
330 350 3
330 329 2
331 311 5
331 332 3
331 351 1
331 330 2
332 312 3
332 333 1
332 352 2
332 331 4
333 313 5
333 334 1
333 353 1
333 332 4
334 314 4
334 335 3
334 354 5
334 333 5
335 315 1
335 336 4
335 355 5
335 334 2
336 316 5
336 337 1
336 356 5
336 335 3
337 317 4
337 338 1
337 357 1
337 336 4
338 318 4
338 339 4
338 358 1
338 337 4
339 319 4
339 359 1
339 338 1
340 320 3
340 341 5
340 360 2
341 321 1
341 342 2
341 361 3
341 340 5
342 322 5
342 343 5
342 362 3
342 341 4
343 323 5
343 344 5
343 363 3
343 342 4
344 324 5
344 345 5
344 364 4
344 343 1
345 325 1
345 346 5
345 365 2
345 344 4
346 326 4
346 347 2
346 366 4
346 345 3
347 327 4
347 348 4
347 367 4
347 346 1
348 328 3
348 349 4
348 368 3
348 347 3
349 329 3
349 350 2
349 369 4
349 348 1
350 330 1
350 351 1
350 370 1
350 349 4
351 331 1
351 352 3
351 371 2
351 350 5
352 332 1
352 353 5
352 372 5
352 351 5
353 333 3
353 354 1
353 373 4
353 352 3
354 334 4
354 355 1
354 374 3
354 353 5
355 335 3
355 356 3
355 375 1
355 354 5
356 336 5
356 357 2
356 376 2
356 355 4
357 337 2
357 358 1
357 377 3
357 356 5
358 338 3
358 359 1
358 378 3
358 357 5
359 339 2
359 379 4
359 358 5
360 340 5
360 361 5
360 380 5
361 341 1
361 362 5
361 381 3
361 360 1
362 342 2
362 363 3
362 382 3
362 361 3
363 343 3
363 364 1
363 383 2
363 362 2
364 344 5
364 365 4
364 384 1
364 363 2
365 345 1
365 366 1
365 385 5
365 364 2
366 346 4
366 367 4
366 386 4
366 365 3
367 347 2
367 368 3
367 387 3
367 366 3
368 348 5
368 369 5
368 388 1
368 367 1
369 349 2
369 370 2
369 389 5
369 368 1
370 350 1
370 371 3
370 390 4
370 369 4
371 351 4
371 372 5
371 391 4
371 370 4
372 352 3
372 373 2
372 392 5
372 371 1
373 353 3
373 374 4
373 393 1
373 372 3
374 354 5
374 375 4
374 394 5
374 373 3
375 355 1
375 376 2
375 395 4
375 374 5
376 356 1
376 377 1
376 396 2
376 375 3
377 357 2
377 378 2
377 397 3
377 376 3
378 358 3
378 379 1
378 398 1
378 377 4
379 359 4
379 399 2
379 378 2
380 360 4
380 381 5
381 361 2
381 382 5
381 380 5
382 362 3
382 383 1
382 381 4
383 363 1
383 384 4
383 382 1
384 364 4
384 385 1
384 383 3
385 365 5
385 386 4
385 384 5
386 366 4
386 387 4
386 385 3
387 367 1
387 388 4
387 386 1
388 368 3
388 389 2
388 387 5
389 369 4
389 390 3
389 388 1
390 370 4
390 391 1
390 389 2
391 371 4
391 392 5
391 390 4
392 372 5
392 393 1
392 391 4
393 373 3
393 394 3
393 392 2
394 374 3
394 395 2
394 393 1
395 375 5
395 396 1
395 394 5
396 376 5
396 397 2
396 395 3
397 377 3
397 398 2
397 396 2
398 378 1
398 399 2
398 397 3
399 379 2
399 398 2
