# N=40, Total Nodes=1600
# Format: u v base_weight
0 1 1
0 40 1
1 2 3
1 41 2
1 0 2
2 3 2
2 42 1
2 1 5
3 4 1
3 43 5
3 2 4
4 5 1
4 44 1
4 3 1
5 6 2
5 45 2
5 4 5
6 7 5
6 46 1
6 5 5
7 8 2
7 47 5
7 6 4
8 9 2
8 48 4
8 7 5
9 10 3
9 49 1
9 8 2
10 11 4
10 50 3
10 9 3
11 12 2
11 51 2
11 10 3
12 13 1
12 52 1
12 11 4
13 14 1
13 53 3
13 12 3
14 15 5
14 54 3
14 13 1
15 16 4
15 55 5
15 14 1
16 17 4
16 56 1
16 15 5
17 18 3
17 57 5
17 16 3
18 19 5
18 58 2
18 17 1
19 20 1
19 59 2
19 18 3
20 21 1
20 60 2
20 19 1
21 22 4
21 61 3
21 20 4
22 23 3
22 62 2
22 21 3
23 24 3
23 63 2
23 22 3
24 25 1
24 64 5
24 23 2
25 26 5
25 65 2
25 24 2
26 27 4
26 66 4
26 25 3
27 28 5
27 67 2
27 26 3
28 29 1
28 68 2
28 27 1
29 30 3
29 69 4
29 28 3
30 31 1
30 70 2
30 29 5
31 32 3
31 71 2
31 30 4
32 33 4
32 72 4
32 31 2
33 34 3
33 73 2
33 32 2
34 35 5
34 74 5
34 33 3
35 36 5
35 75 4
35 34 5
36 37 4
36 76 3
36 35 2
37 38 2
37 77 5
37 36 4
38 39 1
38 78 1
38 37 1
39 79 2
39 38 2
40 0 4
40 41 5
40 80 1
41 1 4
41 42 4
41 81 5
41 40 4
42 2 5
42 43 3
42 82 5
42 41 1
43 3 1
43 44 5
43 83 3
43 42 3
44 4 1
44 45 3
44 84 4
44 43 2
45 5 4
45 46 1
45 85 3
45 44 5
46 6 2
46 47 5
46 86 1
46 45 3
47 7 5
47 48 5
47 87 2
47 46 2
48 8 3
48 49 2
48 88 5
48 47 5
49 9 1
49 50 5
49 89 3
49 48 4
50 10 1
50 51 1
50 90 3
50 49 3
51 11 2
51 52 1
51 91 2
51 50 5
52 12 1
52 53 1
52 92 4
52 51 1
53 13 5
53 54 2
53 93 2
53 52 4
54 14 5
54 55 2
54 94 3
54 53 5
55 15 5
55 56 4
55 95 2
55 54 5
56 16 2
56 57 3
56 96 4
56 55 3
57 17 4
57 58 5
57 97 4
57 56 1
58 18 2
58 59 2
58 98 1
58 57 3
59 19 1
59 60 5
59 99 5
59 58 2
60 20 5
60 61 2
60 100 1
60 59 1
61 21 1
61 62 2
61 101 1
61 60 1
62 22 3
62 63 1
62 102 5
62 61 2
63 23 3
63 64 4
63 103 2
63 62 5
64 24 2
64 65 5
64 104 5
64 63 4
65 25 2
65 66 4
65 105 4
65 64 2
66 26 1
66 67 1
66 106 4
66 65 3
67 27 4
67 68 4
67 107 4
67 66 1
68 28 1
68 69 1
68 108 4
68 67 3
69 29 1
69 70 2
69 109 2
69 68 2
70 30 5
70 71 4
70 110 2
70 69 4
71 31 2
71 72 3
71 111 4
71 70 2
72 32 1
72 73 4
72 112 5
72 71 1
73 33 1
73 74 5
73 113 1
73 72 1
74 34 2
74 75 2
74 114 4
74 73 4
75 35 4
75 76 2
75 115 4
75 74 1
76 36 2
76 77 4
76 116 1
76 75 4
77 37 3
77 78 4
77 117 3
77 76 4
78 38 5
78 79 4
78 118 2
78 77 2
79 39 3
79 119 2
79 78 1
80 40 5
80 81 5
80 120 1
81 41 3
81 82 1
81 121 1
81 80 5
82 42 4
82 83 5
82 122 5
82 81 2
83 43 1
83 84 5
83 123 1
83 82 2
84 44 1
84 85 5
84 124 1
84 83 2
85 45 4
85 86 1
85 125 5
85 84 2
86 46 5
86 87 5
86 126 1
86 85 5
87 47 1
87 88 4
87 127 5
87 86 5
88 48 5
88 89 3
88 128 3
88 87 2
89 49 3
89 90 2
89 129 3
89 88 4
90 50 2
90 91 3
90 130 4
90 89 3
91 51 1
91 92 1
91 131 4
91 90 5
92 52 5
92 93 1
92 132 1
92 91 5
93 53 2
93 94 5
93 133 3
93 92 2
94 54 3
94 95 1
94 134 2
94 93 3
95 55 3
95 96 2
95 135 4
95 94 5
96 56 3
96 97 5
96 136 5
96 95 1
97 57 5
97 98 3
97 137 1
97 96 2
98 58 3
98 99 1
98 138 1
98 97 5
99 59 2
99 100 3
99 139 3
99 98 5
100 60 2
100 101 3
100 140 2
100 99 3
101 61 5
101 102 4
101 141 3
101 100 1
102 62 1
102 103 4
102 142 3
102 101 1
103 63 1
103 104 3
103 143 2
103 102 3
104 64 2
104 105 4
104 144 5
104 103 4
105 65 5
105 106 1
105 145 1
105 104 1
106 66 2
106 107 5
106 146 1
106 105 3
107 67 5
107 108 5
107 147 2
107 106 4
108 68 2
108 109 1
108 148 3
108 107 3
109 69 1
109 110 3
109 149 2
109 108 2
110 70 1
110 111 3
110 150 5
110 109 4
111 71 5
111 112 2
111 151 2
111 110 2
112 72 2
112 113 4
112 152 1
112 111 2
113 73 3
113 114 4
113 153 2
113 112 3
114 74 2
114 115 1
114 154 4
114 113 1
115 75 4
115 116 2
115 155 2
115 114 4
116 76 3
116 117 3
116 156 2
116 115 2
117 77 1
117 118 2
117 157 4
117 116 3
118 78 3
118 119 1
118 158 3
118 117 3
119 79 5
119 159 4
119 118 5
120 80 3
120 121 1
120 160 1
121 81 3
121 122 2
121 161 5
121 120 3
122 82 1
122 123 1
122 162 5
122 121 4
123 83 3
123 124 3
123 163 4
123 122 5
124 84 5
124 125 1
124 164 4
124 123 5
125 85 2
125 126 3
125 165 1
125 124 4
126 86 1
126 127 5
126 166 5
126 125 2
127 87 3
127 128 4
127 167 1
127 126 3
128 88 5
128 129 3
128 168 1
128 127 3
129 89 5
129 130 3
129 169 4
129 128 3
130 90 4
130 131 3
130 170 5
130 129 2
131 91 2
131 132 4
131 171 4
131 130 2
132 92 5
132 133 5
132 172 3
132 131 4
133 93 5
133 134 1
133 173 3
133 132 3
134 94 2
134 135 4
134 174 5
134 133 5
135 95 3
135 136 4
135 175 4
135 134 4
136 96 2
136 137 5
136 176 4
136 135 2
137 97 1
137 138 3
137 177 5
137 136 5
138 98 3
138 139 1
138 178 2
138 137 3
139 99 2
139 140 2
139 179 2
139 138 1
140 100 1
140 141 2
140 180 4
140 139 5
141 101 1
141 142 4
141 181 4
141 140 5
142 102 2
142 143 4
142 182 4
142 141 4
143 103 2
143 144 2
143 183 1
143 142 1
144 104 4
144 145 2
144 184 2
144 143 5
145 105 4
145 146 1
145 185 5
145 144 2
146 106 1
146 147 4
146 186 2
146 145 4
147 107 5
147 148 5
147 187 5
147 146 3
148 108 4
148 149 5
148 188 5
148 147 4
149 109 5
149 150 4
149 189 2
149 148 4
150 110 4
150 151 3
150 190 2
150 149 3
151 111 5
151 152 4
151 191 2
151 150 3
152 112 4
152 153 1
152 192 3
152 151 2
153 113 3
153 154 3
153 193 3
153 152 5
154 114 1
154 155 2
154 194 2
154 153 2
155 115 4
155 156 2
155 195 2
155 154 1
156 116 4
156 157 4
156 196 3
156 155 5
157 117 4
157 158 4
157 197 1
157 156 2
158 118 4
158 159 4
158 198 5
158 157 1
159 119 5
159 199 4
159 158 4
160 120 1
160 161 3
160 200 3
161 121 4
161 162 4
161 201 5
161 160 5
162 122 5
162 163 2
162 202 4
162 161 2
163 123 3
163 164 4
163 203 4
163 162 1
164 124 4
164 165 3
164 204 4
164 163 2
165 125 4
165 166 2
165 205 5
165 164 5
166 126 1
166 167 4
166 206 5
166 165 5
167 127 1
167 168 1
167 207 4
167 166 2
168 128 4
168 169 2
168 208 1
168 167 3
169 129 4
169 170 3
169 209 2
169 168 4
170 130 3
170 171 3
170 210 4
170 169 3
171 131 4
171 172 3
171 211 1
171 170 4
172 132 1
172 173 5
172 212 1
172 171 3
173 133 2
173 174 1
173 213 1
173 172 1
174 134 2
174 175 2
174 214 1
174 173 5
175 135 2
175 176 2
175 215 2
175 174 4
176 136 1
176 177 5
176 216 2
176 175 4
177 137 3
177 178 3
177 217 2
177 176 5
178 138 5
178 179 1
178 218 2
178 177 3
179 139 1
179 180 5
179 219 1
179 178 3
180 140 5
180 181 4
180 220 4
180 179 2
181 141 1
181 182 5
181 221 2
181 180 1
182 142 3
182 183 5
182 222 1
182 181 5
183 143 1
183 184 3
183 223 5
183 182 4
184 144 3
184 185 1
184 224 5
184 183 3
185 145 1
185 186 4
185 225 4
185 184 1
186 146 4
186 187 3
186 226 4
186 185 2
187 147 4
187 188 2
187 227 5
187 186 3
188 148 5
188 189 5
188 228 4
188 187 4
189 149 4
189 190 5
189 229 3
189 188 3
190 150 2
190 191 1
190 230 3
190 189 4
191 151 2
191 192 4
191 231 5
191 190 5
192 152 4
192 193 3
192 232 1
192 191 4
193 153 3
193 194 2
193 233 4
193 192 2
194 154 3
194 195 3
194 234 3
194 193 3
195 155 5
195 196 3
195 235 5
195 194 1
196 156 5
196 197 2
196 236 1
196 195 2
197 157 4
197 198 4
197 237 5
197 196 2
198 158 4
198 199 4
198 238 4
198 197 1
199 159 1
199 239 3
199 198 2
200 160 4
200 201 2
200 240 3
201 161 5
201 202 3
201 241 4
201 200 5
202 162 5
202 203 3
202 242 4
202 201 5
203 163 3
203 204 3
203 243 4
203 202 3
204 164 3
204 205 3
204 244 2
204 203 1
205 165 2
205 206 3
205 245 1
205 204 5
206 166 2
206 207 2
206 246 2
206 205 4
207 167 3
207 208 5
207 247 5
207 206 5
208 168 3
208 209 1
208 248 2
208 207 3
209 169 2
209 210 3
209 249 2
209 208 3
210 170 1
210 211 5
210 250 2
210 209 3
211 171 1
211 212 1
211 251 5
211 210 3
212 172 2
212 213 4
212 252 1
212 211 1
213 173 5
213 214 3
213 253 4
213 212 4
214 174 4
214 215 3
214 254 2
214 213 1
215 175 3
215 216 4
215 255 1
215 214 1
216 176 4
216 217 4
216 256 1
216 215 5
217 177 1
217 218 2
217 257 2
217 216 5
218 178 3
218 219 1
218 258 2
218 217 1
219 179 5
219 220 4
219 259 5
219 218 5
220 180 5
220 221 2
220 260 5
220 219 4
221 181 4
221 222 4
221 261 3
221 220 5
222 182 4
222 223 3
222 262 5
222 221 5
223 183 1
223 224 5
223 263 1
223 222 2
224 184 2
224 225 3
224 264 1
224 223 2
225 185 2
225 226 2
225 265 5
225 224 1
226 186 2
226 227 1
226 266 4
226 225 4
227 187 5
227 228 4
227 267 3
227 226 1
228 188 2
228 229 3
228 268 3
228 227 4
229 189 1
229 230 2
229 269 3
229 228 5
230 190 2
230 231 4
230 270 1
230 229 5
231 191 2
231 232 2
231 271 3
231 230 2
232 192 1
232 233 1
232 272 2
232 231 3
233 193 5
233 234 5
233 273 3
233 232 4
234 194 1
234 235 4
234 274 3
234 233 4
235 195 3
235 236 5
235 275 5
235 234 4
236 196 4
236 237 1
236 276 5
236 235 1
237 197 4
237 238 3
237 277 5
237 236 3
238 198 1
238 239 1
238 278 2
238 237 5
239 199 5
239 279 1
239 238 3
240 200 5
240 241 1
240 280 2
241 201 4
241 242 5
241 281 4
241 240 3
242 202 2
242 243 5
242 282 4
242 241 4
243 203 1
243 244 4
243 283 3
243 242 4
244 204 3
244 245 3
244 284 1
244 243 2
245 205 3
245 246 4
245 285 4
245 244 3
246 206 4
246 247 5
246 286 1
246 245 4
247 207 1
247 248 3
247 287 3
247 246 3
248 208 1
248 249 4
248 288 5
248 247 1
249 209 5
249 250 4
249 289 4
249 248 1
250 210 2
250 251 5
250 290 3
250 249 5
251 211 4
251 252 4
251 291 1
251 250 2
252 212 3
252 253 5
252 292 2
252 251 3
253 213 4
253 254 4
253 293 1
253 252 1
254 214 5
254 255 2
254 294 2
254 253 3
255 215 5
255 256 1
255 295 5
255 254 4
256 216 1
256 257 2
256 296 1
256 255 4
257 217 1
257 258 2
257 297 4
257 256 3
258 218 5
258 259 3
258 298 4
258 257 4
259 219 4
259 260 2
259 299 4
259 258 5
260 220 2
260 261 4
260 300 2
260 259 5
261 221 5
261 262 2
261 301 1
261 260 3
262 222 4
262 263 3
262 302 5
262 261 3
263 223 1
263 264 3
263 303 3
263 262 5
264 224 5
264 265 4
264 304 2
264 263 4
265 225 5
265 266 4
265 305 3
265 264 3
266 226 5
266 267 5
266 306 4
266 265 4
267 227 3
267 268 2
267 307 2
267 266 5
268 228 4
268 269 2
268 308 4
268 267 1
269 229 3
269 270 4
269 309 4
269 268 4
270 230 2
270 271 4
270 310 1
270 269 2
271 231 5
271 272 5
271 311 3
271 270 1
272 232 4
272 273 1
272 312 5
272 271 4
273 233 1
273 274 2
273 313 4
273 272 2
274 234 1
274 275 4
274 314 3
274 273 3
275 235 5
275 276 4
275 315 1
275 274 3
276 236 5
276 277 4
276 316 3
276 275 4
277 237 5
277 278 1
277 317 5
277 276 1
278 238 2
278 279 3
278 318 2
278 277 1
279 239 4
279 319 1
279 278 1
280 240 4
280 281 2
280 320 3
281 241 1
281 282 1
281 321 3
281 280 1
282 242 3
282 283 3
282 322 3
282 281 4
283 243 2
283 284 2
283 323 5
283 282 4
284 244 5
284 285 2
284 324 2
284 283 2
285 245 1
285 286 5
285 325 4
285 284 5
286 246 2
286 287 4
286 326 5
286 285 2
287 247 2
287 288 4
287 327 3
287 286 4
288 248 3
288 289 1
288 328 4
288 287 3
289 249 5
289 290 2
289 329 1
289 288 4
290 250 3
290 291 5
290 330 3
290 289 4
291 251 3
291 292 4
291 331 3
291 290 2
292 252 4
292 293 4
292 332 1
292 291 2
293 253 4
293 294 5
293 333 3
293 292 5
294 254 3
294 295 3
294 334 1
294 293 4
295 255 3
295 296 1
295 335 5
295 294 1
296 256 5
296 297 4
296 336 3
296 295 2
297 257 5
297 298 3
297 337 2
297 296 2
298 258 5
298 299 3
298 338 2
298 297 1
299 259 1
299 300 3
299 339 4
299 298 1
300 260 5
300 301 3
300 340 2
300 299 1
301 261 3
301 302 3
301 341 4
301 300 2
302 262 2
302 303 2
302 342 5
302 301 3
303 263 5
303 304 5
303 343 3
303 302 2
304 264 3
304 305 4
304 344 3
304 303 3
305 265 1
305 306 4
305 345 1
305 304 2
306 266 2
306 307 4
306 346 5
306 305 3
307 267 1
307 308 4
307 347 1
307 306 3
308 268 5
308 309 1
308 348 4
308 307 3
309 269 3
309 310 5
309 349 4
309 308 3
310 270 1
310 311 2
310 350 4
310 309 1
311 271 5
311 312 5
311 351 3
311 310 5
312 272 2
312 313 1
312 352 4
312 311 3
313 273 4
313 314 1
313 353 2
313 312 1
314 274 1
314 315 3
314 354 4
314 313 1
315 275 1
315 316 2
315 355 5
315 314 2
316 276 4
316 317 4
316 356 3
316 315 5
317 277 4
317 318 5
317 357 2
317 316 4
318 278 1
318 319 4
318 358 5
318 317 4
319 279 3
319 359 1
319 318 3
320 280 2
320 321 4
320 360 4
321 281 2
321 322 3
321 361 1
321 320 3
322 282 5
322 323 3
322 362 1
322 321 4
323 283 3
323 324 2
323 363 1
323 322 4
324 284 1
324 325 2
324 364 5
324 323 1
325 285 1
325 326 3
325 365 2
325 324 2
326 286 5
326 327 2
326 366 1
326 325 5
327 287 2
327 328 5
327 367 2
327 326 2
328 288 3
328 329 2
328 368 5
328 327 1
329 289 3
329 330 2
329 369 2
329 328 5
330 290 3
330 331 2
330 370 1
330 329 1
331 291 2
331 332 1
331 371 3
331 330 2
332 292 5
332 333 3
332 372 1
332 331 2
333 293 3
333 334 1
333 373 2
333 332 4
334 294 5
334 335 1
334 374 1
334 333 4
335 295 4
335 336 3
335 375 5
335 334 5
336 296 1
336 337 4
336 376 5
336 335 2
337 297 5
337 338 1
337 377 5
337 336 3
338 298 4
338 339 1
338 378 1
338 337 4
339 299 4
339 340 4
339 379 1
339 338 4
340 300 4
340 341 1
340 380 1
340 339 3
341 301 5
341 342 2
341 381 1
341 340 2
342 302 3
342 343 5
342 382 5
342 341 5
343 303 3
343 344 4
343 383 5
343 342 5
344 304 3
344 345 4
344 384 5
344 343 5
345 305 4
345 346 1
345 385 1
345 344 5
346 306 2
346 347 4
346 386 4
346 345 2
347 307 4
347 348 3
347 387 4
347 346 4
348 308 4
348 349 1
348 388 3
348 347 4
349 309 3
349 350 3
349 389 3
349 348 2
350 310 4
350 351 1
350 390 1
350 349 1
351 311 1
351 352 4
351 391 1
351 350 3
352 312 2
352 353 5
352 392 1
352 351 5
353 313 5
353 354 5
353 393 3
353 352 1
354 314 4
354 355 3
354 394 4
354 353 1
355 315 3
355 356 5
355 395 3
355 354 3
356 316 1
356 357 5
356 396 5
356 355 2
357 317 2
357 358 4
357 397 2
357 356 1
358 318 3
358 359 5
358 398 3
358 357 1
359 319 3
359 399 5
359 358 2
360 320 4
360 361 5
360 400 5
361 321 5
361 362 5
361 401 1
361 360 5
362 322 3
362 363 1
362 402 2
362 361 3
363 323 3
363 364 3
363 403 3
363 362 1
364 324 2
364 365 2
364 404 5
364 363 4
365 325 1
365 366 2
365 405 1
365 364 1
366 326 5
366 367 2
366 406 4
366 365 4
367 327 4
367 368 3
367 407 2
367 366 3
368 328 3
368 369 3
368 408 5
368 367 5
369 329 1
369 370 1
369 409 2
369 368 2
370 330 5
370 371 1
370 410 1
370 369 3
371 331 4
371 372 4
371 411 4
371 370 5
372 332 4
372 373 4
372 412 3
372 371 2
373 333 5
373 374 1
373 413 3
373 372 4
374 334 1
374 375 3
374 414 5
374 373 4
375 335 5
375 376 3
375 415 1
375 374 2
376 336 4
376 377 5
376 416 1
376 375 1
377 337 2
377 378 3
377 417 2
377 376 2
378 338 3
378 379 3
378 418 3
378 377 1
379 339 1
379 380 4
379 419 4
379 378 2
380 340 2
380 381 4
380 420 5
380 379 2
381 341 5
381 382 5
381 421 3
381 380 1
382 342 4
382 383 1
382 422 4
382 381 1
383 343 4
383 384 1
383 423 3
383 382 5
384 344 4
384 385 5
384 424 4
384 383 4
385 345 3
385 386 1
385 425 4
385 384 1
386 346 3
386 387 2
386 426 5
386 385 4
387 347 3
387 388 1
387 427 4
387 386 1
388 348 2
388 389 4
388 428 5
388 387 4
389 349 5
389 390 1
389 429 4
389 388 3
390 350 3
390 391 2
390 430 3
390 389 2
391 351 1
391 392 5
391 431 1
391 390 5
392 352 5
392 393 2
392 432 3
392 391 3
393 353 2
393 394 2
393 433 1
393 392 2
394 354 3
394 395 2
394 434 2
394 393 5
395 355 2
395 396 1
395 435 2
395 394 4
396 356 4
396 397 5
396 436 5
396 395 4
397 357 5
397 398 5
397 437 3
397 396 3
398 358 2
398 399 4
398 438 1
398 397 4
399 359 4
399 439 3
399 398 3
400 360 5
400 401 1
400 440 3
401 361 5
401 402 1
401 441 3
401 400 4
402 362 4
402 403 1
402 442 1
402 401 3
403 363 3
403 404 1
403 443 1
403 402 5
404 364 5
404 405 5
404 444 4
404 403 4
405 365 5
405 406 5
405 445 1
405 404 4
406 366 5
406 407 2
406 446 3
406 405 5
407 367 4
407 408 5
407 447 2
407 406 1
408 368 4
408 409 1
408 448 3
408 407 1
409 369 5
409 410 2
409 449 1
409 408 2
410 370 4
410 411 4
410 450 5
410 409 5
411 371 5
411 412 2
411 451 3
411 410 3
412 372 3
412 413 4
412 452 4
412 411 3
413 373 5
413 414 1
413 453 3
413 412 1
414 374 3
414 415 1
414 454 5
414 413 4
415 375 3
415 416 3
415 455 5
415 414 2
416 376 3
416 417 1
416 456 5
416 415 2
417 377 3
417 418 3
417 457 4
417 416 2
418 378 5
418 419 1
418 458 3
418 417 5
419 379 4
419 420 3
419 459 2
419 418 5
420 380 1
420 421 4
420 460 5
420 419 3
421 381 1
421 422 3
421 461 3
421 420 2
422 382 2
422 423 3
422 462 4
422 421 2
423 383 2
423 424 2
423 463 2
423 422 1
424 384 3
424 425 1
424 464 5
424 423 5
425 385 5
425 426 1
425 465 3
425 424 5
426 386 2
426 427 5
426 466 4
426 425 2
427 387 2
427 428 2
427 467 5
427 426 2
428 388 4
428 429 1
428 468 4
428 427 3
429 389 2
429 430 4
429 469 5
429 428 3
430 390 4
430 431 2
430 470 5
430 429 2
431 391 3
431 432 4
431 471 2
431 430 3
432 392 5
432 433 4
432 472 4
432 431 3
433 393 4
433 434 5
433 473 5
433 432 4
434 394 2
434 435 2
434 474 5
434 433 2
435 395 3
435 436 1
435 475 4
435 434 3
436 396 5
436 437 1
436 476 5
436 435 1
437 397 3
437 438 1
437 477 2
437 436 3
438 398 4
438 439 5
438 478 2
438 437 4
439 399 1
439 479 2
439 438 4
440 400 3
440 441 1
440 480 4
441 401 1
441 442 4
441 481 5
441 440 3
442 402 2
442 443 4
442 482 1
442 441 3
443 403 2
443 444 1
443 483 3
443 442 1
444 404 3
444 445 2
444 484 2
444 443 1
445 405 3
445 446 4
445 485 2
445 444 4
446 406 4
446 447 5
446 486 1
446 445 1
447 407 1
447 448 3
447 487 2
447 446 2
448 408 5
448 449 5
448 488 5
448 447 4
449 409 1
449 450 3
449 489 2
449 448 3
450 410 1
450 451 1
450 490 2
450 449 4
451 411 5
451 452 4
451 491 1
451 450 1
452 412 4
452 453 5
452 492 5
452 451 1
453 413 5
453 454 5
453 493 2
453 452 2
454 414 3
454 455 4
454 494 1
454 453 5
455 415 3
455 456 2
455 495 5
455 454 4
456 416 2
456 457 1
456 496 5
456 455 3
457 417 1
457 458 5
457 497 5
457 456 5
458 418 5
458 459 5
458 498 1
458 457 4
459 419 4
459 460 1
459 499 4
459 458 3
460 420 3
460 461 1
460 500 3
460 459 1
461 421 3
461 462 2
461 501 1
461 460 5
462 422 3
462 463 2
462 502 1
462 461 3
463 423 5
463 464 3
463 503 2
463 462 4
464 424 4
464 465 2
464 504 2
464 463 1
465 425 4
465 466 1
465 505 3
465 464 2
466 426 1
466 467 2
466 506 1
466 465 3
467 427 3
467 468 5
467 507 4
467 466 5
468 428 4
468 469 3
468 508 1
468 467 2
469 429 3
469 470 3
469 509 1
469 468 3
470 430 3
470 471 1
470 510 3
470 469 4
471 431 4
471 472 4
471 511 4
471 470 3
472 432 2
472 473 4
472 512 4
472 471 3
473 433 5
473 474 3
473 513 1
473 472 4
474 434 1
474 475 4
474 514 5
474 473 2
475 435 5
475 476 3
475 515 3
475 474 1
476 436 1
476 477 3
476 516 3
476 475 3
477 437 4
477 478 5
477 517 4
477 476 2
478 438 4
478 479 3
478 518 4
478 477 1
479 439 3
479 519 5
479 478 4
480 440 3
480 481 1
480 520 1
481 441 4
481 482 3
481 521 5
481 480 2
482 442 1
482 483 2
482 522 5
482 481 4
483 443 1
483 484 2
483 523 1
483 482 2
484 444 3
484 485 3
484 524 4
484 483 5
485 445 1
485 486 5
485 525 2
485 484 4
486 446 3
486 487 3
486 526 4
486 485 1
487 447 5
487 488 2
487 527 5
487 486 3
488 448 4
488 489 3
488 528 3
488 487 2
489 449 1
489 490 1
489 529 2
489 488 4
490 450 5
490 491 4
490 530 5
490 489 1
491 451 3
491 492 3
491 531 4
491 490 2
492 452 5
492 493 3
492 532 4
492 491 2
493 453 1
493 494 2
493 533 1
493 492 4
494 454 2
494 495 4
494 534 1
494 493 3
495 455 3
495 496 1
495 535 5
495 494 5
496 456 3
496 497 3
496 536 2
496 495 2
497 457 3
497 498 5
497 537 2
497 496 1
498 458 2
498 499 2
498 538 2
498 497 4
499 459 1
499 500 3
499 539 5
499 498 5
500 460 3
500 501 4
500 540 5
500 499 2
501 461 5
501 502 1
501 541 1
501 500 3
502 462 4
502 503 4
502 542 5
502 501 4
503 463 4
503 504 5
503 543 1
503 502 2
504 464 3
504 505 1
504 544 4
504 503 4
505 465 5
505 506 3
505 545 2
505 504 5
506 466 5
506 507 2
506 546 2
506 505 4
507 467 5
507 508 1
507 547 1
507 506 5
508 468 2
508 509 3
508 548 2
508 507 2
509 469 3
509 510 2
509 549 3
509 508 5
510 470 3
510 511 1
510 550 3
510 509 2
511 471 5
511 512 3
511 551 2
511 510 3
512 472 5
512 513 5
512 552 1
512 511 5
513 473 2
513 514 5
513 553 5
513 512 2
514 474 2
514 515 5
514 554 5
514 513 3
515 475 5
515 516 1
515 555 1
515 514 1
516 476 1
516 517 5
516 556 3
516 515 2
517 477 5
517 518 4
517 557 5
517 516 1
518 478 4
518 519 5
518 558 3
518 517 3
519 479 4
519 559 2
519 518 4
520 480 3
520 521 4
520 560 1
521 481 1
521 522 2
521 561 4
521 520 4
522 482 4
522 523 4
522 562 2
522 521 3
523 483 5
523 524 2
523 563 3
523 522 3
524 484 3
524 525 4
524 564 2
524 523 3
525 485 5
525 526 5
525 565 1
525 524 3
526 486 2
526 527 4
526 566 1
526 525 3
527 487 4
527 528 2
527 567 2
527 526 1
528 488 1
528 529 3
528 568 4
528 527 5
529 489 4
529 530 2
529 569 2
529 528 3
530 490 5
530 531 3
530 570 2
530 529 2
531 491 4
531 532 5
531 571 4
531 530 4
532 492 3
532 533 4
532 572 1
532 531 1
533 493 4
533 534 5
533 573 4
533 532 2
534 494 2
534 535 5
534 574 3
534 533 1
535 495 1
535 536 3
535 575 4
535 534 5
536 496 4
536 537 3
536 576 5
536 535 1
537 497 1
537 538 4
537 577 2
537 536 3
538 498 3
538 539 4
538 578 3
538 537 1
539 499 4
539 540 1
539 579 5
539 538 5
540 500 2
540 541 3
540 580 5
540 539 3
541 501 1
541 542 4
541 581 5
541 540 4
542 502 5
542 543 3
542 582 5
542 541 5
543 503 1
543 544 2
543 583 1
543 542 4
544 504 3
544 545 3
544 584 5
544 543 3
545 505 2
545 546 2
545 585 5
545 544 5
546 506 4
546 547 5
546 586 1
546 545 1
547 507 1
547 548 2
547 587 3
547 546 4
548 508 5
548 549 4
548 588 2
548 547 5
549 509 5
549 550 2
549 589 3
549 548 5
550 510 3
550 551 2
550 590 4
550 549 5
551 511 3
551 552 5
551 591 3
551 550 5
552 512 5
552 553 5
552 592 4
552 551 5
553 513 3
553 554 4
553 593 1
553 552 3
554 514 3
554 555 1
554 594 4
554 553 5
555 515 3
555 556 1
555 595 5
555 554 4
556 516 3
556 557 5
556 596 5
556 555 2
557 517 1
557 558 5
557 597 4
557 556 2
558 518 5
558 559 5
558 598 4
558 557 2
559 519 2
559 599 1
559 558 5
560 520 1
560 561 2
560 600 1
561 521 4
561 562 3
561 601 4
561 560 2
562 522 4
562 563 2
562 602 4
562 561 5
563 523 5
563 564 4
563 603 1
563 562 2
564 524 5
564 565 2
564 604 5
564 563 3
565 525 4
565 566 5
565 605 4
565 564 3
566 526 2
566 567 4
566 606 5
566 565 3
567 527 5
567 568 3
567 607 3
567 566 5
568 528 4
568 569 2
568 608 2
568 567 3
569 529 5
569 570 3
569 609 2
569 568 3
570 530 3
570 571 2
570 610 4
570 569 3
571 531 4
571 572 3
571 611 5
571 570 3
572 532 3
572 573 1
572 612 5
572 571 5
573 533 4
573 574 4
573 613 3
573 572 2
574 534 3
574 575 1
574 614 3
574 573 1
575 535 3
575 576 4
575 615 3
575 574 4
576 536 2
576 577 2
576 616 5
576 575 3
577 537 5
577 578 3
577 617 2
577 576 1
578 538 5
578 579 5
578 618 2
578 577 2
579 539 1
579 580 5
579 619 2
579 578 2
580 540 1
580 581 1
580 620 4
580 579 3
581 541 4
581 582 1
581 621 2
581 580 1
582 542 5
582 583 2
582 622 4
582 581 4
583 543 4
583 584 2
583 623 3
583 582 3
584 544 3
584 585 1
584 624 1
584 583 5
585 545 2
585 586 5
585 625 1
585 584 2
586 546 4
586 587 2
586 626 1
586 585 4
587 547 4
587 588 2
587 627 3
587 586 1
588 548 1
588 589 3
588 628 5
588 587 5
589 549 1
589 590 3
589 629 3
589 588 4
590 550 5
590 591 5
590 630 4
590 589 2
591 551 5
591 592 4
591 631 3
591 590 2
592 552 1
592 593 3
592 632 2
592 591 4
593 553 3
593 594 2
593 633 1
593 592 3
594 554 3
594 595 5
594 634 2
594 593 2
595 555 5
595 596 4
595 635 4
595 594 5
596 556 3
596 597 1
596 636 4
596 595 1
597 557 2
597 598 2
597 637 4
597 596 3
598 558 2
598 599 1
598 638 3
598 597 4
599 559 2
599 639 4
599 598 3
600 560 3
600 601 3
600 640 5
601 561 5
601 602 1
601 641 3
601 600 3
602 562 2
602 603 1
602 642 1
602 601 4
603 563 3
603 604 2
603 643 4
603 602 5
604 564 3
604 605 1
604 644 3
604 603 3
605 565 5
605 606 2
605 645 2
605 604 2
606 566 4
606 607 2
606 646 4
606 605 5
607 567 3
607 608 4
607 647 5
607 606 4
608 568 5
608 609 2
608 648 2
608 607 5
609 569 1
609 610 5
609 649 4
609 608 5
610 570 3
610 611 1
610 650 5
610 609 1
611 571 1
611 612 5
611 651 5
611 610 2
612 572 5
612 613 5
612 652 2
612 611 2
613 573 3
613 614 5
613 653 4
613 612 1
614 574 2
614 615 5
614 654 4
614 613 1
615 575 5
615 616 4
615 655 1
615 614 4
616 576 2
616 617 5
616 656 4
616 615 4
617 577 5
617 618 1
617 657 5
617 616 4
618 578 3
618 619 1
618 658 4
618 617 3
619 579 1
619 620 2
619 659 5
619 618 1
620 580 1
620 621 4
620 660 3
620 619 1
621 581 5
621 622 1
621 661 1
621 620 4
622 582 1
622 623 3
622 662 4
622 621 2
623 583 2
623 624 4
623 663 3
623 622 4
624 584 4
624 625 4
624 664 4
624 623 1
625 585 5
625 626 2
625 665 3
625 624 1
626 586 2
626 627 5
626 666 4
626 625 5
627 587 2
627 628 2
627 667 1
627 626 1
628 588 3
628 629 4
628 668 5
628 627 4
629 589 5
629 630 4
629 669 2
629 628 2
630 590 4
630 631 3
630 670 2
630 629 3
631 591 2
631 632 1
631 671 1
631 630 4
632 592 5
632 633 1
632 672 2
632 631 2
633 593 1
633 634 1
633 673 5
633 632 1
634 594 4
634 635 5
634 674 1
634 633 2
635 595 1
635 636 4
635 675 4
635 634 2
636 596 5
636 637 2
636 676 1
636 635 2
637 597 5
637 638 3
637 677 2
637 636 5
638 598 3
638 639 5
638 678 5
638 637 3
639 599 2
639 679 3
639 638 2
640 600 5
640 641 2
640 680 4
641 601 3
641 642 3
641 681 1
641 640 5
642 602 5
642 643 2
642 682 4
642 641 5
643 603 4
643 644 1
643 683 3
643 642 4
644 604 5
644 645 3
644 684 4
644 643 4
645 605 2
645 646 3
645 685 4
645 644 2
646 606 5
646 647 4
646 686 2
646 645 2
647 607 3
647 648 2
647 687 4
647 646 1
648 608 5
648 649 4
648 688 4
648 647 5
649 609 5
649 650 2
649 689 4
649 648 2
650 610 3
650 651 2
650 690 3
650 649 1
651 611 4
651 652 3
651 691 1
651 650 5
652 612 2
652 653 1
652 692 3
652 651 4
653 613 5
653 654 5
653 693 1
653 652 1
654 614 2
654 655 5
654 694 5
654 653 2
655 615 4
655 656 2
655 695 3
655 654 3
656 616 1
656 657 2
656 696 2
656 655 1
657 617 4
657 658 2
657 697 5
657 656 2
658 618 4
658 659 2
658 698 5
658 657 3
659 619 3
659 660 4
659 699 4
659 658 5
660 620 3
660 661 3
660 700 3
660 659 3
661 621 5
661 662 4
661 701 4
661 660 1
662 622 4
662 663 3
662 702 2
662 661 3
663 623 3
663 664 4
663 703 1
663 662 5
664 624 2
664 665 2
664 704 1
664 663 3
665 625 5
665 666 5
665 705 5
665 664 4
666 626 3
666 667 2
666 706 2
666 665 3
667 627 2
667 668 4
667 707 5
667 666 2
668 628 4
668 669 5
668 708 3
668 667 3
669 629 4
669 670 4
669 709 4
669 668 2
670 630 3
670 671 2
670 710 2
670 669 5
671 631 4
671 672 2
671 711 5
671 670 1
672 632 5
672 673 1
672 712 1
672 671 1
673 633 1
673 674 4
673 713 2
673 672 2
674 634 1
674 675 2
674 714 1
674 673 2
675 635 5
675 676 4
675 715 3
675 674 1
676 636 5
676 677 5
676 716 4
676 675 4
677 637 1
677 678 1
677 717 5
677 676 5
678 638 4
678 679 1
678 718 1
678 677 5
679 639 3
679 719 5
679 678 3
680 640 1
680 681 5
680 720 4
681 641 2
681 682 1
681 721 1
681 680 5
682 642 2
682 683 2
682 722 2
682 681 5
683 643 5
683 684 3
683 723 3
683 682 3
684 644 4
684 685 1
684 724 3
684 683 4
685 645 4
685 686 5
685 725 2
685 684 2
686 646 3
686 687 1
686 726 1
686 685 1
687 647 4
687 688 4
687 727 4
687 686 5
688 648 4
688 689 1
688 728 1
688 687 2
689 649 1
689 690 4
689 729 4
689 688 3
690 650 5
690 691 1
690 730 5
690 689 1
691 651 2
691 692 2
691 731 5
691 690 4
692 652 3
692 693 1
692 732 1
692 691 3
693 653 5
693 694 5
693 733 1
693 692 2
694 654 3
694 695 1
694 734 2
694 693 5
695 655 2
695 696 4
695 735 1
695 694 3
696 656 2
696 697 5
696 736 2
696 695 5
697 657 4
697 698 5
697 737 3
697 696 4
698 658 2
698 699 1
698 738 5
698 697 3
699 659 1
699 700 1
699 739 4
699 698 2
700 660 1
700 701 3
700 740 5
700 699 5
701 661 5
701 702 4
701 741 3
701 700 1
702 662 3
702 703 4
702 742 4
702 701 2
703 663 3
703 704 5
703 743 4
703 702 4
704 664 2
704 705 5
704 744 4
704 703 1
705 665 5
705 706 3
705 745 2
705 704 1
706 666 1
706 707 3
706 746 2
706 705 4
707 667 2
707 708 4
707 747 3
707 706 3
708 668 1
708 709 1
708 748 1
708 707 3
709 669 4
709 710 3
709 749 3
709 708 1
710 670 2
710 711 1
710 750 2
710 709 4
711 671 4
711 712 5
711 751 5
711 710 5
712 672 4
712 713 1
712 752 1
712 711 1
713 673 3
713 714 5
713 753 1
713 712 5
714 674 5
714 715 3
714 754 4
714 713 1
715 675 3
715 716 4
715 755 4
715 714 1
716 676 5
716 717 2
716 756 5
716 715 5
717 677 2
717 718 4
717 757 2
717 716 2
718 678 3
718 719 3
718 758 3
718 717 4
719 679 2
719 759 1
719 718 2
720 680 4
720 721 3
720 760 4
721 681 3
721 722 4
721 761 1
721 720 3
722 682 3
722 723 2
722 762 4
722 721 5
723 683 5
723 724 2
723 763 4
723 722 1
724 684 2
724 725 3
724 764 1
724 723 4
725 685 3
725 726 5
725 765 4
725 724 3
726 686 4
726 727 3
726 766 4
726 725 5
727 687 2
727 728 3
727 767 3
727 726 5
728 688 2
728 729 4
728 768 3
728 727 2
729 689 4
729 730 3
729 769 3
729 728 4
730 690 5
730 731 2
730 770 3
730 729 4
731 691 3
731 732 4
731 771 3
731 730 1
732 692 5
732 733 2
732 772 5
732 731 5
733 693 2
733 734 5
733 773 1
733 732 4
734 694 2
734 735 4
734 774 3
734 733 1
735 695 4
735 736 4
735 775 2
735 734 3
736 696 2
736 737 3
736 776 2
736 735 4
737 697 4
737 738 1
737 777 4
737 736 5
738 698 4
738 739 5
738 778 4
738 737 5
739 699 5
739 740 4
739 779 5
739 738 1
740 700 3
740 741 5
740 780 5
740 739 1
741 701 1
741 742 2
741 781 3
741 740 2
742 702 5
742 743 1
742 782 5
742 741 4
743 703 3
743 744 4
743 783 1
743 742 1
744 704 1
744 745 3
744 784 2
744 743 5
745 705 5
745 746 5
745 785 5
745 744 5
746 706 2
746 747 4
746 786 3
746 745 4
747 707 4
747 748 5
747 787 5
747 746 2
748 708 3
748 749 1
748 788 4
748 747 1
749 709 3
749 750 4
749 789 1
749 748 1
750 710 2
750 751 3
750 790 3
750 749 3
751 711 4
751 752 2
751 791 5
751 750 4
752 712 3
752 753 4
752 792 1
752 751 4
753 713 4
753 754 3
753 793 1
753 752 3
754 714 1
754 755 1
754 794 1
754 753 3
755 715 1
755 756 2
755 795 2
755 754 5
756 716 2
756 757 5
756 796 2
756 755 3
757 717 5
757 758 4
757 797 4
757 756 2
758 718 4
758 759 2
758 798 2
758 757 4
759 719 4
759 799 1
759 758 5
760 720 2
760 761 4
760 800 5
761 721 4
761 762 4
761 801 1
761 760 2
762 722 2
762 763 3
762 802 1
762 761 5
763 723 1
763 764 5
763 803 2
763 762 3
764 724 3
764 765 2
764 804 4
764 763 1
765 725 3
765 766 4
765 805 5
765 764 3
766 726 5
766 767 4
766 806 5
766 765 4
767 727 5
767 768 1
767 807 3
767 766 3
768 728 4
768 769 5
768 808 2
768 767 3
769 729 5
769 770 5
769 809 1
769 768 2
770 730 3
770 771 1
770 810 2
770 769 3
771 731 1
771 772 2
771 811 3
771 770 2
772 732 5
772 773 4
772 812 4
772 771 5
773 733 2
773 774 5
773 813 4
773 772 4
774 734 2
774 775 4
774 814 5
774 773 2
775 735 5
775 776 2
775 815 4
775 774 3
776 736 2
776 777 2
776 816 3
776 775 4
777 737 5
777 778 1
777 817 3
777 776 1
778 738 4
778 779 2
778 818 2
778 777 4
779 739 5
779 780 5
779 819 4
779 778 4
780 740 4
780 781 4
780 820 4
780 779 4
781 741 2
781 782 1
781 821 5
781 780 1
782 742 2
782 783 3
782 822 1
782 781 3
783 743 2
783 784 5
783 823 3
783 782 2
784 744 4
784 785 5
784 824 4
784 783 5
785 745 5
785 786 1
785 825 5
785 784 1
786 746 3
786 787 5
786 826 3
786 785 5
787 747 1
787 788 4
787 827 5
787 786 2
788 748 4
788 789 1
788 828 2
788 787 3
789 749 1
789 790 4
789 829 3
789 788 3
790 750 1
790 791 4
790 830 1
790 789 2
791 751 2
791 792 5
791 831 3
791 790 5
792 752 4
792 793 2
792 832 5
792 791 2
793 753 2
793 794 2
793 833 1
793 792 5
794 754 3
794 795 5
794 834 3
794 793 5
795 755 5
795 796 2
795 835 3
795 794 3
796 756 3
796 797 5
796 836 3
796 795 5
797 757 1
797 798 2
797 837 4
797 796 1
798 758 3
798 799 2
798 838 2
798 797 2
799 759 2
799 839 3
799 798 2
800 760 4
800 801 4
800 840 2
801 761 5
801 802 3
801 841 4
801 800 4
802 762 4
802 803 1
802 842 1
802 801 4
803 763 5
803 804 3
803 843 3
803 802 4
804 764 4
804 805 3
804 844 5
804 803 1
805 765 1
805 806 4
805 845 3
805 804 1
806 766 5
806 807 4
806 846 2
806 805 4
807 767 2
807 808 4
807 847 3
807 806 3
808 768 3
808 809 3
808 848 5
808 807 5
809 769 2
809 810 5
809 849 4
809 808 3
810 770 1
810 811 1
810 850 1
810 809 4
811 771 1
811 812 1
811 851 2
811 810 4
812 772 4
812 813 1
812 852 4
812 811 2
813 773 2
813 814 3
813 853 2
813 812 3
814 774 1
814 815 3
814 854 3
814 813 1
815 775 3
815 816 2
815 855 1
815 814 4
816 776 3
816 817 2
816 856 4
816 815 1
817 777 1
817 818 1
817 857 2
817 816 4
818 778 1
818 819 2
818 858 5
818 817 2
819 779 5
819 820 4
819 859 1
819 818 1
820 780 3
820 821 1
820 860 4
820 819 2
821 781 4
821 822 1
821 861 2
821 820 4
822 782 1
822 823 1
822 862 1
822 821 3
823 783 3
823 824 3
823 863 2
823 822 4
824 784 2
824 825 2
824 864 1
824 823 5
825 785 5
825 826 1
825 865 5
825 824 2
826 786 4
826 827 3
826 866 2
826 825 2
827 787 4
827 828 5
827 867 4
827 826 2
828 788 1
828 829 1
828 868 2
828 827 1
829 789 5
829 830 4
829 869 3
829 828 4
830 790 3
830 831 2
830 870 2
830 829 3
831 791 1
831 832 2
831 871 5
831 830 5
832 792 5
832 833 5
832 872 3
832 831 1
833 793 3
833 834 2
833 873 5
833 832 5
834 794 5
834 835 2
834 874 4
834 833 3
835 795 1
835 836 2
835 875 4
835 834 4
836 796 1
836 837 2
836 876 4
836 835 5
837 797 1
837 838 5
837 877 1
837 836 3
838 798 3
838 839 2
838 878 4
838 837 5
839 799 4
839 879 3
839 838 5
840 800 2
840 841 4
840 880 1
841 801 1
841 842 5
841 881 1
841 840 1
842 802 3
842 843 2
842 882 1
842 841 1
843 803 4
843 844 5
843 883 3
843 842 5
844 804 4
844 845 4
844 884 4
844 843 1
845 805 5
845 846 5
845 885 5
845 844 2
846 806 3
846 847 1
846 886 3
846 845 1
847 807 5
847 848 2
847 887 2
847 846 5
848 808 3
848 849 4
848 888 5
848 847 1
849 809 3
849 850 4
849 889 2
849 848 1
850 810 2
850 851 1
850 890 4
850 849 1
851 811 4
851 852 5
851 891 5
851 850 1
852 812 3
852 853 2
852 892 1
852 851 1
853 813 2
853 854 1
853 893 2
853 852 4
854 814 3
854 855 5
854 894 5
854 853 3
855 815 2
855 856 3
855 895 2
855 854 3
856 816 1
856 857 1
856 896 3
856 855 4
857 817 3
857 858 5
857 897 1
857 856 3
858 818 5
858 859 1
858 898 4
858 857 4
859 819 5
859 860 3
859 899 1
859 858 4
860 820 5
860 861 2
860 900 3
860 859 2
861 821 3
861 862 1
861 901 5
861 860 1
862 822 2
862 863 5
862 902 1
862 861 1
863 823 1
863 864 2
863 903 1
863 862 4
864 824 3
864 865 4
864 904 2
864 863 2
865 825 1
865 866 5
865 905 4
865 864 2
866 826 3
866 867 2
866 906 4
866 865 3
867 827 3
867 868 1
867 907 5
867 866 3
868 828 1
868 869 5
868 908 1
868 867 2
869 829 2
869 870 5
869 909 1
869 868 4
870 830 1
870 871 4
870 910 3
870 869 3
871 831 3
871 872 1
871 911 5
871 870 4
872 832 1
872 873 3
872 912 2
872 871 3
873 833 5
873 874 3
873 913 5
873 872 2
874 834 4
874 875 3
874 914 5
874 873 4
875 835 2
875 876 5
875 915 2
875 874 2
876 836 1
876 877 4
876 916 1
876 875 2
877 837 5
877 878 3
877 917 1
877 876 3
878 838 1
878 879 4
878 918 3
878 877 1
879 839 2
879 919 5
879 878 2
880 840 4
880 881 4
880 920 1
881 841 2
881 882 3
881 921 1
881 880 1
882 842 2
882 883 5
882 922 4
882 881 3
883 843 4
883 884 1
883 923 5
883 882 1
884 844 5
884 885 2
884 924 4
884 883 1
885 845 5
885 886 5
885 925 1
885 884 4
886 846 2
886 887 2
886 926 3
886 885 3
887 847 3
887 888 4
887 927 3
887 886 3
888 848 4
888 889 3
888 928 2
888 887 1
889 849 2
889 890 2
889 929 5
889 888 1
890 850 2
890 891 1
890 930 2
890 889 4
891 851 4
891 892 3
891 931 4
891 890 1
892 852 5
892 893 3
892 932 2
892 891 4
893 853 3
893 894 4
893 933 3
893 892 1
894 854 1
894 895 2
894 934 3
894 893 5
895 855 1
895 896 2
895 935 3
895 894 2
896 856 1
896 897 2
896 936 3
896 895 4
897 857 5
897 898 1
897 937 3
897 896 3
898 858 2
898 899 1
898 938 4
898 897 4
899 859 5
899 900 5
899 939 2
899 898 1
900 860 4
900 901 1
900 940 2
900 899 1
901 861 1
901 902 1
901 941 2
901 900 2
902 862 2
902 903 4
902 942 3
902 901 1
903 863 5
903 904 5
903 943 3
903 902 1
904 864 1
904 905 1
904 944 2
904 903 4
905 865 2
905 906 1
905 945 3
905 904 1
906 866 1
906 907 4
906 946 1
906 905 2
907 867 5
907 908 4
907 947 4
907 906 4
908 868 1
908 909 4
908 948 4
908 907 2
909 869 3
909 910 2
909 949 2
909 908 3
910 870 3
910 911 4
910 950 2
910 909 1
911 871 5
911 912 5
911 951 5
911 910 2
912 872 3
912 913 4
912 952 4
912 911 5
913 873 4
913 914 1
913 953 1
913 912 3
914 874 4
914 915 2
914 954 4
914 913 2
915 875 5
915 916 2
915 955 5
915 914 1
916 876 4
916 917 3
916 956 4
916 915 5
917 877 4
917 918 3
917 957 5
917 916 5
918 878 3
918 919 4
918 958 3
918 917 2
919 879 1
919 959 3
919 918 5
920 880 2
920 921 1
920 960 3
921 881 1
921 922 4
921 961 5
921 920 3
922 882 5
922 923 2
922 962 2
922 921 1
923 883 2
923 924 2
923 963 3
923 922 5
924 884 1
924 925 2
924 964 5
924 923 4
925 885 3
925 926 2
925 965 2
925 924 2
926 886 5
926 927 3
926 966 3
926 925 5
927 887 1
927 928 3
927 967 5
927 926 5
928 888 2
928 929 5
928 968 2
928 927 4
929 889 5
929 930 3
929 969 2
929 928 4
930 890 1
930 931 1
930 970 1
930 929 2
931 891 5
931 932 2
931 971 1
931 930 5
932 892 4
932 933 1
932 972 3
932 931 5
933 893 2
933 934 2
933 973 3
933 932 2
934 894 3
934 935 1
934 974 1
934 933 2
935 895 5
935 936 2
935 975 1
935 934 5
936 896 3
936 937 1
936 976 3
936 935 4
937 897 5
937 938 1
937 977 3
937 936 3
938 898 3
938 939 2
938 978 2
938 937 4
939 899 4
939 940 3
939 979 2
939 938 5
940 900 5
940 941 3
940 980 2
940 939 5
941 901 2
941 942 4
941 981 3
941 940 3
942 902 2
942 943 2
942 982 1
942 941 5
943 903 4
943 944 5
943 983 1
943 942 2
944 904 5
944 945 3
944 984 5
944 943 2
945 905 5
945 946 1
945 985 4
945 944 2
946 906 3
946 947 1
946 986 2
946 945 3
947 907 3
947 948 2
947 987 1
947 946 3
948 908 4
948 949 1
948 988 3
948 947 2
949 909 2
949 950 1
949 989 3
949 948 3
950 910 1
950 951 1
950 990 1
950 949 4
951 911 4
951 952 4
951 991 2
951 950 4
952 912 4
952 953 4
952 992 3
952 951 5
953 913 4
953 954 1
953 993 4
953 952 5
954 914 2
954 955 2
954 994 4
954 953 1
955 915 1
955 956 3
955 995 1
955 954 3
956 916 3
956 957 1
956 996 1
956 955 3
957 917 2
957 958 4
957 997 2
957 956 1
958 918 5
958 959 1
958 998 3
958 957 5
959 919 5
959 999 4
959 958 1
960 920 4
960 961 2
960 1000 5
961 921 4
961 962 2
961 1001 1
961 960 1
962 922 3
962 963 2
962 1002 2
962 961 4
963 923 5
963 964 5
963 1003 3
963 962 3
964 924 3
964 965 2
964 1004 1
964 963 1
965 925 4
965 966 5
965 1005 5
965 964 4
966 926 2
966 967 1
966 1006 3
966 965 1
967 927 4
967 968 1
967 1007 3
967 966 5
968 928 4
968 969 2
968 1008 1
968 967 1
969 929 2
969 970 2
969 1009 3
969 968 1
970 930 4
970 971 1
970 1010 3
970 969 4
971 931 4
971 972 4
971 1011 3
971 970 1
972 932 5
972 973 4
972 1012 2
972 971 3
973 933 4
973 974 3
973 1013 2
973 972 4
974 934 1
974 975 3
974 1014 4
974 973 4
975 935 3
975 976 2
975 1015 3
975 974 5
976 936 1
976 977 2
976 1016 1
976 975 1
977 937 3
977 978 5
977 1017 4
977 976 5
978 938 2
978 979 5
978 1018 1
978 977 4
979 939 5
979 980 4
979 1019 5
979 978 4
980 940 5
980 981 2
980 1020 4
980 979 3
981 941 1
981 982 4
981 1021 1
981 980 5
982 942 5
982 983 5
982 1022 5
982 981 5
983 943 2
983 984 1
983 1023 4
983 982 2
984 944 2
984 985 2
984 1024 2
984 983 2
985 945 1
985 986 4
985 1025 1
985 984 4
986 946 2
986 987 2
986 1026 5
986 985 3
987 947 3
987 988 1
987 1027 1
987 986 4
988 948 5
988 989 4
988 1028 5
988 987 3
989 949 3
989 990 5
989 1029 4
989 988 1
990 950 5
990 991 5
990 1030 5
990 989 4
991 951 1
991 992 4
991 1031 2
991 990 2
992 952 5
992 993 5
992 1032 5
992 991 1
993 953 1
993 994 5
993 1033 1
993 992 3
994 954 5
994 995 3
994 1034 4
994 993 3
995 955 4
995 996 4
995 1035 5
995 994 5
996 956 4
996 997 1
996 1036 2
996 995 3
997 957 4
997 998 2
997 1037 5
997 996 5
998 958 4
998 999 1
998 1038 4
998 997 3
999 959 2
999 1039 1
999 998 4
1000 960 3
1000 1001 3
1000 1040 1
1001 961 3
1001 1002 3
1001 1041 3
1001 1000 3
1002 962 4
1002 1003 1
1002 1042 2
1002 1001 2
1003 963 3
1003 1004 4
1003 1043 3
1003 1002 3
1004 964 4
1004 1005 5
1004 1044 1
1004 1003 2
1005 965 4
1005 1006 2
1005 1045 4
1005 1004 4
1006 966 5
1006 1007 3
1006 1046 1
1006 1005 5
1007 967 2
1007 1008 1
1007 1047 3
1007 1006 5
1008 968 4
1008 1009 2
1008 1048 5
1008 1007 5
1009 969 1
1009 1010 2
1009 1049 2
1009 1008 2
1010 970 1
1010 1011 2
1010 1050 1
1010 1009 4
1011 971 1
1011 1012 3
1011 1051 2
1011 1010 3
1012 972 3
1012 1013 4
1012 1052 5
1012 1011 4
1013 973 1
1013 1014 1
1013 1053 2
1013 1012 3
1014 974 4
1014 1015 5
1014 1054 4
1014 1013 2
1015 975 4
1015 1016 5
1015 1055 5
1015 1014 3
1016 976 3
1016 1017 2
1016 1056 3
1016 1015 1
1017 977 3
1017 1018 1
1017 1057 4
1017 1016 1
1018 978 2
1018 1019 5
1018 1058 2
1018 1017 2
1019 979 2
1019 1020 2
1019 1059 3
1019 1018 4
1020 980 5
1020 1021 1
1020 1060 1
1020 1019 4
1021 981 2
1021 1022 2
1021 1061 5
1021 1020 1
1022 982 2
1022 1023 3
1022 1062 5
1022 1021 3
1023 983 3
1023 1024 4
1023 1063 4
1023 1022 3
1024 984 4
1024 1025 3
1024 1064 2
1024 1023 4
1025 985 3
1025 1026 5
1025 1065 5
1025 1024 4
1026 986 5
1026 1027 1
1026 1066 1
1026 1025 5
1027 987 3
1027 1028 5
1027 1067 5
1027 1026 5
1028 988 3
1028 1029 3
1028 1068 1
1028 1027 4
1029 989 1
1029 1030 3
1029 1069 3
1029 1028 3
1030 990 3
1030 1031 3
1030 1070 3
1030 1029 2
1031 991 2
1031 1032 5
1031 1071 2
1031 1030 1
1032 992 5
1032 1033 4
1032 1072 3
1032 1031 2
1033 993 1
1033 1034 4
1033 1073 3
1033 1032 3
1034 994 4
1034 1035 4
1034 1074 4
1034 1033 1
1035 995 5
1035 1036 5
1035 1075 2
1035 1034 3
1036 996 2
1036 1037 5
1036 1076 4
1036 1035 3
1037 997 5
1037 1038 3
1037 1077 2
1037 1036 5
1038 998 2
1038 1039 3
1038 1078 1
1038 1037 4
1039 999 2
1039 1079 3
1039 1038 5
1040 1000 2
1040 1041 3
1040 1080 1
1041 1001 2
1041 1042 3
1041 1081 2
1041 1040 3
1042 1002 4
1042 1043 3
1042 1082 3
1042 1041 3
1043 1003 5
1043 1044 3
1043 1083 4
1043 1042 1
1044 1004 4
1044 1045 1
1044 1084 5
1044 1043 5
1045 1005 5
1045 1046 1
1045 1085 4
1045 1044 2
1046 1006 5
1046 1047 1
1046 1086 4
1046 1045 5
1047 1007 3
1047 1048 4
1047 1087 1
1047 1046 2
1048 1008 2
1048 1049 2
1048 1088 3
1048 1047 4
1049 1009 5
1049 1050 4
1049 1089 2
1049 1048 3
1050 1010 2
1050 1051 1
1050 1090 4
1050 1049 3
1051 1011 2
1051 1052 3
1051 1091 1
1051 1050 1
1052 1012 4
1052 1053 3
1052 1092 2
1052 1051 2
1053 1013 5
1053 1054 2
1053 1093 4
1053 1052 1
1054 1014 2
1054 1055 5
1054 1094 4
1054 1053 4
1055 1015 4
1055 1056 4
1055 1095 4
1055 1054 4
1056 1016 1
1056 1057 1
1056 1096 5
1056 1055 2
1057 1017 3
1057 1058 1
1057 1097 3
1057 1056 5
1058 1018 2
1058 1059 1
1058 1098 1
1058 1057 2
1059 1019 2
1059 1060 3
1059 1099 3
1059 1058 2
1060 1020 1
1060 1061 4
1060 1100 5
1060 1059 5
1061 1021 3
1061 1062 2
1061 1101 1
1061 1060 1
1062 1022 3
1062 1063 3
1062 1102 4
1062 1061 5
1063 1023 5
1063 1064 5
1063 1103 3
1063 1062 4
1064 1024 2
1064 1065 3
1064 1104 4
1064 1063 3
1065 1025 2
1065 1066 2
1065 1105 4
1065 1064 1
1066 1026 2
1066 1067 2
1066 1106 2
1066 1065 2
1067 1027 1
1067 1068 5
1067 1107 5
1067 1066 2
1068 1028 1
1068 1069 3
1068 1108 1
1068 1067 4
1069 1029 3
1069 1070 5
1069 1109 5
1069 1068 1
1070 1030 5
1070 1071 1
1070 1110 1
1070 1069 1
1071 1031 1
1071 1072 1
1071 1111 4
1071 1070 4
1072 1032 4
1072 1073 1
1072 1112 5
1072 1071 3
1073 1033 4
1073 1074 2
1073 1113 2
1073 1072 1
1074 1034 3
1074 1075 4
1074 1114 1
1074 1073 5
1075 1035 3
1075 1076 5
1075 1115 5
1075 1074 2
1076 1036 4
1076 1077 1
1076 1116 5
1076 1075 5
1077 1037 1
1077 1078 3
1077 1117 1
1077 1076 1
1078 1038 4
1078 1079 2
1078 1118 5
1078 1077 2
1079 1039 3
1079 1119 5
1079 1078 2
1080 1040 3
1080 1081 4
1080 1120 3
1081 1041 2
1081 1082 1
1081 1121 5
1081 1080 4
1082 1042 2
1082 1083 4
1082 1122 3
1082 1081 2
1083 1043 1
1083 1084 1
1083 1123 1
1083 1082 1
1084 1044 5
1084 1085 4
1084 1124 2
1084 1083 1
1085 1045 5
1085 1086 1
1085 1125 1
1085 1084 3
1086 1046 2
1086 1087 4
1086 1126 3
1086 1085 3
1087 1047 4
1087 1088 1
1087 1127 1
1087 1086 2
1088 1048 1
1088 1089 3
1088 1128 3
1088 1087 3
1089 1049 4
1089 1090 1
1089 1129 1
1089 1088 1
1090 1050 1
1090 1091 2
1090 1130 2
1090 1089 3
1091 1051 3
1091 1092 4
1091 1131 5
1091 1090 3
1092 1052 1
1092 1093 3
1092 1132 3
1092 1091 2
1093 1053 1
1093 1094 4
1093 1133 4
1093 1092 4
1094 1054 3
1094 1095 4
1094 1134 4
1094 1093 4
1095 1055 2
1095 1096 1
1095 1135 2
1095 1094 1
1096 1056 2
1096 1097 1
1096 1136 4
1096 1095 5
1097 1057 4
1097 1098 5
1097 1137 4
1097 1096 2
1098 1058 5
1098 1099 4
1098 1138 3
1098 1097 5
1099 1059 1
1099 1100 2
1099 1139 4
1099 1098 4
1100 1060 1
1100 1101 4
1100 1140 4
1100 1099 1
1101 1061 1
1101 1102 3
1101 1141 3
1101 1100 1
1102 1062 5
1102 1103 5
1102 1142 5
1102 1101 2
1103 1063 3
1103 1104 5
1103 1143 5
1103 1102 5
1104 1064 1
1104 1105 4
1104 1144 2
1104 1103 4
1105 1065 3
1105 1106 4
1105 1145 2
1105 1104 5
1106 1066 5
1106 1107 1
1106 1146 1
1106 1105 2
1107 1067 5
1107 1108 4
1107 1147 4
1107 1106 2
1108 1068 1
1108 1109 4
1108 1148 3
1108 1107 2
1109 1069 3
1109 1110 3
1109 1149 1
1109 1108 5
1110 1070 2
1110 1111 5
1110 1150 4
1110 1109 4
1111 1071 2
1111 1112 1
1111 1151 4
1111 1110 4
1112 1072 5
1112 1113 4
1112 1152 1
1112 1111 4
1113 1073 4
1113 1114 3
1113 1153 1
1113 1112 4
1114 1074 1
1114 1115 1
1114 1154 4
1114 1113 4
1115 1075 1
1115 1116 5
1115 1155 5
1115 1114 1
1116 1076 1
1116 1117 5
1116 1156 5
1116 1115 3
1117 1077 5
1117 1118 5
1117 1157 2
1117 1116 4
1118 1078 3
1118 1119 3
1118 1158 1
1118 1117 2
1119 1079 4
1119 1159 3
1119 1118 5
1120 1080 5
1120 1121 5
1120 1160 4
1121 1081 3
1121 1122 4
1121 1161 1
1121 1120 1
1122 1082 2
1122 1123 1
1122 1162 3
1122 1121 3
1123 1083 3
1123 1124 5
1123 1163 5
1123 1122 3
1124 1084 1
1124 1125 1
1124 1164 2
1124 1123 4
1125 1085 2
1125 1126 4
1125 1165 1
1125 1124 3
1126 1086 5
1126 1127 2
1126 1166 2
1126 1125 1
1127 1087 4
1127 1128 2
1127 1167 4
1127 1126 2
1128 1088 3
1128 1129 1
1128 1168 4
1128 1127 1
1129 1089 5
1129 1130 1
1129 1169 4
1129 1128 4
1130 1090 5
1130 1131 5
1130 1170 2
1130 1129 4
1131 1091 1
1131 1132 5
1131 1171 1
1131 1130 5
1132 1092 4
1132 1133 5
1132 1172 4
1132 1131 5
1133 1093 2
1133 1134 5
1133 1173 2
1133 1132 2
1134 1094 1
1134 1135 4
1134 1174 5
1134 1133 5
1135 1095 3
1135 1136 5
1135 1175 4
1135 1134 4
1136 1096 5
1136 1137 2
1136 1176 3
1136 1135 4
1137 1097 3
1137 1138 3
1137 1177 4
1137 1136 2
1138 1098 2
1138 1139 4
1138 1178 5
1138 1137 5
1139 1099 3
1139 1140 5
1139 1179 3
1139 1138 5
1140 1100 2
1140 1141 2
1140 1180 2
1140 1139 5
1141 1101 3
1141 1142 3
1141 1181 2
1141 1140 2
1142 1102 5
1142 1143 5
1142 1182 3
1142 1141 1
1143 1103 3
1143 1144 5
1143 1183 4
1143 1142 5
1144 1104 5
1144 1145 4
1144 1184 5
1144 1143 3
1145 1105 4
1145 1146 1
1145 1185 5
1145 1144 1
1146 1106 1
1146 1147 4
1146 1186 2
1146 1145 1
1147 1107 1
1147 1148 2
1147 1187 3
1147 1146 2
1148 1108 3
1148 1149 3
1148 1188 2
1148 1147 1
1149 1109 3
1149 1150 2
1149 1189 5
1149 1148 1
1150 1110 3
1150 1151 4
1150 1190 1
1150 1149 5
1151 1111 5
1151 1152 2
1151 1191 5
1151 1150 4
1152 1112 2
1152 1153 5
1152 1192 3
1152 1151 1
1153 1113 4
1153 1154 4
1153 1193 4
1153 1152 3
1154 1114 5
1154 1155 1
1154 1194 1
1154 1153 3
1155 1115 2
1155 1156 5
1155 1195 4
1155 1154 2
1156 1116 3
1156 1157 5
1156 1196 5
1156 1155 5
1157 1117 2
1157 1158 2
1157 1197 3
1157 1156 4
1158 1118 2
1158 1159 1
1158 1198 2
1158 1157 2
1159 1119 5
1159 1199 1
1159 1158 4
1160 1120 1
1160 1161 4
1160 1200 3
1161 1121 5
1161 1162 3
1161 1201 2
1161 1160 2
1162 1122 5
1162 1163 3
1162 1202 1
1162 1161 3
1163 1123 4
1163 1164 2
1163 1203 1
1163 1162 2
1164 1124 3
1164 1165 5
1164 1204 1
1164 1163 5
1165 1125 3
1165 1166 4
1165 1205 5
1165 1164 5
1166 1126 3
1166 1167 1
1166 1206 3
1166 1165 5
1167 1127 2
1167 1168 2
1167 1207 5
1167 1166 1
1168 1128 5
1168 1169 2
1168 1208 4
1168 1167 5
1169 1129 5
1169 1170 4
1169 1209 1
1169 1168 3
1170 1130 2
1170 1171 2
1170 1210 3
1170 1169 3
1171 1131 3
1171 1172 3
1171 1211 2
1171 1170 5
1172 1132 5
1172 1173 4
1172 1212 5
1172 1171 1
1173 1133 1
1173 1174 3
1173 1213 4
1173 1172 2
1174 1134 5
1174 1175 5
1174 1214 2
1174 1173 1
1175 1135 3
1175 1176 4
1175 1215 1
1175 1174 4
1176 1136 3
1176 1177 5
1176 1216 3
1176 1175 1
1177 1137 5
1177 1178 3
1177 1217 5
1177 1176 5
1178 1138 4
1178 1179 4
1178 1218 1
1178 1177 3
1179 1139 2
1179 1180 3
1179 1219 5
1179 1178 1
1180 1140 1
1180 1181 2
1180 1220 5
1180 1179 5
1181 1141 1
1181 1182 1
1181 1221 2
1181 1180 2
1182 1142 4
1182 1183 1
1182 1222 2
1182 1181 5
1183 1143 4
1183 1184 1
1183 1223 2
1183 1182 1
1184 1144 4
1184 1185 3
1184 1224 1
1184 1183 1
1185 1145 1
1185 1186 1
1185 1225 2
1185 1184 3
1186 1146 5
1186 1187 1
1186 1226 5
1186 1185 2
1187 1147 3
1187 1188 4
1187 1227 4
1187 1186 4
1188 1148 4
1188 1189 4
1188 1228 3
1188 1187 1
1189 1149 4
1189 1190 1
1189 1229 5
1189 1188 1
1190 1150 5
1190 1191 1
1190 1230 5
1190 1189 1
1191 1151 1
1191 1192 3
1191 1231 5
1191 1190 1
1192 1152 3
1192 1193 3
1192 1232 5
1192 1191 1
1193 1153 3
1193 1194 4
1193 1233 4
1193 1192 4
1194 1154 1
1194 1195 4
1194 1234 2
1194 1193 5
1195 1155 2
1195 1196 2
1195 1235 4
1195 1194 5
1196 1156 3
1196 1197 2
1196 1236 3
1196 1195 3
1197 1157 1
1197 1198 5
1197 1237 5
1197 1196 2
1198 1158 1
1198 1199 1
1198 1238 1
1198 1197 5
1199 1159 5
1199 1239 4
1199 1198 5
1200 1160 5
1200 1201 1
1200 1240 3
1201 1161 2
1201 1202 3
1201 1241 2
1201 1200 4
1202 1162 5
1202 1203 2
1202 1242 2
1202 1201 2
1203 1163 2
1203 1204 5
1203 1243 3
1203 1202 2
1204 1164 1
1204 1205 2
1204 1244 5
1204 1203 1
1205 1165 5
1205 1206 4
1205 1245 5
1205 1204 1
1206 1166 3
1206 1207 1
1206 1246 3
1206 1205 1
1207 1167 2
1207 1208 5
1207 1247 4
1207 1206 3
1208 1168 3
1208 1209 2
1208 1248 2
1208 1207 1
1209 1169 3
1209 1210 5
1209 1249 1
1209 1208 2
1210 1170 3
1210 1211 4
1210 1250 4
1210 1209 3
1211 1171 5
1211 1212 3
1211 1251 5
1211 1210 2
1212 1172 5
1212 1213 5
1212 1252 3
1212 1211 3
1213 1173 4
1213 1214 2
1213 1253 1
1213 1212 3
1214 1174 2
1214 1215 2
1214 1254 4
1214 1213 3
1215 1175 3
1215 1216 2
1215 1255 3
1215 1214 4
1216 1176 4
1216 1217 4
1216 1256 3
1216 1215 3
1217 1177 4
1217 1218 5
1217 1257 1
1217 1216 2
1218 1178 5
1218 1219 1
1218 1258 3
1218 1217 2
1219 1179 5
1219 1220 2
1219 1259 3
1219 1218 1
1220 1180 1
1220 1221 1
1220 1260 5
1220 1219 1
1221 1181 5
1221 1222 5
1221 1261 4
1221 1220 5
1222 1182 2
1222 1223 1
1222 1262 5
1222 1221 3
1223 1183 5
1223 1224 5
1223 1263 4
1223 1222 2
1224 1184 3
1224 1225 4
1224 1264 2
1224 1223 5
1225 1185 3
1225 1226 2
1225 1265 4
1225 1224 5
1226 1186 5
1226 1227 1
1226 1266 4
1226 1225 3
1227 1187 5
1227 1228 1
1227 1267 2
1227 1226 5
1228 1188 2
1228 1229 5
1228 1268 2
1228 1227 4
1229 1189 2
1229 1230 2
1229 1269 5
1229 1228 5
1230 1190 2
1230 1231 4
1230 1270 3
1230 1229 1
1231 1191 2
1231 1232 4
1231 1271 2
1231 1230 1
1232 1192 3
1232 1233 3
1232 1272 2
1232 1231 1
1233 1193 2
1233 1234 5
1233 1273 3
1233 1232 4
1234 1194 4
1234 1235 4
1234 1274 1
1234 1233 1
1235 1195 3
1235 1236 1
1235 1275 5
1235 1234 3
1236 1196 3
1236 1237 5
1236 1276 5
1236 1235 5
1237 1197 2
1237 1238 4
1237 1277 4
1237 1236 3
1238 1198 5
1238 1239 1
1238 1278 5
1238 1237 3
1239 1199 4
1239 1279 2
1239 1238 5
1240 1200 4
1240 1241 3
1240 1280 3
1241 1201 4
1241 1242 4
1241 1281 5
1241 1240 1
1242 1202 5
1242 1243 2
1242 1282 4
1242 1241 2
1243 1203 2
1243 1244 1
1243 1283 5
1243 1242 3
1244 1204 2
1244 1245 2
1244 1284 2
1244 1243 2
1245 1205 3
1245 1246 5
1245 1285 1
1245 1244 2
1246 1206 4
1246 1247 3
1246 1286 1
1246 1245 4
1247 1207 4
1247 1248 4
1247 1287 2
1247 1246 5
1248 1208 2
1248 1249 4
1248 1288 1
1248 1247 2
1249 1209 1
1249 1250 2
1249 1289 5
1249 1248 5
1250 1210 2
1250 1251 2
1250 1290 5
1250 1249 1
1251 1211 5
1251 1252 2
1251 1291 1
1251 1250 2
1252 1212 3
1252 1253 2
1252 1292 5
1252 1251 4
1253 1213 5
1253 1254 5
1253 1293 1
1253 1252 3
1254 1214 1
1254 1255 2
1254 1294 4
1254 1253 5
1255 1215 4
1255 1256 4
1255 1295 2
1255 1254 2
1256 1216 4
1256 1257 5
1256 1296 2
1256 1255 5
1257 1217 2
1257 1258 5
1257 1297 5
1257 1256 3
1258 1218 2
1258 1259 3
1258 1298 4
1258 1257 5
1259 1219 5
1259 1260 1
1259 1299 2
1259 1258 4
1260 1220 4
1260 1261 2
1260 1300 1
1260 1259 1
1261 1221 2
1261 1262 5
1261 1301 5
1261 1260 4
1262 1222 2
1262 1263 5
1262 1302 1
1262 1261 2
1263 1223 4
1263 1264 5
1263 1303 5
1263 1262 1
1264 1224 5
1264 1265 5
1264 1304 1
1264 1263 1
1265 1225 4
1265 1266 2
1265 1305 5
1265 1264 5
1266 1226 1
1266 1267 4
1266 1306 5
1266 1265 4
1267 1227 3
1267 1268 1
1267 1307 5
1267 1266 4
1268 1228 2
1268 1269 4
1268 1308 4
1268 1267 3
1269 1229 5
1269 1270 5
1269 1309 1
1269 1268 4
1270 1230 2
1270 1271 3
1270 1310 4
1270 1269 2
1271 1231 1
1271 1272 3
1271 1311 5
1271 1270 5
1272 1232 4
1272 1273 3
1272 1312 2
1272 1271 1
1273 1233 1
1273 1274 5
1273 1313 5
1273 1272 1
1274 1234 5
1274 1275 1
1274 1314 4
1274 1273 2
1275 1235 3
1275 1276 4
1275 1315 3
1275 1274 1
1276 1236 2
1276 1277 4
1276 1316 5
1276 1275 3
1277 1237 3
1277 1278 5
1277 1317 4
1277 1276 5
1278 1238 3
1278 1279 5
1278 1318 3
1278 1277 4
1279 1239 2
1279 1319 4
1279 1278 5
1280 1240 5
1280 1281 4
1280 1320 2
1281 1241 3
1281 1282 5
1281 1321 5
1281 1280 4
1282 1242 3
1282 1283 3
1282 1322 5
1282 1281 3
1283 1243 4
1283 1284 2
1283 1323 1
1283 1282 2
1284 1244 4
1284 1285 2
1284 1324 1
1284 1283 2
1285 1245 5
1285 1286 4
1285 1325 3
1285 1284 5
1286 1246 5
1286 1287 1
1286 1326 2
1286 1285 4
1287 1247 1
1287 1288 1
1287 1327 2
1287 1286 4
1288 1248 5
1288 1289 4
1288 1328 1
1288 1287 1
1289 1249 3
1289 1290 2
1289 1329 3
1289 1288 1
1290 1250 5
1290 1291 1
1290 1330 4
1290 1289 4
1291 1251 5
1291 1292 5
1291 1331 3
1291 1290 5
1292 1252 1
1292 1293 2
1292 1332 4
1292 1291 4
1293 1253 1
1293 1294 2
1293 1333 5
1293 1292 3
1294 1254 2
1294 1295 1
1294 1334 5
1294 1293 5
1295 1255 5
1295 1296 2
1295 1335 5
1295 1294 2
1296 1256 1
1296 1297 3
1296 1336 2
1296 1295 1
1297 1257 2
1297 1298 1
1297 1337 3
1297 1296 4
1298 1258 3
1298 1299 4
1298 1338 4
1298 1297 5
1299 1259 2
1299 1300 5
1299 1339 1
1299 1298 1
1300 1260 1
1300 1301 5
1300 1340 3
1300 1299 5
1301 1261 5
1301 1302 3
1301 1341 3
1301 1300 3
1302 1262 2
1302 1303 5
1302 1342 2
1302 1301 4
1303 1263 4
1303 1304 5
1303 1343 1
1303 1302 3
1304 1264 2
1304 1305 4
1304 1344 5
1304 1303 1
1305 1265 5
1305 1306 1
1305 1345 5
1305 1304 3
1306 1266 3
1306 1307 1
1306 1346 5
1306 1305 3
1307 1267 5
1307 1308 5
1307 1347 3
1307 1306 4
1308 1268 4
1308 1309 5
1308 1348 4
1308 1307 2
1309 1269 3
1309 1310 4
1309 1349 4
1309 1308 5
1310 1270 1
1310 1311 4
1310 1350 1
1310 1309 3
1311 1271 1
1311 1312 4
1311 1351 2
1311 1310 2
1312 1272 3
1312 1313 4
1312 1352 3
1312 1311 5
1313 1273 5
1313 1314 1
1313 1353 3
1313 1312 2
1314 1274 3
1314 1315 1
1314 1354 4
1314 1313 3
1315 1275 1
1315 1316 5
1315 1355 2
1315 1314 4
1316 1276 3
1316 1317 3
1316 1356 2
1316 1315 5
1317 1277 3
1317 1318 2
1317 1357 2
1317 1316 4
1318 1278 2
1318 1319 2
1318 1358 2
1318 1317 3
1319 1279 2
1319 1359 2
1319 1318 2
1320 1280 2
1320 1321 5
1320 1360 3
1321 1281 2
1321 1322 1
1321 1361 1
1321 1320 1
1322 1282 4
1322 1323 5
1322 1362 1
1322 1321 5
1323 1283 1
1323 1324 4
1323 1363 3
1323 1322 5
1324 1284 3
1324 1325 4
1324 1364 5
1324 1323 3
1325 1285 4
1325 1326 2
1325 1365 5
1325 1324 3
1326 1286 4
1326 1327 2
1326 1366 5
1326 1325 2
1327 1287 1
1327 1328 5
1327 1367 4
1327 1326 4
1328 1288 5
1328 1329 1
1328 1368 5
1328 1327 3
1329 1289 4
1329 1330 2
1329 1369 4
1329 1328 1
1330 1290 5
1330 1331 4
1330 1370 3
1330 1329 1
1331 1291 1
1331 1332 2
1331 1371 4
1331 1330 5
1332 1292 1
1332 1333 3
1332 1372 3
1332 1331 5
1333 1293 3
1333 1334 2
1333 1373 5
1333 1332 3
1334 1294 2
1334 1335 3
1334 1374 4
1334 1333 5
1335 1295 3
1335 1336 3
1335 1375 2
1335 1334 4
1336 1296 4
1336 1337 2
1336 1376 4
1336 1335 3
1337 1297 3
1337 1338 4
1337 1377 3
1337 1336 4
1338 1298 2
1338 1339 5
1338 1378 2
1338 1337 5
1339 1299 2
1339 1340 1
1339 1379 3
1339 1338 2
1340 1300 5
1340 1341 4
1340 1380 4
1340 1339 2
1341 1301 2
1341 1342 2
1341 1381 4
1341 1340 1
1342 1302 2
1342 1343 4
1342 1382 4
1342 1341 2
1343 1303 5
1343 1344 5
1343 1383 3
1343 1342 4
1344 1304 3
1344 1345 3
1344 1384 5
1344 1343 5
1345 1305 1
1345 1346 4
1345 1385 1
1345 1344 2
1346 1306 1
1346 1347 2
1346 1386 3
1346 1345 4
1347 1307 1
1347 1348 4
1347 1387 3
1347 1346 3
1348 1308 3
1348 1349 3
1348 1388 5
1348 1347 5
1349 1309 3
1349 1350 3
1349 1389 1
1349 1348 4
1350 1310 1
1350 1351 3
1350 1390 5
1350 1349 2
1351 1311 5
1351 1352 5
1351 1391 5
1351 1350 2
1352 1312 3
1352 1353 3
1352 1392 3
1352 1351 5
1353 1313 4
1353 1354 4
1353 1393 1
1353 1352 4
1354 1314 5
1354 1355 3
1354 1394 4
1354 1353 2
1355 1315 2
1355 1356 3
1355 1395 4
1355 1354 5
1356 1316 5
1356 1357 4
1356 1396 1
1356 1355 1
1357 1317 2
1357 1358 3
1357 1397 2
1357 1356 3
1358 1318 3
1358 1359 3
1358 1398 3
1358 1357 5
1359 1319 4
1359 1399 3
1359 1358 4
1360 1320 3
1360 1361 5
1360 1400 5
1361 1321 4
1361 1362 4
1361 1401 2
1361 1360 2
1362 1322 1
1362 1363 2
1362 1402 2
1362 1361 3
1363 1323 1
1363 1364 2
1363 1403 2
1363 1362 4
1364 1324 1
1364 1365 1
1364 1404 1
1364 1363 4
1365 1325 5
1365 1366 1
1365 1405 1
1365 1364 4
1366 1326 5
1366 1367 1
1366 1406 1
1366 1365 3
1367 1327 5
1367 1368 2
1367 1407 1
1367 1366 4
1368 1328 3
1368 1369 2
1368 1408 2
1368 1367 3
1369 1329 4
1369 1370 2
1369 1409 2
1369 1368 5
1370 1330 2
1370 1371 1
1370 1410 1
1370 1369 3
1371 1331 3
1371 1372 4
1371 1411 4
1371 1370 5
1372 1332 3
1372 1373 5
1372 1412 4
1372 1371 2
1373 1333 5
1373 1374 2
1373 1413 5
1373 1372 5
1374 1334 4
1374 1375 5
1374 1414 4
1374 1373 5
1375 1335 5
1375 1376 3
1375 1415 3
1375 1374 4
1376 1336 5
1376 1377 2
1376 1416 1
1376 1375 4
1377 1337 3
1377 1378 3
1377 1417 4
1377 1376 3
1378 1338 2
1378 1379 3
1378 1418 1
1378 1377 1
1379 1339 5
1379 1380 2
1379 1419 3
1379 1378 3
1380 1340 4
1380 1381 5
1380 1420 1
1380 1379 4
1381 1341 4
1381 1382 3
1381 1421 1
1381 1380 4
1382 1342 3
1382 1383 5
1382 1422 2
1382 1381 1
1383 1343 5
1383 1384 3
1383 1423 2
1383 1382 4
1384 1344 5
1384 1385 4
1384 1424 4
1384 1383 2
1385 1345 2
1385 1386 4
1385 1425 4
1385 1384 2
1386 1346 3
1386 1387 1
1386 1426 4
1386 1385 2
1387 1347 5
1387 1388 5
1387 1427 3
1387 1386 3
1388 1348 5
1388 1389 3
1388 1428 4
1388 1387 2
1389 1349 1
1389 1390 2
1389 1429 2
1389 1388 3
1390 1350 1
1390 1391 4
1390 1430 5
1390 1389 4
1391 1351 3
1391 1392 5
1391 1431 4
1391 1390 2
1392 1352 3
1392 1393 1
1392 1432 2
1392 1391 1
1393 1353 5
1393 1394 1
1393 1433 2
1393 1392 1
1394 1354 3
1394 1395 3
1394 1434 2
1394 1393 4
1395 1355 1
1395 1396 2
1395 1435 1
1395 1394 2
1396 1356 1
1396 1397 4
1396 1436 2
1396 1395 3
1397 1357 4
1397 1398 3
1397 1437 4
1397 1396 3
1398 1358 4
1398 1399 1
1398 1438 3
1398 1397 1
1399 1359 2
1399 1439 1
1399 1398 3
1400 1360 4
1400 1401 1
1400 1440 5
1401 1361 4
1401 1402 2
1401 1441 2
1401 1400 3
1402 1362 4
1402 1403 1
1402 1442 1
1402 1401 2
1403 1363 4
1403 1404 4
1403 1443 2
1403 1402 1
1404 1364 2
1404 1405 4
1404 1444 1
1404 1403 5
1405 1365 2
1405 1406 4
1405 1445 4
1405 1404 3
1406 1366 3
1406 1407 2
1406 1446 1
1406 1405 5
1407 1367 5
1407 1408 1
1407 1447 3
1407 1406 4
1408 1368 3
1408 1409 2
1408 1448 3
1408 1407 1
1409 1369 2
1409 1410 1
1409 1449 2
1409 1408 4
1410 1370 3
1410 1411 1
1410 1450 2
1410 1409 3
1411 1371 5
1411 1412 1
1411 1451 4
1411 1410 2
1412 1372 1
1412 1413 1
1412 1452 5
1412 1411 4
1413 1373 5
1413 1414 2
1413 1453 3
1413 1412 1
1414 1374 2
1414 1415 2
1414 1454 4
1414 1413 1
1415 1375 5
1415 1416 3
1415 1455 1
1415 1414 1
1416 1376 3
1416 1417 2
1416 1456 5
1416 1415 1
1417 1377 2
1417 1418 4
1417 1457 2
1417 1416 3
1418 1378 5
1418 1419 3
1418 1458 4
1418 1417 2
1419 1379 1
1419 1420 4
1419 1459 3
1419 1418 2
1420 1380 3
1420 1421 1
1420 1460 4
1420 1419 4
1421 1381 5
1421 1422 3
1421 1461 5
1421 1420 4
1422 1382 2
1422 1423 5
1422 1462 2
1422 1421 5
1423 1383 3
1423 1424 3
1423 1463 4
1423 1422 3
1424 1384 5
1424 1425 5
1424 1464 2
1424 1423 1
1425 1385 5
1425 1426 2
1425 1465 4
1425 1424 3
1426 1386 3
1426 1427 5
1426 1466 3
1426 1425 4
1427 1387 1
1427 1428 5
1427 1467 4
1427 1426 2
1428 1388 1
1428 1429 5
1428 1468 3
1428 1427 5
1429 1389 2
1429 1430 3
1429 1469 1
1429 1428 5
1430 1390 4
1430 1431 2
1430 1470 5
1430 1429 4
1431 1391 5
1431 1432 2
1431 1471 5
1431 1430 3
1432 1392 3
1432 1433 4
1432 1472 3
1432 1431 1
1433 1393 1
1433 1434 5
1433 1473 1
1433 1432 1
1434 1394 2
1434 1435 2
1434 1474 1
1434 1433 2
1435 1395 1
1435 1436 4
1435 1475 2
1435 1434 1
1436 1396 1
1436 1437 5
1436 1476 4
1436 1435 4
1437 1397 5
1437 1438 5
1437 1477 5
1437 1436 3
1438 1398 1
1438 1439 3
1438 1478 2
1438 1437 5
1439 1399 1
1439 1479 1
1439 1438 2
1440 1400 4
1440 1441 1
1440 1480 4
1441 1401 1
1441 1442 3
1441 1481 5
1441 1440 4
1442 1402 3
1442 1443 1
1442 1482 5
1442 1441 3
1443 1403 5
1443 1444 1
1443 1483 1
1443 1442 3
1444 1404 1
1444 1445 2
1444 1484 5
1444 1443 1
1445 1405 1
1445 1446 2
1445 1485 5
1445 1444 4
1446 1406 2
1446 1447 2
1446 1486 5
1446 1445 2
1447 1407 5
1447 1448 2
1447 1487 5
1447 1446 5
1448 1408 4
1448 1449 1
1448 1488 5
1448 1447 3
1449 1409 4
1449 1450 4
1449 1489 1
1449 1448 2
1450 1410 2
1450 1451 5
1450 1490 4
1450 1449 5
1451 1411 3
1451 1452 2
1451 1491 5
1451 1450 5
1452 1412 4
1452 1453 3
1452 1492 3
1452 1451 5
1453 1413 3
1453 1454 3
1453 1493 4
1453 1452 4
1454 1414 3
1454 1455 5
1454 1494 2
1454 1453 5
1455 1415 5
1455 1456 2
1455 1495 4
1455 1454 5
1456 1416 3
1456 1457 3
1456 1496 4
1456 1455 4
1457 1417 4
1457 1458 1
1457 1497 1
1457 1456 3
1458 1418 5
1458 1459 1
1458 1498 5
1458 1457 2
1459 1419 3
1459 1460 1
1459 1499 3
1459 1458 2
1460 1420 2
1460 1461 3
1460 1500 1
1460 1459 3
1461 1421 5
1461 1462 5
1461 1501 5
1461 1460 5
1462 1422 5
1462 1463 2
1462 1502 1
1462 1461 1
1463 1423 4
1463 1464 3
1463 1503 2
1463 1462 2
1464 1424 3
1464 1465 3
1464 1504 5
1464 1463 2
1465 1425 2
1465 1466 3
1465 1505 3
1465 1464 1
1466 1426 5
1466 1467 4
1466 1506 5
1466 1465 2
1467 1427 1
1467 1468 3
1467 1507 4
1467 1466 2
1468 1428 4
1468 1469 5
1468 1508 1
1468 1467 5
1469 1429 3
1469 1470 1
1469 1509 5
1469 1468 4
1470 1430 1
1470 1471 1
1470 1510 3
1470 1469 3
1471 1431 4
1471 1472 4
1471 1511 1
1471 1470 2
1472 1432 5
1472 1473 1
1472 1512 4
1472 1471 1
1473 1433 3
1473 1474 5
1473 1513 1
1473 1472 3
1474 1434 5
1474 1475 5
1474 1514 2
1474 1473 3
1475 1435 5
1475 1476 2
1475 1515 2
1475 1474 1
1476 1436 4
1476 1477 4
1476 1516 5
1476 1475 5
1477 1437 5
1477 1478 1
1477 1517 2
1477 1476 4
1478 1438 3
1478 1479 4
1478 1518 2
1478 1477 2
1479 1439 3
1479 1519 1
1479 1478 4
1480 1440 5
1480 1481 1
1480 1520 5
1481 1441 4
1481 1482 3
1481 1521 1
1481 1480 4
1482 1442 5
1482 1483 4
1482 1522 2
1482 1481 2
1483 1443 4
1483 1484 5
1483 1523 2
1483 1482 4
1484 1444 4
1484 1485 5
1484 1524 2
1484 1483 5
1485 1445 5
1485 1486 5
1485 1525 2
1485 1484 2
1486 1446 1
1486 1487 3
1486 1526 4
1486 1485 3
1487 1447 5
1487 1488 1
1487 1527 1
1487 1486 4
1488 1448 4
1488 1489 3
1488 1528 3
1488 1487 2
1489 1449 3
1489 1490 3
1489 1529 5
1489 1488 1
1490 1450 3
1490 1491 2
1490 1530 3
1490 1489 5
1491 1451 4
1491 1492 5
1491 1531 2
1491 1490 4
1492 1452 1
1492 1493 2
1492 1532 2
1492 1491 3
1493 1453 2
1493 1494 1
1493 1533 1
1493 1492 1
1494 1454 2
1494 1495 5
1494 1534 2
1494 1493 3
1495 1455 1
1495 1496 3
1495 1535 1
1495 1494 3
1496 1456 4
1496 1497 4
1496 1536 1
1496 1495 3
1497 1457 2
1497 1498 5
1497 1537 2
1497 1496 2
1498 1458 5
1498 1499 5
1498 1538 3
1498 1497 5
1499 1459 4
1499 1500 5
1499 1539 2
1499 1498 1
1500 1460 4
1500 1501 5
1500 1540 5
1500 1499 1
1501 1461 3
1501 1502 2
1501 1541 1
1501 1500 3
1502 1462 2
1502 1503 5
1502 1542 3
1502 1501 1
1503 1463 4
1503 1504 1
1503 1543 1
1503 1502 4
1504 1464 3
1504 1505 3
1504 1544 1
1504 1503 1
1505 1465 3
1505 1506 4
1505 1545 2
1505 1504 4
1506 1466 5
1506 1507 1
1506 1546 3
1506 1505 4
1507 1467 5
1507 1508 5
1507 1547 1
1507 1506 2
1508 1468 2
1508 1509 5
1508 1548 4
1508 1507 5
1509 1469 1
1509 1510 1
1509 1549 2
1509 1508 5
1510 1470 3
1510 1511 3
1510 1550 4
1510 1509 4
1511 1471 2
1511 1512 1
1511 1551 3
1511 1510 3
1512 1472 3
1512 1513 3
1512 1552 2
1512 1511 5
1513 1473 3
1513 1514 1
1513 1553 3
1513 1512 4
1514 1474 1
1514 1515 5
1514 1554 3
1514 1513 2
1515 1475 2
1515 1516 3
1515 1555 4
1515 1514 2
1516 1476 1
1516 1517 4
1516 1556 5
1516 1515 5
1517 1477 2
1517 1518 4
1517 1557 2
1517 1516 5
1518 1478 2
1518 1519 4
1518 1558 3
1518 1517 5
1519 1479 3
1519 1559 4
1519 1518 5
1520 1480 2
1520 1521 2
1520 1560 2
1521 1481 5
1521 1522 5
1521 1561 2
1521 1520 2
1522 1482 3
1522 1523 5
1522 1562 2
1522 1521 4
1523 1483 2
1523 1524 5
1523 1563 2
1523 1522 3
1524 1484 1
1524 1525 5
1524 1564 5
1524 1523 1
1525 1485 2
1525 1526 3
1525 1565 2
1525 1524 1
1526 1486 3
1526 1527 4
1526 1566 4
1526 1525 3
1527 1487 4
1527 1528 3
1527 1567 2
1527 1526 2
1528 1488 1
1528 1529 2
1528 1568 2
1528 1527 1
1529 1489 5
1529 1530 5
1529 1569 3
1529 1528 5
1530 1490 5
1530 1531 5
1530 1570 2
1530 1529 5
1531 1491 2
1531 1532 2
1531 1571 1
1531 1530 3
1532 1492 1
1532 1533 4
1532 1572 2
1532 1531 5
1533 1493 5
1533 1534 4
1533 1573 3
1533 1532 2
1534 1494 4
1534 1535 4
1534 1574 4
1534 1533 2
1535 1495 2
1535 1536 2
1535 1575 2
1535 1534 1
1536 1496 4
1536 1537 1
1536 1576 3
1536 1535 4
1537 1497 2
1537 1538 2
1537 1577 2
1537 1536 1
1538 1498 2
1538 1539 4
1538 1578 5
1538 1537 4
1539 1499 3
1539 1540 4
1539 1579 2
1539 1538 4
1540 1500 4
1540 1541 1
1540 1580 5
1540 1539 4
1541 1501 3
1541 1542 4
1541 1581 5
1541 1540 5
1542 1502 5
1542 1543 5
1542 1582 5
1542 1541 1
1543 1503 5
1543 1544 1
1543 1583 4
1543 1542 4
1544 1504 1
1544 1545 2
1544 1584 5
1544 1543 5
1545 1505 4
1545 1546 1
1545 1585 5
1545 1544 4
1546 1506 5
1546 1547 1
1546 1586 2
1546 1545 3
1547 1507 4
1547 1548 4
1547 1587 3
1547 1546 3
1548 1508 4
1548 1549 2
1548 1588 4
1548 1547 3
1549 1509 5
1549 1550 1
1549 1589 5
1549 1548 2
1550 1510 4
1550 1551 4
1550 1590 1
1550 1549 5
1551 1511 1
1551 1552 2
1551 1591 5
1551 1550 5
1552 1512 2
1552 1553 4
1552 1592 4
1552 1551 3
1553 1513 4
1553 1554 1
1553 1593 2
1553 1552 4
1554 1514 5
1554 1555 2
1554 1594 4
1554 1553 1
1555 1515 3
1555 1556 3
1555 1595 2
1555 1554 1
1556 1516 1
1556 1557 1
1556 1596 4
1556 1555 3
1557 1517 1
1557 1558 5
1557 1597 4
1557 1556 5
1558 1518 5
1558 1559 2
1558 1598 4
1558 1557 5
1559 1519 4
1559 1599 1
1559 1558 2
1560 1520 3
1560 1561 5
1561 1521 2
1561 1562 2
1561 1560 2
1562 1522 2
1562 1563 1
1562 1561 4
1563 1523 3
1563 1564 3
1563 1562 4
1564 1524 3
1564 1565 2
1564 1563 1
1565 1525 2
1565 1566 2
1565 1564 1
1566 1526 5
1566 1567 3
1566 1565 1
1567 1527 4
1567 1568 4
1567 1566 4
1568 1528 5
1568 1569 1
1568 1567 5
1569 1529 4
1569 1570 2
1569 1568 2
1570 1530 5
1570 1571 4
1570 1569 4
1571 1531 4
1571 1572 4
1571 1570 1
1572 1532 5
1572 1573 5
1572 1571 1
1573 1533 2
1573 1574 5
1573 1572 3
1574 1534 5
1574 1575 5
1574 1573 2
1575 1535 1
1575 1576 2
1575 1574 2
1576 1536 1
1576 1577 3
1576 1575 1
1577 1537 2
1577 1578 1
1577 1576 5
1578 1538 5
1578 1579 3
1578 1577 3
1579 1539 1
1579 1580 1
1579 1578 1
1580 1540 4
1580 1581 2
1580 1579 2
1581 1541 3
1581 1582 5
1581 1580 5
1582 1542 5
1582 1583 5
1582 1581 2
1583 1543 4
1583 1584 5
1583 1582 3
1584 1544 1
1584 1585 1
1584 1583 3
1585 1545 3
1585 1586 3
1585 1584 4
1586 1546 1
1586 1587 4
1586 1585 5
1587 1547 1
1587 1588 3
1587 1586 4
1588 1548 2
1588 1589 1
1588 1587 3
1589 1549 3
1589 1590 5
1589 1588 4
1590 1550 5
1590 1591 2
1590 1589 2
1591 1551 5
1591 1592 1
1591 1590 1
1592 1552 5
1592 1593 5
1592 1591 1
1593 1553 4
1593 1594 5
1593 1592 3
1594 1554 4
1594 1595 5
1594 1593 3
1595 1555 3
1595 1596 5
1595 1594 5
1596 1556 5
1596 1597 3
1596 1595 2
1597 1557 5
1597 1598 5
1597 1596 4
1598 1558 5
1598 1599 4
1598 1597 4
1599 1559 2
1599 1598 5
