# N=100, Total Nodes=10000
# Format: u v base_weight
0 1 1
0 100 1
1 2 3
1 101 2
1 0 2
2 3 2
2 102 1
2 1 5
3 4 1
3 103 5
3 2 4
4 5 1
4 104 1
4 3 1
5 6 2
5 105 2
5 4 5
6 7 5
6 106 1
6 5 5
7 8 2
7 107 5
7 6 4
8 9 2
8 108 4
8 7 5
9 10 3
9 109 1
9 8 2
10 11 4
10 110 3
10 9 3
11 12 2
11 111 2
11 10 3
12 13 1
12 112 1
12 11 4
13 14 1
13 113 3
13 12 3
14 15 5
14 114 3
14 13 1
15 16 4
15 115 5
15 14 1
16 17 4
16 116 1
16 15 5
17 18 3
17 117 5
17 16 3
18 19 5
18 118 2
18 17 1
19 20 1
19 119 2
19 18 3
20 21 1
20 120 2
20 19 1
21 22 4
21 121 3
21 20 4
22 23 3
22 122 2
22 21 3
23 24 3
23 123 2
23 22 3
24 25 1
24 124 5
24 23 2
25 26 5
25 125 2
25 24 2
26 27 4
26 126 4
26 25 3
27 28 5
27 127 2
27 26 3
28 29 1
28 128 2
28 27 1
29 30 3
29 129 4
29 28 3
30 31 1
30 130 2
30 29 5
31 32 3
31 131 2
31 30 4
32 33 4
32 132 4
32 31 2
33 34 3
33 133 2
33 32 2
34 35 5
34 134 5
34 33 3
35 36 5
35 135 4
35 34 5
36 37 4
36 136 3
36 35 2
37 38 2
37 137 5
37 36 4
38 39 1
38 138 1
38 37 1
39 40 2
39 139 2
39 38 4
40 41 5
40 140 1
40 39 4
41 42 4
41 141 5
41 40 4
42 43 5
42 142 3
42 41 5
43 44 1
43 143 1
43 42 5
44 45 3
44 144 3
44 43 1
45 46 3
45 145 4
45 44 2
46 47 4
46 146 1
46 45 3
47 48 5
47 147 2
47 46 5
48 49 1
48 148 3
48 47 5
49 50 5
49 149 2
49 48 2
50 51 3
50 150 2
50 49 5
51 52 5
51 151 1
51 50 5
52 53 3
52 152 4
52 51 1
53 54 1
53 153 3
53 52 3
54 55 2
54 154 1
54 53 2
55 56 5
55 155 1
55 54 1
56 57 4
56 156 1
56 55 5
57 58 2
57 157 2
57 56 4
58 59 5
58 158 2
58 57 3
59 60 5
59 159 5
59 58 4
60 61 2
60 160 5
60 59 2
61 62 3
61 161 4
61 60 3
62 63 4
62 162 5
62 61 4
63 64 1
63 163 2
63 62 2
64 65 1
64 164 3
64 63 1
65 66 5
65 165 5
65 64 2
66 67 5
66 166 2
66 65 1
67 68 1
67 167 1
67 66 2
68 69 1
68 168 1
68 67 3
69 70 1
69 169 5
69 68 2
70 71 3
70 170 4
70 69 2
71 72 5
71 171 2
71 70 5
72 73 5
72 172 4
72 71 2
73 74 4
73 173 4
73 72 2
74 75 1
74 174 1
74 73 4
75 76 3
75 175 4
75 74 4
76 77 4
76 176 1
76 75 1
77 78 1
77 177 4
77 76 3
78 79 1
78 178 2
78 77 2
79 80 2
79 179 5
79 78 4
80 81 2
80 180 4
80 79 2
81 82 3
81 181 4
81 80 2
82 83 1
82 182 4
82 81 5
83 84 1
83 183 1
83 82 5
84 85 1
84 184 1
84 83 2
85 86 2
85 185 4
85 84 4
86 87 4
86 186 2
86 85 4
87 88 1
87 187 2
87 86 4
88 89 1
88 188 4
88 87 3
89 90 4
89 189 3
89 88 4
90 91 5
90 190 4
90 89 2
91 92 2
91 191 3
91 90 2
92 93 1
92 192 5
92 91 5
93 94 1
93 193 3
93 92 1
94 95 1
94 194 5
94 93 4
95 96 5
95 195 5
95 94 2
96 97 1
96 196 5
96 95 1
97 98 2
97 197 1
97 96 5
98 99 1
98 198 2
98 97 4
99 199 1
99 98 5
100 0 2
100 101 5
100 200 5
101 1 1
101 102 5
101 201 1
101 100 4
102 2 5
102 103 5
102 202 5
102 101 3
103 3 3
103 104 2
103 203 3
103 102 2
104 4 3
104 105 4
104 204 2
104 103 3
105 5 4
105 106 3
105 205 1
105 104 1
106 6 4
106 107 5
106 206 5
106 105 1
107 7 1
107 108 5
107 207 2
107 106 5
108 8 3
108 109 2
108 208 3
108 107 1
109 9 2
109 110 3
109 209 3
109 108 2
110 10 4
110 111 5
110 210 3
110 109 5
111 11 5
111 112 1
111 211 5
111 110 3
112 12 1
112 113 2
112 212 3
112 111 1
113 13 1
113 114 5
113 213 2
113 112 3
114 14 3
114 115 5
114 214 2
114 113 3
115 15 2
115 116 3
115 215 5
115 114 4
116 16 3
116 117 1
116 216 1
116 115 4
117 17 3
117 118 1
117 217 1
117 116 3
118 18 2
118 119 3
118 218 2
118 117 4
119 19 5
119 120 4
119 219 5
119 118 1
120 20 1
120 121 1
120 220 2
120 119 5
121 21 1
121 122 3
121 221 5
121 120 5
122 22 2
122 123 4
122 222 2
122 121 1
123 23 3
123 124 3
123 223 1
123 122 3
124 24 2
124 125 2
124 224 1
124 123 3
125 25 5
125 126 4
125 225 5
125 124 2
126 26 2
126 127 2
126 226 2
126 125 4
127 27 1
127 128 2
127 227 3
127 126 4
128 28 2
128 129 3
128 228 2
128 127 1
129 29 4
129 130 1
129 229 4
129 128 2
130 30 2
130 131 4
130 230 3
130 129 3
131 31 2
131 132 2
131 231 1
131 130 2
132 32 4
132 133 3
132 232 3
132 131 1
133 33 3
133 134 3
133 233 5
133 132 4
134 34 5
134 135 3
134 234 1
134 133 1
135 35 3
135 136 2
135 235 5
135 134 3
136 36 1
136 137 1
136 236 5
136 135 4
137 37 3
137 138 3
137 237 4
137 136 5
138 38 5
138 139 1
138 238 4
138 137 5
139 39 2
139 140 3
139 239 1
139 138 4
140 40 1
140 141 5
140 240 5
140 139 2
141 41 3
141 142 4
141 241 1
141 140 3
142 42 5
142 143 3
142 242 1
142 141 3
143 43 5
143 144 3
143 243 4
143 142 3
144 44 4
144 145 3
144 244 5
144 143 2
145 45 2
145 146 4
145 245 4
145 144 2
146 46 5
146 147 5
146 246 3
146 145 4
147 47 5
147 148 1
147 247 3
147 146 3
148 48 2
148 149 4
148 248 5
148 147 5
149 49 3
149 150 4
149 249 4
149 148 4
150 50 2
150 151 5
150 250 4
150 149 2
151 51 1
151 152 3
151 251 5
151 150 5
152 52 3
152 153 1
152 252 2
152 151 3
153 53 2
153 154 2
153 253 2
153 152 1
154 54 1
154 155 2
154 254 4
154 153 5
155 55 1
155 156 4
155 255 4
155 154 5
156 56 2
156 157 4
156 256 4
156 155 4
157 57 2
157 158 2
157 257 1
157 156 1
158 58 4
158 159 2
158 258 2
158 157 5
159 59 4
159 160 1
159 259 5
159 158 2
160 60 1
160 161 4
160 260 2
160 159 4
161 61 5
161 162 5
161 261 5
161 160 3
162 62 4
162 163 5
162 262 5
162 161 4
163 63 5
163 164 4
163 263 2
163 162 4
164 64 4
164 165 3
164 264 2
164 163 3
165 65 5
165 166 4
165 265 2
165 164 3
166 66 4
166 167 1
166 266 3
166 165 2
167 67 3
167 168 3
167 267 3
167 166 5
168 68 1
168 169 2
168 268 2
168 167 2
169 69 4
169 170 2
169 269 2
169 168 1
170 70 4
170 171 4
170 270 3
170 169 5
171 71 4
171 172 4
171 271 1
171 170 2
172 72 4
172 173 4
172 272 5
172 171 1
173 73 5
173 174 4
173 273 4
173 172 1
174 74 3
174 175 3
174 274 4
174 173 4
175 75 5
175 176 5
175 275 5
175 174 2
176 76 4
176 177 2
176 276 3
176 175 4
177 77 4
177 178 1
177 277 4
177 176 3
178 78 4
178 179 2
178 278 4
178 177 2
179 79 5
179 180 5
179 279 1
179 178 4
180 80 5
180 181 5
180 280 1
180 179 1
181 81 4
181 182 2
181 281 4
181 180 2
182 82 1
182 183 3
182 282 4
182 181 3
183 83 2
183 184 4
183 283 3
183 182 3
184 84 4
184 185 3
184 284 4
184 183 3
185 85 1
185 186 4
185 285 1
185 184 5
186 86 1
186 187 3
186 286 2
186 185 1
187 87 1
187 188 1
187 287 2
187 186 2
188 88 1
188 189 5
188 288 2
188 187 2
189 89 2
189 190 4
189 289 1
189 188 5
190 90 2
190 191 4
190 290 3
190 189 3
191 91 2
191 192 5
191 291 5
191 190 1
192 92 2
192 193 3
192 292 1
192 191 5
193 93 1
193 194 3
193 293 5
193 192 4
194 94 4
194 195 2
194 294 1
194 193 5
195 95 2
195 196 1
195 295 3
195 194 5
196 96 1
196 197 5
196 296 1
196 195 3
197 97 5
197 198 4
197 297 3
197 196 1
198 98 5
198 199 3
198 298 1
198 197 4
199 99 4
199 299 1
199 198 4
200 100 3
200 201 4
200 300 2
201 101 4
201 202 2
201 301 5
201 200 3
202 102 5
202 203 5
202 302 4
202 201 4
203 103 4
203 204 5
203 303 3
203 202 3
204 104 2
204 205 1
204 304 3
204 203 4
205 105 2
205 206 4
205 305 5
205 204 5
206 106 4
206 207 3
206 306 1
206 205 4
207 107 3
207 208 2
207 307 4
207 206 2
208 108 3
208 209 3
208 308 3
208 207 3
209 109 5
209 210 3
209 309 5
209 208 1
210 110 5
210 211 2
210 310 1
210 209 2
211 111 4
211 212 4
211 311 5
211 210 2
212 112 4
212 213 4
212 312 4
212 211 1
213 113 1
213 214 3
213 313 2
213 212 4
214 114 2
214 215 3
214 314 5
214 213 3
215 115 4
215 216 5
215 315 5
215 214 3
216 116 4
216 217 5
216 316 3
216 215 3
217 117 4
217 218 3
217 317 3
217 216 3
218 118 2
218 219 1
218 318 2
218 217 3
219 119 1
219 220 5
219 319 2
219 218 2
220 120 2
220 221 4
220 320 3
220 219 5
221 121 5
221 222 5
221 321 3
221 220 1
222 122 2
222 223 3
222 322 2
222 221 3
223 123 2
223 224 3
223 323 1
223 222 5
224 124 2
224 225 3
224 324 1
224 223 1
225 125 5
225 226 3
225 325 2
225 224 4
226 126 1
226 227 1
226 326 5
226 225 3
227 127 4
227 228 4
227 327 4
227 226 3
228 128 2
228 229 1
228 328 3
228 227 4
229 129 1
229 230 1
229 329 4
229 228 4
230 130 1
230 231 5
230 330 1
230 229 2
231 131 2
231 232 5
231 331 3
231 230 1
232 132 2
232 233 1
232 332 5
232 231 4
233 133 5
233 234 5
233 333 5
233 232 2
234 134 5
234 235 4
234 334 4
234 233 4
235 135 3
235 236 5
235 335 4
235 234 3
236 136 5
236 237 5
236 336 1
236 235 5
237 137 1
237 238 2
237 337 2
237 236 3
238 138 1
238 239 2
238 338 2
238 237 2
239 139 5
239 240 1
239 339 2
239 238 1
240 140 4
240 241 4
240 340 5
240 239 4
241 141 3
241 242 1
241 341 2
241 240 3
242 142 3
242 243 4
242 342 1
242 241 2
243 143 3
243 244 5
243 343 2
243 242 4
244 144 1
244 245 5
244 344 2
244 243 2
245 145 3
245 246 2
245 345 1
245 244 1
246 146 2
246 247 3
246 346 5
246 245 5
247 147 3
247 248 4
247 347 1
247 246 4
248 148 3
248 249 4
248 348 3
248 247 5
249 149 5
249 250 4
249 349 4
249 248 1
250 150 5
250 251 1
250 350 4
250 249 3
251 151 5
251 252 3
251 351 1
251 250 1
252 152 2
252 253 5
252 352 5
252 251 1
253 153 3
253 254 5
253 353 1
253 252 2
254 154 4
254 255 5
254 354 4
254 253 3
255 155 2
255 256 5
255 355 4
255 254 4
256 156 1
256 257 4
256 356 3
256 255 4
257 157 3
257 258 3
257 357 1
257 256 2
258 158 3
258 259 4
258 358 4
258 257 3
259 159 4
259 260 5
259 359 1
259 258 4
260 160 1
260 261 3
260 360 3
260 259 3
261 161 1
261 262 4
261 361 5
261 260 1
262 162 5
262 263 4
262 362 4
262 261 1
263 163 2
263 264 5
263 363 3
263 262 5
264 164 4
264 265 4
264 364 1
264 263 2
265 165 3
265 266 5
265 365 2
265 264 3
266 166 4
266 267 4
266 366 1
266 265 1
267 167 5
267 268 2
267 367 2
267 266 3
268 168 5
268 269 1
268 368 5
268 267 4
269 169 1
269 270 2
269 369 1
269 268 4
270 170 1
270 271 2
270 370 4
270 269 3
271 171 5
271 272 3
271 371 4
271 270 4
272 172 4
272 273 2
272 372 4
272 271 5
273 173 2
273 274 4
273 373 2
273 272 5
274 174 5
274 275 2
274 374 1
274 273 3
275 175 4
275 276 3
275 375 5
275 274 3
276 176 1
276 277 3
276 376 3
276 275 5
277 177 5
277 278 4
277 377 2
277 276 4
278 178 5
278 279 4
278 378 3
278 277 3
279 179 5
279 280 5
279 379 4
279 278 4
280 180 3
280 281 2
280 380 2
280 279 5
281 181 4
281 282 2
281 381 4
281 280 1
282 182 3
282 283 4
282 382 4
282 281 4
283 183 2
283 284 4
283 383 1
283 282 2
284 184 5
284 285 5
284 384 3
284 283 1
285 185 4
285 286 1
285 385 5
285 284 4
286 186 1
286 287 2
286 386 4
286 285 2
287 187 1
287 288 4
287 387 3
287 286 3
288 188 5
288 289 4
288 388 1
288 287 3
289 189 5
289 290 4
289 389 3
289 288 4
290 190 5
290 291 1
290 390 5
290 289 1
291 191 2
291 292 3
291 391 2
291 290 1
292 192 4
292 293 1
292 392 1
292 291 4
293 193 2
293 294 3
293 393 1
293 292 1
294 194 3
294 295 1
294 394 3
294 293 3
295 195 3
295 296 4
295 395 2
295 294 2
296 196 5
296 297 4
296 396 5
296 295 2
297 197 2
297 298 2
297 397 1
297 296 5
298 198 4
298 299 5
298 398 2
298 297 4
299 199 5
299 399 2
299 298 2
300 200 4
300 301 3
300 400 4
301 201 3
301 302 1
301 401 4
301 300 3
302 202 5
302 303 2
302 402 1
302 301 4
303 203 3
303 304 5
303 403 3
303 302 4
304 204 3
304 305 4
304 404 3
304 303 2
305 205 4
305 306 4
305 405 1
305 304 2
306 206 4
306 307 5
306 406 3
306 305 5
307 207 3
307 308 3
307 407 1
307 306 4
308 208 3
308 309 1
308 408 5
308 307 1
309 209 5
309 310 4
309 409 3
309 308 2
310 210 5
310 311 3
310 410 2
310 309 2
311 211 5
311 312 3
311 411 2
311 310 1
312 212 1
312 313 3
312 412 4
312 311 1
313 213 5
313 314 3
313 413 2
313 312 1
314 214 3
314 315 3
314 414 4
314 313 2
315 215 2
315 316 2
315 415 5
315 314 3
316 216 5
316 317 5
316 416 3
316 315 2
317 217 3
317 318 4
317 417 3
317 316 3
318 218 1
318 319 4
318 418 1
318 317 2
319 219 2
319 320 4
319 419 5
319 318 3
320 220 1
320 321 4
320 420 1
320 319 3
321 221 5
321 322 1
321 421 4
321 320 3
322 222 3
322 323 5
322 422 4
322 321 3
323 223 1
323 324 2
323 423 4
323 322 1
324 224 5
324 325 5
324 424 3
324 323 5
325 225 2
325 326 1
325 425 4
325 324 3
326 226 4
326 327 1
326 426 2
326 325 1
327 227 1
327 328 3
327 427 4
327 326 1
328 228 1
328 329 2
328 428 5
328 327 2
329 229 4
329 330 4
329 429 3
329 328 5
330 230 4
330 331 5
330 430 2
330 329 4
331 231 1
331 332 4
331 431 5
331 330 4
332 232 3
332 333 1
332 432 3
332 331 2
333 233 4
333 334 4
333 433 2
333 332 3
334 234 1
334 335 3
334 434 5
334 333 3
335 235 1
335 336 4
335 435 3
335 334 2
336 236 1
336 337 4
336 436 1
336 335 2
337 237 5
337 338 1
337 437 1
337 336 3
338 238 2
338 339 2
338 438 5
338 337 2
339 239 1
339 340 5
339 439 2
339 338 5
340 240 2
340 341 2
340 440 3
340 339 2
341 241 5
341 342 1
341 441 3
341 340 2
342 242 2
342 343 5
342 442 3
342 341 2
343 243 1
343 344 1
343 443 2
343 342 1
344 244 3
344 345 2
344 444 5
344 343 3
345 245 1
345 346 2
345 445 3
345 344 1
346 246 2
346 347 4
346 446 5
346 345 1
347 247 1
347 348 4
347 447 4
347 346 3
348 248 5
348 349 5
348 448 1
348 347 4
349 249 5
349 350 2
349 449 5
349 348 1
350 250 5
350 351 3
350 450 4
350 349 1
351 251 1
351 352 4
351 451 4
351 350 4
352 252 1
352 353 4
352 452 4
352 351 1
353 253 1
353 354 3
353 453 5
353 352 2
354 254 1
354 355 2
354 454 3
354 353 5
355 255 5
355 356 5
355 455 3
355 354 4
356 256 5
356 357 5
356 456 3
356 355 4
357 257 5
357 358 5
357 457 4
357 356 1
358 258 1
358 359 5
358 458 2
358 357 4
359 259 4
359 360 2
359 459 4
359 358 3
360 260 4
360 361 4
360 460 4
360 359 1
361 261 3
361 362 4
361 461 3
361 360 3
362 262 3
362 363 2
362 462 4
362 361 1
363 263 1
363 364 1
363 463 1
363 362 4
364 264 1
364 365 3
364 464 2
364 363 5
365 265 1
365 366 5
365 465 5
365 364 5
366 266 3
366 367 1
366 466 4
366 365 3
367 267 4
367 368 1
367 467 3
367 366 5
368 268 3
368 369 3
368 468 1
368 367 5
369 269 5
369 370 2
369 469 2
369 368 4
370 270 2
370 371 1
370 470 3
370 369 5
371 271 3
371 372 1
371 471 3
371 370 5
372 272 2
372 373 4
372 472 5
372 371 5
373 273 5
373 374 5
373 473 1
373 372 5
374 274 3
374 375 1
374 474 2
374 373 3
375 275 3
375 376 3
375 475 3
375 374 1
376 276 2
376 377 2
376 476 5
376 375 4
377 277 1
377 378 2
377 477 1
377 376 1
378 278 5
378 379 2
378 478 4
378 377 4
379 279 4
379 380 3
379 479 2
379 378 3
380 280 3
380 381 3
380 480 5
380 379 5
381 281 1
381 382 1
381 481 2
381 380 2
382 282 5
382 383 1
382 482 1
382 381 3
383 283 4
383 384 4
383 483 4
383 382 5
384 284 4
384 385 4
384 484 3
384 383 2
385 285 5
385 386 1
385 485 3
385 384 4
386 286 1
386 387 3
386 486 5
386 385 4
387 287 5
387 388 3
387 487 1
387 386 2
388 288 4
388 389 5
388 488 1
388 387 1
389 289 2
389 390 3
389 489 2
389 388 2
390 290 3
390 391 3
390 490 3
390 389 1
391 291 1
391 392 4
391 491 4
391 390 2
392 292 2
392 393 4
392 492 5
392 391 2
393 293 5
393 394 5
393 493 3
393 392 1
394 294 4
394 395 1
394 494 4
394 393 1
395 295 4
395 396 1
395 495 3
395 394 5
396 296 4
396 397 5
396 496 4
396 395 4
397 297 3
397 398 1
397 497 4
397 396 1
398 298 3
398 399 2
398 498 5
398 397 4
399 299 3
399 499 1
399 398 4
400 300 1
400 401 2
400 500 4
401 301 5
401 402 4
401 501 5
401 400 1
402 302 4
402 403 3
402 502 3
402 401 2
403 303 3
403 404 2
403 503 1
403 402 5
404 304 1
404 405 5
404 504 5
404 403 2
405 305 3
405 406 3
405 505 2
405 404 2
406 306 1
406 407 2
406 506 3
406 405 2
407 307 2
407 408 5
407 507 2
407 406 1
408 308 2
408 409 4
408 508 4
408 407 5
409 309 5
409 410 4
409 509 5
409 408 5
410 310 3
410 411 3
410 510 2
410 409 4
411 311 1
411 412 4
411 511 4
411 410 3
412 312 3
412 413 5
412 512 1
412 411 3
413 313 5
413 414 1
413 513 3
413 412 4
414 314 4
414 415 1
414 514 1
414 413 3
415 315 3
415 416 1
415 515 1
415 414 5
416 316 5
416 417 5
416 516 4
416 415 4
417 317 5
417 418 5
417 517 1
417 416 4
418 318 5
418 419 2
418 518 3
418 417 5
419 319 4
419 420 5
419 519 2
419 418 1
420 320 4
420 421 1
420 520 3
420 419 1
421 321 5
421 422 2
421 521 1
421 420 2
422 322 4
422 423 4
422 522 5
422 421 5
423 323 5
423 424 2
423 523 3
423 422 3
424 324 3
424 425 4
424 524 4
424 423 3
425 325 5
425 426 1
425 525 3
425 424 1
426 326 3
426 427 1
426 526 5
426 425 4
427 327 3
427 428 3
427 527 5
427 426 2
428 328 3
428 429 1
428 528 5
428 427 2
429 329 3
429 430 3
429 529 4
429 428 2
430 330 5
430 431 1
430 530 3
430 429 5
431 331 4
431 432 3
431 531 2
431 430 5
432 332 1
432 433 4
432 532 5
432 431 3
433 333 1
433 434 3
433 533 3
433 432 2
434 334 2
434 435 3
434 534 4
434 433 2
435 335 2
435 436 2
435 535 2
435 434 1
436 336 3
436 437 1
436 536 5
436 435 5
437 337 5
437 438 1
437 537 3
437 436 5
438 338 2
438 439 5
438 538 4
438 437 2
439 339 2
439 440 2
439 539 5
439 438 2
440 340 4
440 441 1
440 540 4
440 439 3
441 341 2
441 442 4
441 541 5
441 440 3
442 342 4
442 443 2
442 542 5
442 441 2
443 343 3
443 444 4
443 543 2
443 442 3
444 344 5
444 445 4
444 544 4
444 443 3
445 345 4
445 446 5
445 545 5
445 444 4
446 346 2
446 447 2
446 546 5
446 445 2
447 347 3
447 448 1
447 547 4
447 446 3
448 348 5
448 449 1
448 548 5
448 447 1
449 349 3
449 450 1
449 549 2
449 448 3
450 350 4
450 451 5
450 550 2
450 449 4
451 351 1
451 452 2
451 551 4
451 450 3
452 352 1
452 453 4
452 552 1
452 451 4
453 353 5
453 454 3
453 553 2
453 452 4
454 354 1
454 455 3
454 554 2
454 453 1
455 355 3
455 456 1
455 555 3
455 454 2
456 356 2
456 457 1
456 556 3
456 455 4
457 357 2
457 458 4
457 557 4
457 456 5
458 358 1
458 459 1
458 558 1
458 457 3
459 359 2
459 460 2
459 559 5
459 458 5
460 360 5
460 461 4
460 560 1
460 459 3
461 361 2
461 462 3
461 561 1
461 460 1
462 362 2
462 463 4
462 562 5
462 461 4
463 363 1
463 464 1
463 563 4
463 462 5
464 364 5
464 465 1
464 564 5
464 463 5
465 365 2
465 466 2
465 565 3
465 464 4
466 366 1
466 467 5
466 566 3
466 465 2
467 367 5
467 468 4
467 567 2
467 466 1
468 368 5
468 469 3
468 568 1
468 467 5
469 369 5
469 470 5
469 569 5
469 468 5
470 370 1
470 471 4
470 570 4
470 469 1
471 371 4
471 472 3
471 571 3
471 470 1
472 372 3
472 473 1
472 572 3
472 471 2
473 373 1
473 474 5
473 573 3
473 472 2
474 374 1
474 475 3
474 574 5
474 473 3
475 375 2
475 476 4
475 575 4
475 474 2
476 376 2
476 477 1
476 576 4
476 475 1
477 377 3
477 478 2
477 577 1
477 476 2
478 378 1
478 479 3
478 578 3
478 477 5
479 379 4
479 480 5
479 579 4
479 478 3
480 380 1
480 481 2
480 580 3
480 479 3
481 381 1
481 482 3
481 581 3
481 480 1
482 382 3
482 483 4
482 582 4
482 481 4
483 383 4
483 484 3
483 583 2
483 482 4
484 384 4
484 485 3
484 584 5
484 483 3
485 385 1
485 486 4
485 585 1
485 484 4
486 386 5
486 487 2
486 586 5
486 485 3
487 387 3
487 488 1
487 587 1
487 486 3
488 388 3
488 489 3
488 588 4
488 487 5
489 389 4
489 490 2
489 589 4
489 488 3
490 390 4
490 491 1
490 590 3
490 489 5
491 391 4
491 492 3
491 591 1
491 490 1
492 392 4
492 493 3
492 592 5
492 491 2
493 393 1
493 494 2
493 593 5
493 492 4
494 394 1
494 495 2
494 594 1
494 493 2
495 395 3
495 496 3
495 595 4
495 494 5
496 396 1
496 497 5
496 596 2
496 495 4
497 397 3
497 498 3
497 597 4
497 496 1
498 398 5
498 499 2
498 598 5
498 497 3
499 399 4
499 599 3
499 498 3
500 400 2
500 501 1
500 600 1
501 401 2
501 502 4
501 601 5
501 500 4
502 402 5
502 503 1
502 602 3
502 501 3
503 403 4
503 504 2
503 603 5
503 502 3
504 404 4
504 505 2
504 604 1
504 503 2
505 405 1
505 506 4
505 605 2
505 504 4
506 406 1
506 507 3
506 606 3
506 505 1
507 407 5
507 508 5
507 607 3
507 506 3
508 408 2
508 509 2
508 608 3
508 507 5
509 409 2
509 510 1
509 609 2
509 508 2
510 410 2
510 511 4
510 610 1
510 509 3
511 411 5
511 512 5
511 611 3
511 510 4
512 412 5
512 513 2
512 612 5
512 511 1
513 413 1
513 514 3
513 613 4
513 512 4
514 414 5
514 515 4
514 614 4
514 513 5
515 415 1
515 516 2
515 615 3
515 514 1
516 416 4
516 517 4
516 616 5
516 515 3
517 417 2
517 518 5
517 617 5
517 516 2
518 418 2
518 519 4
518 618 5
518 517 1
519 419 1
519 520 5
519 619 2
519 518 3
520 420 2
520 521 2
520 620 3
520 519 2
521 421 3
521 522 5
521 621 3
521 520 1
522 422 3
522 523 2
522 622 5
522 521 3
523 423 2
523 524 3
523 623 5
523 522 5
524 424 1
524 525 5
524 624 2
524 523 5
525 425 5
525 526 2
525 625 2
525 524 5
526 426 5
526 527 3
526 626 5
526 525 1
527 427 1
527 528 1
527 627 1
527 526 5
528 428 3
528 529 2
528 628 5
528 527 4
529 429 5
529 530 1
529 629 4
529 528 5
530 430 3
530 531 3
530 630 4
530 529 2
531 431 4
531 532 3
531 631 4
531 530 1
532 432 1
532 533 2
532 632 4
532 531 4
533 433 4
533 534 4
533 633 2
533 532 3
534 434 5
534 535 2
534 634 3
534 533 3
535 435 3
535 536 4
535 635 2
535 534 3
536 436 5
536 537 5
536 636 1
536 535 3
537 437 2
537 538 4
537 637 1
537 536 3
538 438 4
538 539 2
538 638 2
538 537 1
539 439 1
539 540 3
539 639 4
539 538 5
540 440 4
540 541 2
540 640 2
540 539 3
541 441 5
541 542 3
541 641 2
541 540 2
542 442 4
542 543 5
542 642 4
542 541 4
543 443 3
543 544 4
543 643 1
543 542 1
544 444 4
544 545 5
544 644 4
544 543 2
545 445 2
545 546 5
545 645 3
545 544 1
546 446 1
546 547 3
546 646 4
546 545 5
547 447 4
547 548 3
547 647 5
547 546 1
548 448 1
548 549 4
548 648 2
548 547 3
549 449 3
549 550 4
549 649 3
549 548 1
550 450 4
550 551 1
550 650 5
550 549 5
551 451 2
551 552 3
551 651 5
551 550 3
552 452 1
552 553 4
552 652 5
552 551 4
553 453 5
553 554 3
553 653 5
553 552 5
554 454 1
554 555 2
554 654 1
554 553 4
555 455 3
555 556 3
555 655 5
555 554 3
556 456 2
556 557 2
556 656 5
556 555 5
557 457 4
557 558 5
557 657 1
557 556 1
558 458 1
558 559 2
558 658 3
558 557 4
559 459 5
559 560 4
559 659 2
559 558 5
560 460 5
560 561 2
560 660 3
560 559 5
561 461 3
561 562 2
561 661 4
561 560 5
562 462 3
562 563 5
562 662 3
562 561 5
563 463 5
563 564 5
563 663 4
563 562 5
564 464 3
564 565 4
564 664 1
564 563 3
565 465 3
565 566 1
565 665 4
565 564 5
566 466 3
566 567 1
566 666 5
566 565 4
567 467 3
567 568 5
567 667 5
567 566 2
568 468 1
568 569 5
568 668 4
568 567 2
569 469 5
569 570 5
569 669 4
569 568 2
570 470 2
570 571 1
570 670 5
570 569 1
571 471 2
571 572 1
571 671 4
571 570 3
572 472 4
572 573 2
572 672 4
572 571 2
573 473 4
573 574 5
573 673 5
573 572 4
574 474 1
574 575 2
574 674 5
574 573 2
575 475 5
575 576 3
575 675 4
575 574 5
576 476 4
576 577 3
576 676 2
576 575 4
577 477 5
577 578 3
577 677 5
577 576 3
578 478 3
578 579 5
578 678 4
578 577 2
579 479 2
579 580 3
579 679 5
579 578 3
580 480 2
580 581 3
580 680 3
580 579 2
581 481 4
581 582 3
581 681 4
581 580 3
582 482 5
582 583 3
582 682 3
582 581 1
583 483 5
583 584 5
583 683 4
583 582 4
584 484 3
584 585 2
584 684 3
584 583 1
585 485 3
585 586 1
585 685 3
585 584 4
586 486 3
586 587 4
586 686 2
586 585 2
587 487 5
587 588 3
587 687 5
587 586 3
588 488 2
588 589 1
588 688 5
588 587 5
589 489 2
589 590 2
589 689 1
589 588 5
590 490 2
590 591 2
590 690 1
590 589 1
591 491 4
591 592 3
591 691 4
591 590 1
592 492 2
592 593 1
592 692 5
592 591 2
593 493 4
593 594 4
593 693 4
593 592 2
594 494 3
594 595 3
594 694 3
594 593 1
595 495 1
595 596 5
595 695 2
595 594 5
596 496 1
596 597 2
596 696 4
596 595 2
597 497 1
597 598 4
597 697 4
597 596 2
598 498 3
598 599 1
598 698 1
598 597 3
599 499 5
599 699 5
599 598 1
600 500 3
600 601 3
600 700 4
601 501 5
601 602 5
601 701 4
601 600 2
602 502 5
602 603 4
602 702 3
602 601 2
603 503 1
603 604 3
603 703 2
603 602 4
604 504 3
604 605 2
604 704 1
604 603 3
605 505 3
605 606 5
605 705 2
605 604 2
606 506 5
606 607 4
606 706 4
606 605 5
607 507 3
607 608 1
607 707 4
607 606 1
608 508 2
608 609 2
608 708 4
608 607 3
609 509 2
609 610 1
609 709 3
609 608 4
610 510 2
610 611 4
610 710 3
610 609 3
611 511 3
611 612 5
611 711 5
611 610 1
612 512 3
612 613 3
612 712 2
612 611 1
613 513 1
613 614 4
613 713 3
613 612 2
614 514 4
614 615 5
614 714 3
614 613 1
615 515 3
615 616 3
615 715 5
615 614 2
616 516 2
616 617 2
616 716 4
616 615 2
617 517 4
617 618 5
617 717 3
617 616 4
618 518 5
618 619 4
618 718 5
618 617 2
619 519 2
619 620 5
619 719 1
619 618 5
620 520 4
620 621 5
620 720 3
620 619 1
621 521 5
621 622 1
621 721 1
621 620 5
622 522 5
622 623 2
622 722 5
622 621 5
623 523 2
623 624 2
623 723 3
623 622 5
624 524 4
624 625 1
624 724 2
624 623 5
625 525 4
625 626 1
625 725 5
625 624 4
626 526 1
626 627 4
626 726 2
626 625 5
627 527 4
627 628 4
627 727 5
627 626 1
628 528 5
628 629 4
628 728 3
628 627 1
629 529 4
629 630 3
629 729 1
629 628 2
630 530 5
630 631 1
630 730 1
630 629 4
631 531 3
631 632 1
631 731 5
631 630 1
632 532 1
632 633 4
632 732 1
632 631 3
633 533 4
633 634 2
633 733 2
633 632 4
634 534 3
634 635 4
634 734 4
634 633 4
635 535 4
635 636 1
635 735 5
635 634 2
636 536 3
636 637 1
636 736 2
636 635 5
637 537 4
637 638 5
637 737 2
637 636 2
638 538 1
638 639 1
638 738 3
638 637 4
639 539 5
639 640 4
639 739 5
639 638 4
640 540 2
640 641 2
640 740 4
640 639 3
641 541 2
641 642 3
641 741 2
641 640 1
642 542 1
642 643 4
642 742 5
642 641 1
643 543 2
643 644 2
643 743 1
643 642 1
644 544 5
644 645 1
644 744 4
644 643 5
645 545 1
645 646 2
645 745 1
645 644 4
646 546 4
646 647 2
646 746 5
646 645 2
647 547 1
647 648 2
647 747 5
647 646 3
648 548 2
648 649 5
648 748 3
648 647 5
649 549 5
649 650 3
649 749 2
649 648 3
650 550 2
650 651 5
650 750 2
650 649 4
651 551 3
651 652 3
651 751 1
651 650 5
652 552 5
652 653 2
652 752 4
652 651 5
653 553 4
653 654 1
653 753 3
653 652 4
654 554 5
654 655 3
654 754 4
654 653 4
655 555 2
655 656 3
655 755 4
655 654 2
656 556 5
656 657 4
656 756 2
656 655 2
657 557 3
657 658 2
657 757 4
657 656 1
658 558 5
658 659 4
658 758 4
658 657 5
659 559 5
659 660 2
659 759 4
659 658 2
660 560 3
660 661 2
660 760 3
660 659 1
661 561 4
661 662 3
661 761 1
661 660 5
662 562 2
662 663 1
662 762 3
662 661 4
663 563 5
663 664 5
663 763 1
663 662 1
664 564 2
664 665 5
664 764 5
664 663 2
665 565 4
665 666 2
665 765 3
665 664 3
666 566 1
666 667 2
666 766 2
666 665 1
667 567 4
667 668 2
667 767 5
667 666 2
668 568 4
668 669 2
668 768 5
668 667 3
669 569 3
669 670 4
669 769 4
669 668 5
670 570 3
670 671 3
670 770 3
670 669 3
671 571 5
671 672 4
671 771 4
671 670 1
672 572 4
672 673 3
672 772 2
672 671 3
673 573 3
673 674 4
673 773 1
673 672 5
674 574 2
674 675 2
674 774 1
674 673 3
675 575 5
675 676 5
675 775 5
675 674 4
676 576 3
676 677 2
676 776 2
676 675 3
677 577 2
677 678 4
677 777 5
677 676 2
678 578 4
678 679 5
678 778 3
678 677 3
679 579 4
679 680 4
679 779 4
679 678 2
680 580 3
680 681 2
680 780 2
680 679 5
681 581 4
681 682 2
681 781 5
681 680 1
682 582 5
682 683 1
682 782 1
682 681 1
683 583 1
683 684 4
683 783 2
683 682 2
684 584 1
684 685 2
684 784 1
684 683 2
685 585 5
685 686 4
685 785 3
685 684 1
686 586 5
686 687 5
686 786 4
686 685 4
687 587 1
687 688 1
687 787 5
687 686 5
688 588 4
688 689 1
688 788 1
688 687 5
689 589 3
689 690 5
689 789 3
689 688 1
690 590 5
690 691 4
690 790 2
690 689 1
691 591 1
691 692 5
691 791 2
691 690 2
692 592 2
692 693 5
692 792 5
692 691 3
693 593 3
693 694 3
693 793 4
693 692 1
694 594 3
694 695 4
694 794 4
694 693 5
695 595 2
695 696 2
695 795 3
695 694 1
696 596 1
696 697 1
696 796 4
696 695 4
697 597 4
697 698 5
697 797 4
697 696 1
698 598 1
698 699 2
698 798 1
698 697 4
699 599 4
699 799 3
699 698 5
700 600 1
700 701 5
700 800 1
701 601 2
701 702 2
701 801 5
701 700 4
702 602 3
702 703 1
702 802 1
702 701 3
703 603 5
703 704 5
703 803 1
703 702 2
704 604 3
704 705 1
704 804 2
704 703 5
705 605 2
705 706 4
705 805 1
705 704 3
706 606 2
706 707 5
706 806 2
706 705 5
707 607 4
707 708 5
707 807 3
707 706 4
708 608 2
708 709 1
708 808 5
708 707 3
709 609 1
709 710 1
709 809 4
709 708 2
710 610 1
710 711 3
710 810 5
710 709 5
711 611 5
711 712 4
711 811 3
711 710 1
712 612 3
712 713 4
712 812 4
712 711 2
713 613 3
713 714 5
713 813 4
713 712 4
714 614 2
714 715 5
714 814 4
714 713 1
715 615 5
715 716 3
715 815 2
715 714 1
716 616 1
716 717 3
716 816 2
716 715 4
717 617 2
717 718 4
717 817 3
717 716 3
718 618 1
718 719 1
718 818 1
718 717 3
719 619 4
719 720 3
719 819 3
719 718 1
720 620 2
720 721 1
720 820 2
720 719 4
721 621 4
721 722 5
721 821 5
721 720 5
722 622 4
722 723 1
722 822 1
722 721 1
723 623 3
723 724 5
723 823 1
723 722 5
724 624 5
724 725 3
724 824 4
724 723 1
725 625 3
725 726 4
725 825 4
725 724 1
726 626 5
726 727 2
726 826 5
726 725 5
727 627 2
727 728 4
727 827 2
727 726 2
728 628 3
728 729 3
728 828 3
728 727 4
729 629 2
729 730 1
729 829 2
729 728 4
730 630 3
730 731 4
730 830 3
730 729 4
731 631 1
731 732 3
731 831 3
731 730 2
732 632 4
732 733 5
732 832 5
732 731 2
733 633 4
733 734 1
733 833 2
733 732 3
734 634 1
734 735 4
734 834 3
734 733 5
735 635 4
735 736 3
735 835 4
735 734 3
736 636 4
736 737 5
736 836 2
736 735 3
737 637 3
737 738 5
737 837 2
737 736 4
738 638 3
738 739 2
738 838 4
738 737 3
739 639 3
739 740 4
739 839 5
739 738 2
740 640 3
740 741 4
740 840 3
740 739 4
741 641 3
741 742 1
741 841 5
741 740 2
742 642 5
742 743 5
742 842 2
742 741 5
743 643 1
743 744 4
743 843 2
743 742 4
744 644 3
744 745 1
744 844 4
744 743 4
745 645 2
745 746 3
745 845 2
745 744 3
746 646 2
746 747 4
746 846 4
746 745 1
747 647 4
747 748 5
747 847 4
747 746 5
748 648 4
748 749 5
748 848 5
748 747 4
749 649 5
749 750 1
749 849 3
749 748 5
750 650 5
750 751 1
750 850 1
750 749 2
751 651 3
751 752 2
751 851 5
751 750 1
752 652 5
752 753 4
752 852 3
752 751 4
753 653 1
753 754 1
753 853 1
753 752 3
754 654 2
754 755 5
754 854 5
754 753 5
755 655 5
755 756 5
755 855 2
755 754 4
756 656 3
756 757 4
756 856 4
756 755 5
757 657 5
757 758 2
757 857 3
757 756 1
758 658 4
758 759 1
758 858 3
758 757 4
759 659 1
759 760 1
759 859 2
759 758 3
760 660 3
760 761 3
760 860 4
760 759 2
761 661 5
761 762 4
761 861 3
761 760 4
762 662 1
762 763 4
762 862 4
762 761 3
763 663 1
763 764 3
763 863 1
763 762 1
764 664 1
764 765 3
764 864 1
764 763 2
765 665 2
765 766 5
765 865 2
765 764 5
766 666 2
766 767 3
766 866 5
766 765 4
767 667 4
767 768 2
767 867 4
767 766 2
768 668 2
768 769 4
768 868 4
768 767 1
769 669 5
769 770 2
769 869 4
769 768 5
770 670 4
770 771 4
770 870 1
770 769 2
771 671 2
771 772 3
771 871 1
771 770 5
772 672 1
772 773 5
772 872 2
772 771 3
773 673 3
773 774 2
773 873 4
773 772 1
774 674 3
774 775 4
774 874 5
774 773 3
775 675 5
775 776 4
775 875 5
775 774 4
776 676 5
776 777 1
776 876 3
776 775 3
777 677 4
777 778 5
777 877 2
777 776 3
778 678 5
778 779 5
778 878 1
778 777 2
779 679 3
779 780 1
779 879 2
779 778 3
780 680 1
780 781 2
780 880 3
780 779 2
781 681 5
781 782 4
781 881 4
781 780 5
782 682 2
782 783 5
782 882 4
782 781 4
783 683 2
783 784 4
783 883 5
783 782 2
784 684 5
784 785 2
784 884 4
784 783 3
785 685 2
785 786 2
785 885 3
785 784 4
786 686 5
786 787 1
786 886 3
786 785 1
787 687 4
787 788 2
787 887 2
787 786 4
788 688 5
788 789 5
788 888 4
788 787 4
789 689 4
789 790 4
789 889 4
789 788 4
790 690 2
790 791 1
790 890 5
790 789 1
791 691 2
791 792 3
791 891 1
791 790 3
792 692 2
792 793 5
792 892 3
792 791 2
793 693 4
793 794 5
793 893 4
793 792 5
794 694 5
794 795 1
794 894 5
794 793 1
795 695 3
795 796 5
795 895 3
795 794 5
796 696 1
796 797 4
796 896 5
796 795 2
797 697 4
797 798 1
797 897 2
797 796 3
798 698 1
798 799 4
798 898 3
798 797 3
799 699 1
799 899 4
799 798 1
800 700 2
800 801 2
800 900 5
801 701 3
801 802 5
801 901 4
801 800 2
802 702 5
802 803 2
802 902 2
802 801 2
803 703 1
803 804 5
803 903 3
803 802 5
804 704 3
804 805 5
804 904 5
804 803 2
805 705 3
805 806 3
805 905 3
805 804 5
806 706 3
806 807 5
806 906 1
806 805 2
807 707 4
807 808 1
807 907 3
807 806 2
808 708 2
808 809 2
808 908 2
808 807 3
809 709 2
809 810 4
809 909 4
809 808 2
810 710 5
810 811 3
810 910 4
810 809 4
811 711 4
811 812 1
811 911 1
811 810 4
812 712 5
812 813 3
812 912 3
812 811 4
813 713 4
813 814 3
813 913 5
813 812 1
814 714 1
814 815 4
814 914 3
814 813 1
815 715 5
815 816 4
815 915 2
815 814 4
816 716 2
816 817 4
816 916 3
816 815 3
817 717 3
817 818 3
817 917 5
817 816 5
818 718 2
818 819 5
818 918 4
818 817 3
819 719 1
819 820 1
819 919 1
819 818 4
820 720 1
820 821 1
820 920 2
820 819 4
821 721 4
821 822 1
821 921 4
821 820 2
822 722 2
822 823 3
822 922 2
822 821 3
823 723 1
823 824 3
823 923 3
823 822 1
824 724 3
824 825 2
824 924 1
824 823 4
825 725 3
825 826 2
825 925 4
825 824 1
826 726 1
826 827 1
826 926 2
826 825 4
827 727 1
827 828 2
827 927 5
827 826 2
828 728 5
828 829 4
828 928 1
828 827 1
829 729 3
829 830 1
829 929 4
829 828 2
830 730 4
830 831 1
830 930 2
830 829 4
831 731 1
831 832 1
831 931 1
831 830 3
832 732 3
832 833 3
832 932 2
832 831 4
833 733 2
833 834 2
833 933 1
833 832 5
834 734 5
834 835 1
834 934 5
834 833 2
835 735 4
835 836 3
835 935 2
835 834 2
836 736 4
836 837 5
836 936 4
836 835 2
837 737 1
837 838 1
837 937 2
837 836 1
838 738 5
838 839 4
838 938 3
838 837 4
839 739 3
839 840 2
839 939 2
839 838 3
840 740 1
840 841 2
840 940 5
840 839 5
841 741 5
841 842 5
841 941 3
841 840 1
842 742 3
842 843 2
842 942 5
842 841 5
843 743 5
843 844 2
843 943 4
843 842 3
844 744 1
844 845 2
844 944 4
844 843 4
845 745 1
845 846 2
845 945 4
845 844 5
846 746 1
846 847 5
846 946 1
846 845 3
847 747 3
847 848 2
847 947 4
847 846 5
848 748 4
848 849 3
848 948 5
848 847 2
849 749 4
849 850 1
849 949 1
849 848 5
850 750 1
850 851 1
850 950 3
850 849 2
851 751 1
851 852 1
851 951 4
851 850 5
852 752 3
852 853 5
852 952 4
852 851 4
853 753 4
853 854 1
853 953 5
853 852 5
854 754 5
854 855 2
854 954 3
854 853 1
855 755 3
855 856 1
855 955 5
855 854 2
856 756 2
856 857 5
856 956 3
856 855 4
857 757 5
857 858 1
857 957 3
857 856 4
858 758 2
858 859 1
858 958 2
858 857 1
859 759 4
859 860 1
859 959 4
859 858 5
860 760 5
860 861 1
860 960 3
860 859 2
861 761 1
861 862 1
861 961 2
861 860 1
862 762 2
862 863 4
862 962 3
862 861 5
863 763 5
863 864 3
863 963 2
863 862 3
864 764 2
864 865 3
864 964 1
864 863 1
865 765 3
865 866 4
865 965 3
865 864 5
866 766 1
866 867 3
866 966 5
866 865 1
867 767 4
867 868 4
867 967 5
867 866 3
868 768 1
868 869 4
868 968 5
868 867 2
869 769 3
869 870 2
869 969 3
869 868 1
870 770 5
870 871 1
870 970 2
870 869 5
871 771 1
871 872 1
871 971 1
871 870 2
872 772 1
872 873 4
872 972 3
872 871 4
873 773 2
873 874 2
873 973 1
873 872 5
874 774 4
874 875 2
874 974 3
874 873 2
875 775 4
875 876 3
875 975 3
875 874 1
876 776 5
876 877 3
876 976 1
876 875 5
877 777 1
877 878 2
877 977 2
877 876 5
878 778 1
878 879 4
878 978 1
878 877 4
879 779 3
879 880 3
879 979 3
879 878 1
880 780 5
880 881 4
880 980 1
880 879 3
881 781 2
881 882 3
881 981 5
881 880 3
882 782 5
882 883 2
882 982 4
882 881 3
883 783 5
883 884 4
883 983 2
883 882 5
884 784 2
884 885 2
884 984 1
884 883 4
885 785 1
885 886 2
885 985 5
885 884 3
886 786 1
886 887 3
886 986 1
886 885 4
887 787 3
887 888 1
887 987 2
887 886 5
888 788 2
888 889 4
888 988 4
888 887 1
889 789 2
889 890 3
889 989 1
889 888 1
890 790 2
890 891 5
890 990 4
890 889 3
891 791 4
891 892 1
891 991 5
891 890 1
892 792 5
892 893 2
892 992 4
892 891 1
893 793 5
893 894 5
893 993 1
893 892 4
894 794 2
894 895 2
894 994 3
894 893 3
895 795 3
895 896 4
895 995 3
895 894 3
896 796 4
896 897 3
896 996 2
896 895 1
897 797 2
897 898 2
897 997 5
897 896 1
898 798 2
898 899 1
898 998 2
898 897 4
899 799 4
899 999 3
899 898 4
900 800 1
900 901 5
900 1000 3
901 801 2
901 902 4
901 1001 3
901 900 4
902 802 3
902 903 1
902 1002 1
902 901 2
903 803 3
903 904 5
903 1003 1
903 902 2
904 804 3
904 905 2
904 1004 1
904 903 2
905 805 3
905 906 4
905 1005 5
905 904 1
906 806 3
906 907 3
906 1006 2
906 905 1
907 807 4
907 908 4
907 1007 5
907 906 5
908 808 2
908 909 1
908 1008 4
908 907 1
909 809 2
909 910 1
909 1009 1
909 908 1
910 810 2
910 911 2
910 1010 2
910 909 4
911 811 3
911 912 1
911 1011 5
911 910 5
912 812 3
912 913 1
912 1012 1
912 911 1
913 813 2
913 914 4
913 1013 2
913 912 1
914 814 3
914 915 1
914 1014 1
914 913 4
915 815 1
915 916 2
915 1015 5
915 914 4
916 816 4
916 917 4
916 1016 1
916 915 4
917 817 4
917 918 2
917 1017 3
917 916 2
918 818 2
918 919 3
918 1018 3
918 917 4
919 819 2
919 920 1
919 1019 5
919 918 5
920 820 5
920 921 2
920 1020 3
920 919 4
921 821 4
921 922 5
921 1021 4
921 920 1
922 822 1
922 923 3
922 1022 4
922 921 2
923 823 4
923 924 2
923 1023 5
923 922 2
924 824 5
924 925 1
924 1024 4
924 923 3
925 825 4
925 926 5
925 1025 4
925 924 3
926 826 5
926 927 5
926 1026 3
926 925 4
927 827 3
927 928 2
927 1027 1
927 926 3
928 828 5
928 929 2
928 1028 1
928 927 3
929 829 1
929 930 4
929 1029 5
929 928 3
930 830 5
930 931 2
930 1030 2
930 929 1
931 831 2
931 932 2
931 1031 3
931 930 5
932 832 1
932 933 2
932 1032 5
932 931 4
933 833 3
933 934 2
933 1033 2
933 932 2
934 834 5
934 935 3
934 1034 3
934 933 5
935 835 1
935 936 3
935 1035 5
935 934 5
936 836 2
936 937 5
936 1036 2
936 935 4
937 837 5
937 938 3
937 1037 2
937 936 4
938 838 1
938 939 1
938 1038 1
938 937 2
939 839 5
939 940 2
939 1039 1
939 938 5
940 840 4
940 941 1
940 1040 3
940 939 5
941 841 2
941 942 2
941 1041 3
941 940 2
942 842 3
942 943 1
942 1042 1
942 941 2
943 843 5
943 944 2
943 1043 1
943 942 5
944 844 3
944 945 1
944 1044 3
944 943 4
945 845 5
945 946 1
945 1045 3
945 944 3
946 846 3
946 947 2
946 1046 2
946 945 4
947 847 4
947 948 3
947 1047 2
947 946 5
948 848 5
948 949 3
948 1048 2
948 947 5
949 849 2
949 950 4
949 1049 3
949 948 3
950 850 2
950 951 2
950 1050 1
950 949 5
951 851 4
951 952 5
951 1051 1
951 950 2
952 852 5
952 953 3
952 1052 5
952 951 2
953 853 5
953 954 1
953 1053 4
953 952 2
954 854 3
954 955 1
954 1054 2
954 953 3
955 855 3
955 956 2
955 1055 1
955 954 3
956 856 4
956 957 1
956 1056 3
956 955 2
957 857 2
957 958 1
957 1057 3
957 956 3
958 858 1
958 959 1
958 1058 1
958 957 4
959 859 4
959 960 4
959 1059 2
959 958 4
960 860 4
960 961 4
960 1060 3
960 959 5
961 861 4
961 962 1
961 1061 4
961 960 5
962 862 2
962 963 2
962 1062 4
962 961 1
963 863 1
963 964 3
963 1063 1
963 962 3
964 864 3
964 965 1
964 1064 1
964 963 3
965 865 2
965 966 4
965 1065 2
965 964 1
966 866 5
966 967 1
966 1066 3
966 965 5
967 867 5
967 968 4
967 1067 1
967 966 4
968 868 2
968 969 5
968 1068 4
968 967 2
969 869 1
969 970 1
969 1069 3
969 968 2
970 870 2
970 971 4
970 1070 5
970 969 5
971 871 3
971 972 3
971 1071 3
971 970 2
972 872 1
972 973 1
972 1072 4
972 971 5
973 873 5
973 974 4
973 1073 2
973 972 1
974 874 3
974 975 1
974 1074 4
974 973 1
975 875 3
975 976 5
975 1075 4
975 974 2
976 876 1
976 977 1
976 1076 2
976 975 2
977 877 3
977 978 1
977 1077 4
977 976 1
978 878 3
978 979 4
978 1078 4
978 977 4
979 879 3
979 980 1
979 1079 5
979 978 4
980 880 2
980 981 3
980 1080 4
980 979 3
981 881 2
981 982 4
981 1081 1
981 980 3
982 882 4
982 983 4
982 1082 3
982 981 2
983 883 3
983 984 5
983 1083 1
983 982 2
984 884 1
984 985 1
984 1084 3
984 983 5
985 885 4
985 986 5
985 1085 2
985 984 5
986 886 1
986 987 4
986 1086 5
986 985 4
987 887 5
987 988 4
987 1087 5
987 986 2
988 888 4
988 989 3
988 1088 1
988 987 4
989 889 1
989 990 5
989 1089 5
989 988 5
990 890 5
990 991 5
990 1090 2
990 989 1
991 891 4
991 992 2
991 1091 2
991 990 2
992 892 2
992 993 2
992 1092 1
992 991 4
993 893 1
993 994 4
993 1093 2
993 992 2
994 894 5
994 995 3
994 1094 3
994 993 1
995 895 1
995 996 4
995 1095 5
995 994 4
996 896 5
996 997 3
996 1096 3
996 995 5
997 897 4
997 998 1
997 1097 5
997 996 5
998 898 5
998 999 4
998 1098 1
998 997 4
999 899 2
999 1099 2
999 998 5
1000 900 5
1000 1001 5
1000 1100 1
1001 901 1
1001 1002 5
1001 1101 1
1001 1000 3
1002 902 5
1002 1003 3
1002 1102 4
1002 1001 3
1003 903 4
1003 1004 4
1003 1103 5
1003 1002 5
1004 904 4
1004 1005 1
1004 1104 2
1004 1003 3
1005 905 4
1005 1006 2
1005 1105 5
1005 1004 5
1006 906 4
1006 1007 1
1006 1106 4
1006 1005 3
1007 907 2
1007 1008 1
1007 1107 4
1007 1006 3
1008 908 3
1008 1009 1
1008 1108 3
1008 1007 3
1009 909 3
1009 1010 3
1009 1109 4
1009 1008 1
1010 910 2
1010 1011 2
1010 1110 3
1010 1009 4
1011 911 3
1011 1012 3
1011 1111 4
1011 1010 5
1012 912 1
1012 1013 2
1012 1112 4
1012 1011 2
1013 913 4
1013 1014 4
1013 1113 5
1013 1012 3
1014 914 1
1014 1015 5
1014 1114 2
1014 1013 1
1015 915 3
1015 1016 5
1015 1115 4
1015 1014 2
1016 916 5
1016 1017 5
1016 1116 1
1016 1015 2
1017 917 2
1017 1018 2
1017 1117 1
1017 1016 2
1018 918 1
1018 1019 4
1018 1118 1
1018 1017 3
1019 919 2
1019 1020 3
1019 1119 3
1019 1018 4
1020 920 5
1020 1021 4
1020 1120 1
1020 1019 1
1021 921 2
1021 1022 3
1021 1121 4
1021 1020 5
1022 922 4
1022 1023 2
1022 1122 4
1022 1021 5
1023 923 5
1023 1024 3
1023 1123 3
1023 1022 2
1024 924 3
1024 1025 1
1024 1124 3
1024 1023 1
1025 925 4
1025 1026 1
1025 1125 2
1025 1024 5
1026 926 2
1026 1027 2
1026 1126 2
1026 1025 2
1027 927 3
1027 1028 4
1027 1127 5
1027 1026 1
1028 928 1
1028 1029 4
1028 1128 2
1028 1027 2
1029 929 5
1029 1030 1
1029 1129 2
1029 1028 3
1030 930 5
1030 1031 3
1030 1130 3
1030 1029 4
1031 931 4
1031 1032 3
1031 1131 4
1031 1030 3
1032 932 2
1032 1033 4
1032 1132 3
1032 1031 5
1033 933 5
1033 1034 4
1033 1133 5
1033 1032 1
1034 934 1
1034 1035 5
1034 1134 3
1034 1033 5
1035 935 5
1035 1036 5
1035 1135 3
1035 1034 3
1036 936 1
1036 1037 4
1036 1136 1
1036 1035 3
1037 937 3
1037 1038 3
1037 1137 3
1037 1036 3
1038 938 3
1038 1039 2
1038 1138 2
1038 1037 5
1039 939 2
1039 1040 1
1039 1139 5
1039 1038 4
1040 940 3
1040 1041 2
1040 1140 1
1040 1039 4
1041 941 3
1041 1042 3
1041 1141 4
1041 1040 4
1042 942 4
1042 1043 1
1042 1142 5
1042 1041 5
1043 943 2
1043 1044 3
1043 1143 2
1043 1042 5
1044 944 4
1044 1045 3
1044 1144 5
1044 1043 3
1045 945 2
1045 1046 5
1045 1145 2
1045 1044 3
1046 946 1
1046 1047 4
1046 1146 2
1046 1045 3
1047 947 5
1047 1048 2
1047 1147 3
1047 1046 1
1048 948 2
1048 1049 3
1048 1148 2
1048 1047 3
1049 949 4
1049 1050 3
1049 1149 3
1049 1048 3
1050 950 5
1050 1051 3
1050 1150 4
1050 1049 1
1051 951 4
1051 1052 1
1051 1151 5
1051 1050 5
1052 952 5
1052 1053 1
1052 1152 4
1052 1051 2
1053 953 5
1053 1054 1
1053 1153 4
1053 1052 5
1054 954 3
1054 1055 4
1054 1154 1
1054 1053 2
1055 955 2
1055 1056 2
1055 1155 3
1055 1054 4
1056 956 5
1056 1057 4
1056 1156 2
1056 1055 3
1057 957 2
1057 1058 1
1057 1157 4
1057 1056 3
1058 958 2
1058 1059 3
1058 1158 1
1058 1057 1
1059 959 4
1059 1060 3
1059 1159 2
1059 1058 2
1060 960 5
1060 1061 2
1060 1160 4
1060 1059 1
1061 961 2
1061 1062 5
1061 1161 4
1061 1060 4
1062 962 4
1062 1063 4
1062 1162 4
1062 1061 4
1063 963 1
1063 1064 1
1063 1163 5
1063 1062 2
1064 964 3
1064 1065 1
1064 1164 3
1064 1063 5
1065 965 2
1065 1066 1
1065 1165 1
1065 1064 2
1066 966 2
1066 1067 3
1066 1166 3
1066 1065 2
1067 967 1
1067 1068 4
1067 1167 5
1067 1066 5
1068 968 3
1068 1069 2
1068 1168 1
1068 1067 1
1069 969 3
1069 1070 3
1069 1169 4
1069 1068 5
1070 970 5
1070 1071 5
1070 1170 3
1070 1069 4
1071 971 2
1071 1072 3
1071 1171 4
1071 1070 3
1072 972 2
1072 1073 2
1072 1172 4
1072 1071 1
1073 973 2
1073 1074 2
1073 1173 2
1073 1072 2
1074 974 1
1074 1075 5
1074 1174 5
1074 1073 2
1075 975 1
1075 1076 3
1075 1175 1
1075 1074 4
1076 976 3
1076 1077 5
1076 1176 5
1076 1075 1
1077 977 5
1077 1078 1
1077 1177 1
1077 1076 1
1078 978 1
1078 1079 1
1078 1178 4
1078 1077 4
1079 979 4
1079 1080 1
1079 1179 5
1079 1078 3
1080 980 4
1080 1081 2
1080 1180 2
1080 1079 1
1081 981 3
1081 1082 4
1081 1181 1
1081 1080 5
1082 982 3
1082 1083 5
1082 1182 5
1082 1081 2
1083 983 4
1083 1084 1
1083 1183 5
1083 1082 5
1084 984 1
1084 1085 3
1084 1184 1
1084 1083 1
1085 985 4
1085 1086 2
1085 1185 5
1085 1084 2
1086 986 3
1086 1087 5
1086 1186 2
1086 1085 3
1087 987 4
1087 1088 3
1087 1187 2
1087 1086 1
1088 988 5
1088 1089 4
1088 1188 2
1088 1087 4
1089 989 3
1089 1090 2
1089 1189 1
1089 1088 1
1090 990 1
1090 1091 1
1090 1190 5
1090 1089 4
1091 991 2
1091 1092 1
1091 1191 5
1091 1090 1
1092 992 1
1092 1093 3
1092 1192 2
1092 1091 4
1093 993 3
1093 1094 3
1093 1193 4
1093 1092 1
1094 994 1
1094 1095 2
1094 1194 1
1094 1093 3
1095 995 3
1095 1096 3
1095 1195 4
1095 1094 1
1096 996 1
1096 1097 1
1096 1196 1
1096 1095 2
1097 997 2
1097 1098 3
1097 1197 3
1097 1096 4
1098 998 5
1098 1099 3
1098 1198 1
1098 1097 3
1099 999 3
1099 1199 2
1099 1098 1
1100 1000 4
1100 1101 4
1100 1200 4
1101 1001 3
1101 1102 4
1101 1201 4
1101 1100 4
1102 1002 2
1102 1103 1
1102 1202 2
1102 1101 1
1103 1003 2
1103 1104 1
1103 1203 4
1103 1102 5
1104 1004 4
1104 1105 5
1104 1204 4
1104 1103 2
1105 1005 5
1105 1106 4
1105 1205 3
1105 1104 5
1106 1006 1
1106 1107 2
1106 1206 4
1106 1105 4
1107 1007 1
1107 1108 4
1107 1207 4
1107 1106 1
1108 1008 1
1108 1109 3
1108 1208 3
1108 1107 1
1109 1009 5
1109 1110 5
1109 1209 5
1109 1108 2
1110 1010 3
1110 1111 5
1110 1210 5
1110 1109 5
1111 1011 1
1111 1112 4
1111 1211 2
1111 1110 4
1112 1012 3
1112 1113 4
1112 1212 2
1112 1111 5
1113 1013 5
1113 1114 1
1113 1213 1
1113 1112 2
1114 1014 5
1114 1115 4
1114 1214 4
1114 1113 2
1115 1015 1
1115 1116 4
1115 1215 3
1115 1114 2
1116 1016 3
1116 1117 3
1116 1216 1
1116 1115 5
1117 1017 2
1117 1118 5
1117 1217 4
1117 1116 4
1118 1018 2
1118 1119 1
1118 1218 4
1118 1117 4
1119 1019 5
1119 1120 4
1119 1219 1
1119 1118 4
1120 1020 4
1120 1121 3
1120 1220 1
1120 1119 4
1121 1021 1
1121 1122 1
1121 1221 4
1121 1120 4
1122 1022 1
1122 1123 5
1122 1222 5
1122 1121 1
1123 1023 1
1123 1124 5
1123 1223 5
1123 1122 3
1124 1024 5
1124 1125 5
1124 1224 2
1124 1123 4
1125 1025 3
1125 1126 3
1125 1225 1
1125 1124 2
1126 1026 4
1126 1127 3
1126 1226 5
1126 1125 5
1127 1027 5
1127 1128 4
1127 1227 3
1127 1126 4
1128 1028 1
1128 1129 1
1128 1228 2
1128 1127 1
1129 1029 3
1129 1130 3
1129 1229 3
1129 1128 5
1130 1030 5
1130 1131 3
1130 1230 1
1130 1129 1
1131 1031 2
1131 1132 4
1131 1231 2
1131 1130 4
1132 1032 1
1132 1133 3
1132 1232 5
1132 1131 2
1133 1033 2
1133 1134 1
1133 1233 4
1133 1132 2
1134 1034 4
1134 1135 2
1134 1234 3
1134 1133 1
1135 1035 4
1135 1136 1
1135 1235 5
1135 1134 1
1136 1036 4
1136 1137 4
1136 1236 5
1136 1135 5
1137 1037 2
1137 1138 4
1137 1237 1
1137 1136 5
1138 1038 1
1138 1139 5
1138 1238 4
1138 1137 5
1139 1039 4
1139 1140 5
1139 1239 2
1139 1138 5
1140 1040 2
1140 1141 2
1140 1240 1
1140 1139 4
1141 1041 5
1141 1142 5
1141 1241 3
1141 1140 5
1142 1042 4
1142 1143 4
1142 1242 5
1142 1141 2
1143 1043 3
1143 1144 4
1143 1243 3
1143 1142 3
1144 1044 4
1144 1145 2
1144 1244 2
1144 1143 4
1145 1045 5
1145 1146 5
1145 1245 3
1145 1144 5
1146 1046 3
1146 1147 5
1146 1246 2
1146 1145 2
1147 1047 2
1147 1148 5
1147 1247 3
1147 1146 3
1148 1048 2
1148 1149 2
1148 1248 5
1148 1147 5
1149 1049 3
1149 1150 1
1149 1249 3
1149 1148 5
1150 1050 4
1150 1151 5
1150 1250 5
1150 1149 4
1151 1051 5
1151 1152 3
1151 1251 4
1151 1150 1
1152 1052 5
1152 1153 1
1152 1252 1
1152 1151 4
1153 1053 2
1153 1154 1
1153 1253 1
1153 1152 2
1154 1054 3
1154 1155 2
1154 1254 3
1154 1153 3
1155 1055 2
1155 1156 1
1155 1255 3
1155 1154 2
1156 1056 5
1156 1157 1
1156 1256 3
1156 1155 4
1157 1057 1
1157 1158 5
1157 1257 5
1157 1156 2
1158 1058 5
1158 1159 4
1158 1258 2
1158 1157 5
1159 1059 3
1159 1160 1
1159 1259 4
1159 1158 4
1160 1060 4
1160 1161 3
1160 1260 5
1160 1159 1
1161 1061 1
1161 1162 3
1161 1261 2
1161 1160 5
1162 1062 4
1162 1163 2
1162 1262 3
1162 1161 5
1163 1063 5
1163 1164 5
1163 1263 2
1163 1162 2
1164 1064 3
1164 1165 4
1164 1264 2
1164 1163 1
1165 1065 2
1165 1166 2
1165 1265 5
1165 1164 1
1166 1066 4
1166 1167 1
1166 1266 4
1166 1165 3
1167 1067 5
1167 1168 3
1167 1267 2
1167 1166 2
1168 1068 5
1168 1169 3
1168 1268 1
1168 1167 3
1169 1069 4
1169 1170 2
1169 1269 1
1169 1168 2
1170 1070 3
1170 1171 5
1170 1270 1
1170 1169 5
1171 1071 3
1171 1172 4
1171 1271 5
1171 1170 5
1172 1072 3
1172 1173 1
1172 1272 3
1172 1171 5
1173 1073 2
1173 1174 2
1173 1273 5
1173 1172 1
1174 1074 5
1174 1175 2
1174 1274 4
1174 1173 5
1175 1075 5
1175 1176 4
1175 1275 1
1175 1174 3
1176 1076 2
1176 1177 2
1176 1276 3
1176 1175 3
1177 1077 3
1177 1178 3
1177 1277 2
1177 1176 5
1178 1078 5
1178 1179 4
1178 1278 5
1178 1177 1
1179 1079 1
1179 1180 3
1179 1279 4
1179 1178 2
1180 1080 5
1180 1181 5
1180 1280 2
1180 1179 1
1181 1081 3
1181 1182 4
1181 1281 1
1181 1180 4
1182 1082 3
1182 1183 5
1182 1282 3
1182 1181 1
1183 1083 5
1183 1184 3
1183 1283 5
1183 1182 5
1184 1084 4
1184 1185 4
1184 1284 1
1184 1183 3
1185 1085 2
1185 1186 3
1185 1285 5
1185 1184 1
1186 1086 1
1186 1187 2
1186 1286 5
1186 1185 5
1187 1087 1
1187 1188 1
1187 1287 2
1187 1186 2
1188 1088 4
1188 1189 1
1188 1288 2
1188 1187 5
1189 1089 4
1189 1190 1
1189 1289 2
1189 1188 1
1190 1090 4
1190 1191 3
1190 1290 1
1190 1189 1
1191 1091 1
1191 1192 1
1191 1291 2
1191 1190 3
1192 1092 5
1192 1193 1
1192 1292 5
1192 1191 2
1193 1093 3
1193 1194 4
1193 1293 4
1193 1192 4
1194 1094 4
1194 1195 4
1194 1294 3
1194 1193 1
1195 1095 4
1195 1196 1
1195 1295 5
1195 1194 1
1196 1096 5
1196 1197 1
1196 1296 5
1196 1195 1
1197 1097 1
1197 1198 3
1197 1297 5
1197 1196 1
1198 1098 3
1198 1199 3
1198 1298 5
1198 1197 1
1199 1099 3
1199 1299 4
1199 1198 4
1200 1100 4
1200 1201 1
1200 1300 4
1201 1101 2
1201 1202 5
1201 1301 2
1201 1200 2
1202 1102 4
1202 1203 5
1202 1302 3
1202 1201 2
1203 1103 3
1203 1204 3
1203 1303 1
1203 1202 5
1204 1104 5
1204 1205 2
1204 1304 1
1204 1203 1
1205 1105 1
1205 1206 5
1205 1305 5
1205 1204 4
1206 1106 5
1206 1207 5
1206 1306 1
1206 1205 3
1207 1107 2
1207 1208 3
1207 1307 2
1207 1206 4
1208 1108 5
1208 1209 2
1208 1308 2
1208 1207 2
1209 1109 2
1209 1210 5
1209 1309 3
1209 1208 2
1210 1110 1
1210 1211 2
1210 1310 5
1210 1209 1
1211 1111 5
1211 1212 4
1211 1311 5
1211 1210 1
1212 1112 3
1212 1213 1
1212 1312 3
1212 1211 1
1213 1113 2
1213 1214 5
1213 1313 4
1213 1212 3
1214 1114 3
1214 1215 2
1214 1314 2
1214 1213 1
1215 1115 3
1215 1216 5
1215 1315 1
1215 1214 2
1216 1116 3
1216 1217 4
1216 1316 4
1216 1215 3
1217 1117 5
1217 1218 3
1217 1317 5
1217 1216 2
1218 1118 5
1218 1219 5
1218 1318 3
1218 1217 3
1219 1119 4
1219 1220 2
1219 1319 1
1219 1218 3
1220 1120 2
1220 1221 2
1220 1320 4
1220 1219 3
1221 1121 3
1221 1222 2
1221 1321 3
1221 1220 4
1222 1122 4
1222 1223 4
1222 1322 3
1222 1221 3
1223 1123 4
1223 1224 5
1223 1323 1
1223 1222 2
1224 1124 5
1224 1225 1
1224 1324 3
1224 1223 2
1225 1125 5
1225 1226 2
1225 1325 3
1225 1224 1
1226 1126 1
1226 1227 1
1226 1326 5
1226 1225 1
1227 1127 5
1227 1228 5
1227 1327 4
1227 1226 5
1228 1128 2
1228 1229 1
1228 1328 5
1228 1227 3
1229 1129 5
1229 1230 5
1229 1329 4
1229 1228 2
1230 1130 3
1230 1231 4
1230 1330 2
1230 1229 5
1231 1131 3
1231 1232 2
1231 1331 4
1231 1230 5
1232 1132 5
1232 1233 1
1232 1332 4
1232 1231 3
1233 1133 5
1233 1234 1
1233 1333 2
1233 1232 5
1234 1134 2
1234 1235 5
1234 1334 2
1234 1233 4
1235 1135 2
1235 1236 2
1235 1335 5
1235 1234 5
1236 1136 2
1236 1237 4
1236 1336 3
1236 1235 1
1237 1137 2
1237 1238 4
1237 1337 2
1237 1236 1
1238 1138 3
1238 1239 3
1238 1338 2
1238 1237 1
1239 1139 2
1239 1240 5
1239 1339 3
1239 1238 4
1240 1140 4
1240 1241 4
1240 1340 1
1240 1239 1
1241 1141 3
1241 1242 1
1241 1341 5
1241 1240 3
1242 1142 3
1242 1243 5
1242 1342 5
1242 1241 5
1243 1143 2
1243 1244 4
1243 1343 4
1243 1242 3
1244 1144 5
1244 1245 1
1244 1344 5
1244 1243 3
1245 1145 4
1245 1246 2
1245 1345 5
1245 1244 4
1246 1146 3
1246 1247 3
1246 1346 4
1246 1245 4
1247 1147 5
1247 1248 1
1247 1347 5
1247 1246 2
1248 1148 4
1248 1249 2
1248 1348 2
1248 1247 1
1249 1149 5
1249 1250 3
1249 1349 2
1249 1248 2
1250 1150 2
1250 1251 2
1250 1350 3
1250 1249 5
1251 1151 1
1251 1252 2
1251 1351 4
1251 1250 3
1252 1152 1
1252 1253 4
1252 1352 4
1252 1251 4
1253 1153 2
1253 1254 5
1253 1353 2
1253 1252 4
1254 1154 1
1254 1255 2
1254 1354 1
1254 1253 2
1255 1155 5
1255 1256 5
1255 1355 2
1255 1254 2
1256 1156 5
1256 1257 1
1256 1356 5
1256 1255 2
1257 1157 1
1257 1258 2
1257 1357 3
1257 1256 2
1258 1158 5
1258 1259 4
1258 1358 5
1258 1257 5
1259 1159 1
1259 1260 3
1259 1359 1
1259 1258 2
1260 1160 4
1260 1261 5
1260 1360 4
1260 1259 4
1261 1161 2
1261 1262 2
1261 1361 4
1261 1260 5
1262 1162 2
1262 1263 5
1262 1362 2
1262 1261 5
1263 1163 5
1263 1264 3
1263 1363 2
1263 1262 3
1264 1164 4
1264 1265 5
1264 1364 5
1264 1263 1
1265 1165 2
1265 1266 4
1265 1365 4
1265 1264 2
1266 1166 1
1266 1267 1
1266 1366 2
1266 1265 5
1267 1167 5
1267 1268 4
1267 1367 2
1267 1266 5
1268 1168 1
1268 1269 2
1268 1368 4
1268 1267 5
1269 1169 5
1269 1270 1
1269 1369 5
1269 1268 5
1270 1170 1
1270 1271 1
1270 1370 4
1270 1269 2
1271 1171 5
1271 1272 5
1271 1371 1
1271 1270 4
1272 1172 5
1272 1273 4
1272 1372 3
1272 1271 1
1273 1173 5
1273 1274 4
1273 1373 2
1273 1272 4
1274 1174 4
1274 1275 3
1274 1374 5
1274 1273 5
1275 1175 1
1275 1276 4
1275 1375 2
1275 1274 3
1276 1176 4
1276 1277 2
1276 1376 1
1276 1275 3
1277 1177 5
1277 1278 5
1277 1377 4
1277 1276 3
1278 1178 2
1278 1279 1
1278 1378 1
1278 1277 5
1279 1179 5
1279 1280 1
1279 1379 5
1279 1278 1
1280 1180 4
1280 1281 2
1280 1380 3
1280 1279 4
1281 1181 3
1281 1282 1
1281 1381 2
1281 1280 4
1282 1182 5
1282 1283 3
1282 1382 3
1282 1281 5
1283 1183 4
1283 1284 5
1283 1383 3
1283 1282 5
1284 1184 3
1284 1285 4
1284 1384 2
1284 1283 4
1285 1185 5
1285 1286 5
1285 1385 4
1285 1284 2
1286 1186 3
1286 1287 5
1286 1386 5
1286 1285 4
1287 1187 3
1287 1288 3
1287 1387 5
1287 1286 3
1288 1188 4
1288 1289 2
1288 1388 1
1288 1287 2
1289 1189 4
1289 1290 2
1289 1389 1
1289 1288 2
1290 1190 5
1290 1291 4
1290 1390 3
1290 1289 5
1291 1191 5
1291 1292 1
1291 1391 2
1291 1290 4
1292 1192 1
1292 1293 1
1292 1392 2
1292 1291 4
1293 1193 5
1293 1294 4
1293 1393 1
1293 1292 1
1294 1194 3
1294 1295 2
1294 1394 3
1294 1293 1
1295 1195 5
1295 1296 1
1295 1395 4
1295 1294 4
1296 1196 5
1296 1297 5
1296 1396 3
1296 1295 5
1297 1197 1
1297 1298 2
1297 1397 4
1297 1296 4
1298 1198 1
1298 1299 2
1298 1398 5
1298 1297 3
1299 1199 2
1299 1399 1
1299 1298 5
1300 1200 5
1300 1301 5
1300 1400 2
1301 1201 5
1301 1302 2
1301 1401 1
1301 1300 3
1302 1202 2
1302 1303 1
1302 1402 2
1302 1301 1
1303 1203 3
1303 1304 4
1303 1403 3
1303 1302 4
1304 1204 4
1304 1305 5
1304 1404 2
1304 1303 5
1305 1205 1
1305 1306 1
1305 1405 1
1305 1304 5
1306 1206 3
1306 1307 5
1306 1406 5
1306 1305 3
1307 1207 3
1307 1308 3
1307 1407 2
1307 1306 5
1308 1208 2
1308 1309 4
1308 1408 4
1308 1307 5
1309 1209 1
1309 1310 3
1309 1409 2
1309 1308 4
1310 1210 5
1310 1311 1
1310 1410 5
1310 1309 1
1311 1211 5
1311 1312 3
1311 1411 3
1311 1310 1
1312 1212 5
1312 1313 3
1312 1412 5
1312 1311 5
1313 1213 3
1313 1314 4
1313 1413 4
1313 1312 5
1314 1214 4
1314 1315 2
1314 1414 3
1314 1313 4
1315 1215 4
1315 1316 5
1315 1415 1
1315 1314 4
1316 1216 1
1316 1317 3
1316 1416 1
1316 1315 4
1317 1217 2
1317 1318 2
1317 1417 3
1317 1316 4
1318 1218 3
1318 1319 5
1318 1418 5
1318 1317 1
1319 1219 3
1319 1320 2
1319 1419 3
1319 1318 1
1320 1220 4
1320 1321 3
1320 1420 1
1320 1319 5
1321 1221 2
1321 1322 4
1321 1421 3
1321 1320 3
1322 1222 2
1322 1323 5
1322 1422 3
1322 1321 2
1323 1223 2
1323 1324 4
1323 1423 2
1323 1322 2
1324 1224 2
1324 1325 3
1324 1424 2
1324 1323 2
1325 1225 2
1325 1326 2
1325 1425 5
1325 1324 3
1326 1226 2
1326 1327 1
1326 1426 1
1326 1325 1
1327 1227 4
1327 1328 5
1327 1427 1
1327 1326 5
1328 1228 1
1328 1329 4
1328 1428 3
1328 1327 5
1329 1229 3
1329 1330 4
1329 1429 5
1329 1328 3
1330 1230 4
1330 1331 2
1330 1430 5
1330 1329 3
1331 1231 4
1331 1332 2
1331 1431 5
1331 1330 2
1332 1232 1
1332 1333 5
1332 1432 4
1332 1331 4
1333 1233 5
1333 1334 1
1333 1433 5
1333 1332 3
1334 1234 4
1334 1335 2
1334 1434 4
1334 1333 1
1335 1235 5
1335 1336 4
1335 1435 3
1335 1334 1
1336 1236 1
1336 1337 2
1336 1436 4
1336 1335 5
1337 1237 1
1337 1338 3
1337 1437 3
1337 1336 5
1338 1238 3
1338 1339 2
1338 1438 5
1338 1337 3
1339 1239 2
1339 1340 3
1339 1439 4
1339 1338 5
1340 1240 3
1340 1341 3
1340 1440 2
1340 1339 4
1341 1241 4
1341 1342 2
1341 1441 4
1341 1340 3
1342 1242 3
1342 1343 4
1342 1442 3
1342 1341 4
1343 1243 2
1343 1344 5
1343 1443 2
1343 1342 5
1344 1244 2
1344 1345 1
1344 1444 3
1344 1343 2
1345 1245 5
1345 1346 4
1345 1445 4
1345 1344 2
1346 1246 2
1346 1347 2
1346 1446 4
1346 1345 1
1347 1247 2
1347 1348 4
1347 1447 4
1347 1346 2
1348 1248 5
1348 1349 5
1348 1448 3
1348 1347 4
1349 1249 3
1349 1350 3
1349 1449 5
1349 1348 5
1350 1250 1
1350 1351 4
1350 1450 1
1350 1349 2
1351 1251 1
1351 1352 2
1351 1451 3
1351 1350 4
1352 1252 1
1352 1353 4
1352 1452 3
1352 1351 3
1353 1253 3
1353 1354 3
1353 1453 5
1353 1352 5
1354 1254 3
1354 1355 3
1354 1454 1
1354 1353 4
1355 1255 1
1355 1356 3
1355 1455 5
1355 1354 2
1356 1256 5
1356 1357 5
1356 1456 5
1356 1355 2
1357 1257 3
1357 1358 3
1357 1457 3
1357 1356 5
1358 1258 4
1358 1359 4
1358 1458 1
1358 1357 4
1359 1259 5
1359 1360 3
1359 1459 4
1359 1358 2
1360 1260 2
1360 1361 3
1360 1460 4
1360 1359 5
1361 1261 5
1361 1362 4
1361 1461 1
1361 1360 1
1362 1262 2
1362 1363 3
1362 1462 2
1362 1361 3
1363 1263 3
1363 1364 3
1363 1463 3
1363 1362 5
1364 1264 4
1364 1365 3
1364 1464 4
1364 1363 3
1365 1265 5
1365 1366 5
1365 1465 4
1365 1364 4
1366 1266 2
1366 1367 2
1366 1466 1
1366 1365 2
1367 1267 2
1367 1368 3
1367 1467 1
1367 1366 2
1368 1268 2
1368 1369 4
1368 1468 1
1368 1367 1
1369 1269 1
1369 1370 4
1369 1469 5
1369 1368 1
1370 1270 1
1370 1371 4
1370 1470 5
1370 1369 1
1371 1271 1
1371 1372 3
1371 1471 5
1371 1370 2
1372 1272 1
1372 1373 4
1372 1472 3
1372 1371 2
1373 1273 2
1373 1374 3
1373 1473 4
1373 1372 2
1374 1274 2
1374 1375 5
1374 1474 2
1374 1373 1
1375 1275 1
1375 1376 3
1375 1475 3
1375 1374 4
1376 1276 4
1376 1377 5
1376 1476 3
1376 1375 5
1377 1277 4
1377 1378 2
1377 1477 5
1377 1376 2
1378 1278 5
1378 1379 5
1378 1478 4
1378 1377 5
1379 1279 4
1379 1380 5
1379 1479 5
1379 1378 3
1380 1280 3
1380 1381 4
1380 1480 5
1380 1379 2
1381 1281 1
1381 1382 4
1381 1481 3
1381 1380 3
1382 1282 4
1382 1383 3
1382 1482 2
1382 1381 3
1383 1283 1
1383 1384 1
1383 1483 5
1383 1382 2
1384 1284 3
1384 1385 3
1384 1484 4
1384 1383 5
1385 1285 1
1385 1386 4
1385 1485 4
1385 1384 3
1386 1286 1
1386 1387 4
1386 1486 3
1386 1385 5
1387 1287 2
1387 1388 1
1387 1487 5
1387 1386 3
1388 1288 2
1388 1389 4
1388 1488 5
1388 1387 4
1389 1289 4
1389 1390 2
1389 1489 2
1389 1388 4
1390 1290 4
1390 1391 2
1390 1490 3
1390 1389 1
1391 1291 4
1391 1392 2
1391 1491 5
1391 1390 5
1392 1292 3
1392 1393 3
1392 1492 5
1392 1391 3
1393 1293 4
1393 1394 2
1393 1493 1
1393 1392 2
1394 1294 2
1394 1395 3
1394 1494 1
1394 1393 4
1395 1295 5
1395 1396 4
1395 1495 3
1395 1394 5
1396 1296 4
1396 1397 2
1396 1496 3
1396 1395 1
1397 1297 2
1397 1398 1
1397 1497 5
1397 1396 1
1398 1298 2
1398 1399 1
1398 1498 3
1398 1397 3
1399 1299 2
1399 1499 4
1399 1398 1
1400 1300 2
1400 1401 1
1400 1500 2
1401 1301 1
1401 1402 4
1401 1501 2
1401 1400 3
1402 1302 4
1402 1403 3
1402 1502 4
1402 1401 3
1403 1303 4
1403 1404 1
1403 1503 3
1403 1402 1
1404 1304 2
1404 1405 1
1404 1504 3
1404 1403 4
1405 1305 1
1405 1406 5
1405 1505 4
1405 1404 2
1406 1306 2
1406 1407 3
1406 1506 4
1406 1405 1
1407 1307 1
1407 1408 2
1407 1507 4
1407 1406 4
1408 1308 2
1408 1409 1
1408 1508 2
1408 1407 4
1409 1309 1
1409 1410 5
1409 1509 2
1409 1408 4
1410 1310 4
1410 1411 3
1410 1510 3
1410 1409 2
1411 1311 1
1411 1412 5
1411 1511 5
1411 1410 1
1412 1312 3
1412 1413 4
1412 1512 3
1412 1411 2
1413 1313 3
1413 1414 1
1413 1513 2
1413 1412 1
1414 1314 2
1414 1415 4
1414 1514 3
1414 1413 1
1415 1315 2
1415 1416 3
1415 1515 5
1415 1414 1
1416 1316 4
1416 1417 2
1416 1516 1
1416 1415 1
1417 1317 5
1417 1418 4
1417 1517 5
1417 1416 2
1418 1318 3
1418 1419 1
1418 1518 2
1418 1417 2
1419 1319 4
1419 1420 1
1419 1519 5
1419 1418 3
1420 1320 1
1420 1421 1
1420 1520 3
1420 1419 2
1421 1321 5
1421 1422 1
1421 1521 2
1421 1420 4
1422 1322 2
1422 1423 3
1422 1522 5
1422 1421 3
1423 1323 4
1423 1424 2
1423 1523 1
1423 1422 4
1424 1324 3
1424 1425 2
1424 1524 3
1424 1423 1
1425 1325 4
1425 1426 4
1425 1525 5
1425 1424 3
1426 1326 5
1426 1427 4
1426 1526 2
1426 1425 5
1427 1327 2
1427 1428 5
1427 1527 3
1427 1426 3
1428 1328 4
1428 1429 3
1428 1528 5
1428 1427 5
1429 1329 2
1429 1430 1
1429 1529 5
1429 1428 2
1430 1330 4
1430 1431 3
1430 1530 3
1430 1429 5
1431 1331 3
1431 1432 4
1431 1531 1
1431 1430 5
1432 1332 4
1432 1433 2
1432 1532 1
1432 1431 5
1433 1333 3
1433 1434 5
1433 1533 2
1433 1432 3
1434 1334 1
1434 1435 5
1434 1534 4
1434 1433 2
1435 1335 5
1435 1436 4
1435 1535 5
1435 1434 2
1436 1336 5
1436 1437 3
1436 1536 3
1436 1435 4
1437 1337 3
1437 1438 1
1437 1537 1
1437 1436 5
1438 1338 1
1438 1439 1
1438 1538 2
1438 1437 2
1439 1339 1
1439 1440 2
1439 1539 1
1439 1438 4
1440 1340 2
1440 1441 1
1440 1540 1
1440 1439 5
1441 1341 4
1441 1442 4
1441 1541 5
1441 1440 5
1442 1342 5
1442 1443 3
1442 1542 1
1442 1441 3
1443 1343 2
1443 1444 5
1443 1543 1
1443 1442 1
1444 1344 2
1444 1445 4
1444 1544 1
1444 1443 4
1445 1345 1
1445 1446 3
1445 1545 5
1445 1444 4
1446 1346 3
1446 1447 1
1446 1546 5
1446 1445 3
1447 1347 5
1447 1448 1
1447 1547 1
1447 1446 3
1448 1348 1
1448 1449 2
1448 1548 5
1448 1447 1
1449 1349 1
1449 1450 2
1449 1549 5
1449 1448 4
1450 1350 2
1450 1451 2
1450 1550 5
1450 1449 2
1451 1351 5
1451 1452 2
1451 1551 5
1451 1450 5
1452 1352 4
1452 1453 1
1452 1552 5
1452 1451 3
1453 1353 4
1453 1454 4
1453 1553 1
1453 1452 2
1454 1354 2
1454 1455 5
1454 1554 4
1454 1453 5
1455 1355 3
1455 1456 2
1455 1555 5
1455 1454 5
1456 1356 4
1456 1457 3
1456 1556 3
1456 1455 5
1457 1357 3
1457 1458 3
1457 1557 4
1457 1456 4
1458 1358 3
1458 1459 5
1458 1558 2
1458 1457 5
1459 1359 5
1459 1460 2
1459 1559 4
1459 1458 5
1460 1360 3
1460 1461 3
1460 1560 4
1460 1459 4
1461 1361 4
1461 1462 1
1461 1561 1
1461 1460 3
1462 1362 5
1462 1463 1
1462 1562 5
1462 1461 2
1463 1363 3
1463 1464 1
1463 1563 3
1463 1462 2
1464 1364 2
1464 1465 3
1464 1564 1
1464 1463 3
1465 1365 5
1465 1466 5
1465 1565 5
1465 1464 5
1466 1366 5
1466 1467 2
1466 1566 1
1466 1465 1
1467 1367 4
1467 1468 3
1467 1567 2
1467 1466 2
1468 1368 3
1468 1469 3
1468 1568 5
1468 1467 2
1469 1369 2
1469 1470 3
1469 1569 3
1469 1468 1
1470 1370 5
1470 1471 4
1470 1570 5
1470 1469 2
1471 1371 1
1471 1472 3
1471 1571 4
1471 1470 2
1472 1372 4
1472 1473 5
1472 1572 1
1472 1471 5
1473 1373 3
1473 1474 1
1473 1573 5
1473 1472 4
1474 1374 1
1474 1475 1
1474 1574 3
1474 1473 3
1475 1375 4
1475 1476 4
1475 1575 1
1475 1474 2
1476 1376 5
1476 1477 1
1476 1576 4
1476 1475 1
1477 1377 3
1477 1478 5
1477 1577 1
1477 1476 3
1478 1378 5
1478 1479 5
1478 1578 2
1478 1477 3
1479 1379 5
1479 1480 2
1479 1579 2
1479 1478 1
1480 1380 4
1480 1481 4
1480 1580 5
1480 1479 5
1481 1381 5
1481 1482 1
1481 1581 2
1481 1480 4
1482 1382 3
1482 1483 4
1482 1582 2
1482 1481 2
1483 1383 3
1483 1484 1
1483 1583 4
1483 1482 5
1484 1384 1
1484 1485 5
1484 1584 4
1484 1483 3
1485 1385 1
1485 1486 4
1485 1585 5
1485 1484 4
1486 1386 2
1486 1487 2
1486 1586 4
1486 1485 5
1487 1387 2
1487 1488 4
1487 1587 4
1487 1486 5
1488 1388 2
1488 1489 5
1488 1588 5
1488 1487 5
1489 1389 2
1489 1490 2
1489 1589 1
1489 1488 3
1490 1390 4
1490 1491 3
1490 1590 5
1490 1489 1
1491 1391 1
1491 1492 4
1491 1591 4
1491 1490 3
1492 1392 3
1492 1493 2
1492 1592 3
1492 1491 3
1493 1393 5
1493 1494 1
1493 1593 3
1493 1492 2
1494 1394 3
1494 1495 5
1494 1594 4
1494 1493 5
1495 1395 2
1495 1496 4
1495 1595 1
1495 1494 2
1496 1396 2
1496 1497 3
1496 1596 2
1496 1495 1
1497 1397 1
1497 1498 1
1497 1597 2
1497 1496 5
1498 1398 2
1498 1499 3
1498 1598 1
1498 1497 3
1499 1399 1
1499 1599 3
1499 1498 4
1500 1400 4
1500 1501 1
1500 1600 3
1501 1401 2
1501 1502 5
1501 1601 2
1501 1500 2
1502 1402 5
1502 1503 5
1502 1602 3
1502 1501 5
1503 1403 4
1503 1504 5
1503 1603 2
1503 1502 1
1504 1404 4
1504 1505 5
1504 1604 5
1504 1503 1
1505 1405 3
1505 1506 2
1505 1605 1
1505 1504 3
1506 1406 2
1506 1507 5
1506 1606 3
1506 1505 1
1507 1407 4
1507 1508 1
1507 1607 1
1507 1506 4
1508 1408 3
1508 1509 3
1508 1608 1
1508 1507 1
1509 1409 3
1509 1510 4
1509 1609 2
1509 1508 4
1510 1410 5
1510 1511 1
1510 1610 3
1510 1509 4
1511 1411 5
1511 1512 5
1511 1611 1
1511 1510 2
1512 1412 2
1512 1513 5
1512 1612 4
1512 1511 5
1513 1413 1
1513 1514 1
1513 1613 2
1513 1512 5
1514 1414 3
1514 1515 3
1514 1614 4
1514 1513 4
1515 1415 2
1515 1516 1
1515 1615 3
1515 1514 3
1516 1416 3
1516 1517 3
1516 1616 2
1516 1515 5
1517 1417 3
1517 1518 1
1517 1617 3
1517 1516 4
1518 1418 1
1518 1519 5
1518 1618 3
1518 1517 2
1519 1419 2
1519 1520 3
1519 1619 4
1519 1518 2
1520 1420 1
1520 1521 4
1520 1620 5
1520 1519 5
1521 1421 2
1521 1522 4
1521 1621 2
1521 1520 5
1522 1422 2
1522 1523 4
1522 1622 3
1522 1521 5
1523 1423 3
1523 1524 4
1523 1623 5
1523 1522 2
1524 1424 2
1524 1525 2
1524 1624 5
1524 1523 5
1525 1425 2
1525 1526 2
1525 1625 3
1525 1524 5
1526 1426 2
1526 1527 4
1526 1626 2
1526 1525 5
1527 1427 2
1527 1528 3
1527 1627 1
1527 1526 5
1528 1428 5
1528 1529 1
1528 1628 2
1528 1527 3
1529 1429 2
1529 1530 1
1529 1629 3
1529 1528 4
1530 1430 4
1530 1531 3
1530 1630 4
1530 1529 3
1531 1431 2
1531 1532 2
1531 1631 1
1531 1530 2
1532 1432 2
1532 1533 1
1532 1632 5
1532 1531 5
1533 1433 3
1533 1534 5
1533 1633 5
1533 1532 5
1534 1434 2
1534 1535 5
1534 1634 2
1534 1533 2
1535 1435 1
1535 1536 3
1535 1635 1
1535 1534 4
1536 1436 2
1536 1537 5
1536 1636 5
1536 1535 4
1537 1437 3
1537 1538 2
1537 1637 4
1537 1536 4
1538 1438 4
1538 1539 2
1538 1638 2
1538 1537 2
1539 1439 2
1539 1540 1
1539 1639 4
1539 1538 1
1540 1440 3
1540 1541 4
1540 1640 2
1540 1539 2
1541 1441 2
1541 1542 1
1541 1641 2
1541 1540 4
1542 1442 5
1542 1543 4
1542 1642 3
1542 1541 4
1543 1443 2
1543 1544 4
1543 1643 4
1543 1542 1
1544 1444 5
1544 1545 4
1544 1644 3
1544 1543 4
1545 1445 5
1545 1546 5
1545 1645 5
1545 1544 5
1546 1446 5
1546 1547 1
1546 1646 5
1546 1545 1
1547 1447 4
1547 1548 4
1547 1647 1
1547 1546 2
1548 1448 5
1548 1549 5
1548 1648 4
1548 1547 1
1549 1449 5
1549 1550 4
1549 1649 5
1549 1548 1
1550 1450 2
1550 1551 3
1550 1650 4
1550 1549 4
1551 1451 3
1551 1552 3
1551 1651 4
1551 1550 2
1552 1452 4
1552 1553 3
1552 1652 5
1552 1551 1
1553 1453 5
1553 1554 2
1553 1653 4
1553 1552 4
1554 1454 1
1554 1555 5
1554 1654 1
1554 1553 2
1555 1455 5
1555 1556 5
1555 1655 2
1555 1554 4
1556 1456 4
1556 1557 3
1556 1656 4
1556 1555 1
1557 1457 2
1557 1558 4
1557 1657 5
1557 1556 2
1558 1458 4
1558 1559 1
1558 1658 3
1558 1557 3
1559 1459 2
1559 1560 1
1559 1659 1
1559 1558 1
1560 1460 4
1560 1561 3
1560 1660 1
1560 1559 5
1561 1461 4
1561 1562 5
1561 1661 5
1561 1560 2
1562 1462 4
1562 1563 5
1562 1662 4
1562 1561 1
1563 1463 2
1563 1564 3
1563 1663 5
1563 1562 2
1564 1464 2
1564 1565 2
1564 1664 2
1564 1563 1
1565 1465 4
1565 1566 3
1565 1665 3
1565 1564 4
1566 1466 3
1566 1567 2
1566 1666 1
1566 1565 2
1567 1467 2
1567 1568 1
1567 1667 5
1567 1566 3
1568 1468 1
1568 1569 4
1568 1668 4
1568 1567 4
1569 1469 5
1569 1570 1
1569 1669 5
1569 1568 4
1570 1470 2
1570 1571 2
1570 1670 5
1570 1569 4
1571 1471 4
1571 1572 4
1571 1671 4
1571 1570 1
1572 1472 5
1572 1573 5
1572 1672 1
1572 1571 2
1573 1473 5
1573 1574 3
1573 1673 5
1573 1572 5
1574 1474 2
1574 1575 1
1574 1674 2
1574 1573 2
1575 1475 1
1575 1576 3
1575 1675 1
1575 1574 2
1576 1476 1
1576 1577 5
1576 1676 5
1576 1575 3
1577 1477 3
1577 1578 1
1577 1677 1
1577 1576 1
1578 1478 4
1578 1579 2
1578 1678 2
1578 1577 3
1579 1479 5
1579 1580 5
1579 1679 5
1579 1578 5
1580 1480 2
1580 1581 4
1580 1680 5
1580 1579 3
1581 1481 1
1581 1582 1
1581 1681 3
1581 1580 3
1582 1482 3
1582 1583 4
1582 1682 1
1582 1581 4
1583 1483 5
1583 1584 1
1583 1683 3
1583 1582 4
1584 1484 2
1584 1585 1
1584 1684 3
1584 1583 3
1585 1485 5
1585 1586 4
1585 1685 5
1585 1584 2
1586 1486 2
1586 1587 5
1586 1686 1
1586 1585 1
1587 1487 5
1587 1588 5
1587 1687 1
1587 1586 4
1588 1488 5
1588 1589 3
1588 1688 4
1588 1587 5
1589 1489 3
1589 1590 3
1589 1689 5
1589 1588 5
1590 1490 5
1590 1591 3
1590 1690 2
1590 1589 5
1591 1491 5
1591 1592 4
1591 1691 5
1591 1590 4
1592 1492 4
1592 1593 2
1592 1692 5
1592 1591 2
1593 1493 3
1593 1594 2
1593 1693 1
1593 1592 1
1594 1494 1
1594 1595 4
1594 1694 1
1594 1593 2
1595 1495 5
1595 1596 4
1595 1695 4
1595 1594 1
1596 1496 3
1596 1597 3
1596 1696 5
1596 1595 2
1597 1497 1
1597 1598 2
1597 1697 3
1597 1596 3
1598 1498 1
1598 1599 3
1598 1698 3
1598 1597 5
1599 1499 5
1599 1699 3
1599 1598 1
1600 1500 1
1600 1601 3
1600 1700 3
1601 1501 4
1601 1602 5
1601 1701 5
1601 1600 1
1602 1502 2
1602 1603 2
1602 1702 3
1602 1601 3
1603 1503 4
1603 1604 4
1603 1703 1
1603 1602 2
1604 1504 4
1604 1605 2
1604 1704 4
1604 1603 5
1605 1505 3
1605 1606 4
1605 1705 4
1605 1604 1
1606 1506 5
1606 1607 3
1606 1706 5
1606 1605 3
1607 1507 5
1607 1608 5
1607 1707 1
1607 1606 2
1608 1508 5
1608 1609 3
1608 1708 3
1608 1607 1
1609 1509 2
1609 1610 3
1609 1709 1
1609 1608 3
1610 1510 4
1610 1611 5
1610 1710 2
1610 1609 5
1611 1511 5
1611 1612 4
1611 1711 2
1611 1610 5
1612 1512 1
1612 1613 3
1612 1712 3
1612 1611 1
1613 1513 3
1613 1614 4
1613 1713 1
1613 1612 4
1614 1514 2
1614 1615 3
1614 1714 4
1614 1613 3
1615 1515 2
1615 1616 5
1615 1715 3
1615 1614 2
1616 1516 1
1616 1617 3
1616 1716 1
1616 1615 2
1617 1517 1
1617 1618 4
1617 1717 5
1617 1616 1
1618 1518 4
1618 1619 5
1618 1718 2
1618 1617 2
1619 1519 3
1619 1620 4
1619 1719 5
1619 1618 3
1620 1520 3
1620 1621 2
1620 1720 1
1620 1619 5
1621 1521 2
1621 1622 2
1621 1721 1
1621 1620 4
1622 1522 4
1622 1623 5
1622 1722 1
1622 1621 1
1623 1523 3
1623 1624 1
1623 1723 5
1623 1622 1
1624 1524 3
1624 1625 4
1624 1724 1
1624 1623 1
1625 1525 5
1625 1626 3
1625 1725 1
1625 1624 5
1626 1526 3
1626 1627 2
1626 1726 3
1626 1625 2
1627 1527 2
1627 1628 3
1627 1727 3
1627 1626 5
1628 1528 3
1628 1629 4
1628 1728 1
1628 1627 3
1629 1529 2
1629 1630 2
1629 1729 3
1629 1628 1
1630 1530 1
1630 1631 5
1630 1730 5
1630 1629 5
1631 1531 1
1631 1632 2
1631 1731 5
1631 1630 3
1632 1532 5
1632 1633 3
1632 1732 3
1632 1631 2
1633 1533 3
1633 1634 5
1633 1733 2
1633 1632 2
1634 1534 1
1634 1635 3
1634 1734 5
1634 1633 3
1635 1535 5
1635 1636 4
1635 1735 1
1635 1634 2
1636 1536 1
1636 1637 4
1636 1736 1
1636 1635 1
1637 1537 4
1637 1638 1
1637 1737 1
1637 1636 4
1638 1538 4
1638 1639 2
1638 1738 5
1638 1637 5
1639 1539 4
1639 1640 5
1639 1739 3
1639 1638 3
1640 1540 3
1640 1641 2
1640 1740 5
1640 1639 1
1641 1541 4
1641 1642 5
1641 1741 2
1641 1640 1
1642 1542 4
1642 1643 1
1642 1742 4
1642 1641 3
1643 1543 4
1643 1644 4
1643 1743 2
1643 1642 2
1644 1544 2
1644 1645 5
1644 1744 3
1644 1643 3
1645 1545 4
1645 1646 2
1645 1745 3
1645 1644 3
1646 1546 4
1646 1647 4
1646 1746 1
1646 1645 1
1647 1547 4
1647 1648 1
1647 1747 3
1647 1646 4
1648 1548 4
1648 1649 2
1648 1748 3
1648 1647 3
1649 1549 5
1649 1650 5
1649 1749 2
1649 1648 5
1650 1550 1
1650 1651 4
1650 1750 1
1650 1649 3
1651 1551 5
1651 1652 1
1651 1751 3
1651 1650 5
1652 1552 4
1652 1653 4
1652 1752 5
1652 1651 4
1653 1553 2
1653 1654 5
1653 1753 2
1653 1652 5
1654 1554 2
1654 1655 4
1654 1754 4
1654 1653 1
1655 1555 3
1655 1656 2
1655 1755 5
1655 1654 4
1656 1556 4
1656 1657 5
1656 1756 3
1656 1655 5
1657 1557 2
1657 1658 2
1657 1757 1
1657 1656 5
1658 1558 4
1658 1659 1
1658 1758 5
1658 1657 5
1659 1559 4
1659 1660 3
1659 1759 5
1659 1658 1
1660 1560 4
1660 1661 2
1660 1760 3
1660 1659 4
1661 1561 1
1661 1662 5
1661 1761 1
1661 1660 5
1662 1562 4
1662 1663 3
1662 1762 4
1662 1661 1
1663 1563 1
1663 1664 2
1663 1763 2
1663 1662 5
1664 1564 1
1664 1665 2
1664 1764 2
1664 1663 4
1665 1565 5
1665 1666 3
1665 1765 4
1665 1664 5
1666 1566 5
1666 1667 4
1666 1766 2
1666 1665 2
1667 1567 3
1667 1668 3
1667 1767 5
1667 1666 3
1668 1568 4
1668 1669 3
1668 1768 1
1668 1667 5
1669 1569 1
1669 1670 5
1669 1769 5
1669 1668 4
1670 1570 2
1670 1671 3
1670 1770 1
1670 1669 3
1671 1571 5
1671 1672 1
1671 1771 1
1671 1670 5
1672 1572 3
1672 1673 1
1672 1772 3
1672 1671 1
1673 1573 2
1673 1674 4
1673 1773 5
1673 1672 4
1674 1574 3
1674 1675 4
1674 1774 4
1674 1673 4
1675 1575 4
1675 1676 5
1675 1775 2
1675 1674 2
1676 1576 4
1676 1677 2
1676 1776 2
1676 1675 5
1677 1577 4
1677 1678 3
1677 1777 4
1677 1676 2
1678 1578 3
1678 1679 2
1678 1778 2
1678 1677 1
1679 1579 1
1679 1680 1
1679 1779 2
1679 1678 4
1680 1580 4
1680 1681 2
1680 1780 1
1680 1679 2
1681 1581 4
1681 1682 4
1681 1781 5
1681 1680 4
1682 1582 5
1682 1683 2
1682 1782 4
1682 1681 5
1683 1583 4
1683 1684 5
1683 1783 4
1683 1682 4
1684 1584 3
1684 1685 2
1684 1784 2
1684 1683 4
1685 1585 5
1685 1686 1
1685 1785 5
1685 1684 4
1686 1586 2
1686 1687 5
1686 1786 3
1686 1685 4
1687 1587 5
1687 1688 5
1687 1787 3
1687 1686 1
1688 1588 1
1688 1689 5
1688 1788 4
1688 1687 3
1689 1589 1
1689 1690 5
1689 1789 4
1689 1688 1
1690 1590 2
1690 1691 5
1690 1790 3
1690 1689 4
1691 1591 5
1691 1692 1
1691 1791 5
1691 1690 5
1692 1592 1
1692 1693 2
1692 1792 4
1692 1691 1
1693 1593 5
1693 1694 5
1693 1793 3
1693 1692 5
1694 1594 1
1694 1695 3
1694 1794 5
1694 1693 1
1695 1595 4
1695 1696 4
1695 1795 5
1695 1694 4
1696 1596 5
1696 1697 3
1696 1796 4
1696 1695 3
1697 1597 3
1697 1698 3
1697 1797 2
1697 1696 1
1698 1598 5
1698 1699 3
1698 1798 5
1698 1697 3
1699 1599 1
1699 1799 4
1699 1698 5
1700 1600 2
1700 1701 5
1700 1800 1
1701 1601 3
1701 1702 5
1701 1801 1
1701 1700 3
1702 1602 4
1702 1703 1
1702 1802 2
1702 1701 5
1703 1603 1
1703 1704 3
1703 1803 3
1703 1702 2
1704 1604 5
1704 1705 3
1704 1804 3
1704 1703 3
1705 1605 1
1705 1706 1
1705 1805 5
1705 1704 2
1706 1606 5
1706 1707 2
1706 1806 4
1706 1705 3
1707 1607 2
1707 1708 3
1707 1807 2
1707 1706 4
1708 1608 2
1708 1709 5
1708 1808 1
1708 1707 3
1709 1609 1
1709 1710 2
1709 1809 5
1709 1708 2
1710 1610 4
1710 1711 4
1710 1810 4
1710 1709 2
1711 1611 4
1711 1712 2
1711 1811 2
1711 1710 5
1712 1612 3
1712 1713 1
1712 1812 3
1712 1711 1
1713 1613 1
1713 1714 2
1713 1813 4
1713 1712 4
1714 1614 4
1714 1715 3
1714 1814 4
1714 1713 5
1715 1615 2
1715 1716 4
1715 1815 4
1715 1714 4
1716 1616 3
1716 1717 2
1716 1816 5
1716 1715 4
1717 1617 1
1717 1718 3
1717 1817 4
1717 1716 4
1718 1618 3
1718 1719 5
1718 1818 1
1718 1717 1
1719 1619 5
1719 1720 3
1719 1819 4
1719 1718 5
1720 1620 3
1720 1721 3
1720 1820 3
1720 1719 3
1721 1621 1
1721 1722 3
1721 1821 5
1721 1720 4
1722 1622 4
1722 1723 2
1722 1822 5
1722 1721 2
1723 1623 5
1723 1724 3
1723 1823 2
1723 1722 3
1724 1624 5
1724 1725 1
1724 1824 1
1724 1723 1
1725 1625 1
1725 1726 4
1725 1825 1
1725 1724 5
1726 1626 1
1726 1727 4
1726 1826 3
1726 1725 2
1727 1627 3
1727 1728 3
1727 1827 2
1727 1726 1
1728 1628 1
1728 1729 5
1728 1828 1
1728 1727 1
1729 1629 5
1729 1730 2
1729 1829 5
1729 1728 1
1730 1630 1
1730 1731 1
1730 1830 5
1730 1729 2
1731 1631 4
1731 1732 5
1731 1831 2
1731 1730 1
1732 1632 2
1732 1733 3
1732 1832 3
1732 1731 4
1733 1633 1
1733 1734 4
1733 1833 3
1733 1732 4
1734 1634 3
1734 1735 3
1734 1834 2
1734 1733 1
1735 1635 3
1735 1736 1
1735 1835 4
1735 1734 4
1736 1636 3
1736 1737 1
1736 1836 3
1736 1735 3
1737 1637 2
1737 1738 4
1737 1837 1
1737 1736 4
1738 1638 2
1738 1739 5
1738 1838 4
1738 1737 2
1739 1639 4
1739 1740 1
1739 1839 2
1739 1738 5
1740 1640 4
1740 1741 2
1740 1840 5
1740 1739 1
1741 1641 4
1741 1742 3
1741 1841 1
1741 1740 1
1742 1642 1
1742 1743 1
1742 1842 5
1742 1741 3
1743 1643 4
1743 1744 1
1743 1843 4
1743 1742 2
1744 1644 1
1744 1745 1
1744 1844 4
1744 1743 3
1745 1645 2
1745 1746 3
1745 1845 4
1745 1744 5
1746 1646 1
1746 1747 5
1746 1846 4
1746 1745 4
1747 1647 4
1747 1748 4
1747 1847 1
1747 1746 5
1748 1648 2
1748 1749 1
1748 1848 4
1748 1747 4
1749 1649 1
1749 1750 5
1749 1849 5
1749 1748 3
1750 1650 3
1750 1751 3
1750 1850 4
1750 1749 1
1751 1651 1
1751 1752 3
1751 1851 5
1751 1750 3
1752 1652 1
1752 1753 4
1752 1852 3
1752 1751 2
1753 1653 2
1753 1754 5
1753 1853 1
1753 1752 4
1754 1654 2
1754 1755 3
1754 1854 4
1754 1753 1
1755 1655 3
1755 1756 4
1755 1855 1
1755 1754 4
1756 1656 2
1756 1757 2
1756 1856 1
1756 1755 2
1757 1657 1
1757 1758 5
1757 1857 2
1757 1756 4
1758 1658 4
1758 1759 1
1758 1858 5
1758 1757 3
1759 1659 4
1759 1760 5
1759 1859 4
1759 1758 1
1760 1660 1
1760 1761 3
1760 1860 1
1760 1759 3
1761 1661 1
1761 1762 4
1761 1861 1
1761 1760 2
1762 1662 5
1762 1763 4
1762 1862 5
1762 1761 2
1763 1663 5
1763 1764 2
1763 1863 1
1763 1762 1
1764 1664 2
1764 1765 4
1764 1864 1
1764 1763 4
1765 1665 5
1765 1766 1
1765 1865 2
1765 1764 2
1766 1666 1
1766 1767 2
1766 1866 1
1766 1765 3
1767 1667 1
1767 1768 4
1767 1867 5
1767 1766 2
1768 1668 5
1768 1769 1
1768 1868 1
1768 1767 1
1769 1669 4
1769 1770 5
1769 1869 5
1769 1768 2
1770 1670 1
1770 1771 2
1770 1870 4
1770 1769 3
1771 1671 4
1771 1772 3
1771 1871 1
1771 1770 5
1772 1672 5
1772 1773 2
1772 1872 3
1772 1771 2
1773 1673 1
1773 1774 5
1773 1873 2
1773 1772 3
1774 1674 1
1774 1775 1
1774 1874 3
1774 1773 2
1775 1675 4
1775 1776 2
1775 1875 3
1775 1774 5
1776 1676 2
1776 1777 4
1776 1876 2
1776 1775 5
1777 1677 1
1777 1778 2
1777 1877 1
1777 1776 5
1778 1678 4
1778 1779 2
1778 1878 1
1778 1777 4
1779 1679 1
1779 1780 1
1779 1879 1
1779 1778 2
1780 1680 1
1780 1781 5
1780 1880 3
1780 1779 4
1781 1681 4
1781 1782 2
1781 1881 2
1781 1780 2
1782 1682 3
1782 1783 5
1782 1882 4
1782 1781 4
1783 1683 2
1783 1784 2
1783 1883 5
1783 1782 1
1784 1684 5
1784 1785 2
1784 1884 4
1784 1783 5
1785 1685 1
1785 1786 3
1785 1885 3
1785 1784 4
1786 1686 1
1786 1787 5
1786 1886 2
1786 1785 2
1787 1687 1
1787 1788 5
1787 1887 1
1787 1786 5
1788 1688 3
1788 1789 5
1788 1888 5
1788 1787 2
1789 1689 4
1789 1790 2
1789 1889 3
1789 1788 1
1790 1690 2
1790 1791 1
1790 1890 2
1790 1789 4
1791 1691 4
1791 1792 2
1791 1891 2
1791 1790 1
1792 1692 1
1792 1793 3
1792 1892 3
1792 1791 2
1793 1693 4
1793 1794 3
1793 1893 3
1793 1792 5
1794 1694 4
1794 1795 1
1794 1894 1
1794 1793 1
1795 1695 5
1795 1796 2
1795 1895 2
1795 1794 1
1796 1696 4
1796 1797 5
1796 1896 1
1796 1795 1
1797 1697 2
1797 1798 4
1797 1897 5
1797 1796 5
1798 1698 3
1798 1799 4
1798 1898 2
1798 1797 3
1799 1699 2
1799 1899 1
1799 1798 3
1800 1700 2
1800 1801 1
1800 1900 2
1801 1701 4
1801 1802 2
1801 1901 4
1801 1800 2
1802 1702 1
1802 1803 4
1802 1902 5
1802 1801 4
1803 1703 1
1803 1804 4
1803 1903 2
1803 1802 2
1804 1704 5
1804 1805 4
1804 1904 2
1804 1803 4
1805 1705 3
1805 1806 2
1805 1905 4
1805 1804 2
1806 1706 3
1806 1807 3
1806 1906 2
1806 1805 3
1807 1707 2
1807 1808 1
1807 1907 5
1807 1806 1
1808 1708 3
1808 1809 2
1808 1908 1
1808 1807 4
1809 1709 4
1809 1810 4
1809 1909 2
1809 1808 3
1810 1710 2
1810 1811 3
1810 1910 5
1810 1809 2
1811 1711 5
1811 1812 2
1811 1911 5
1811 1810 5
1812 1712 2
1812 1813 1
1812 1912 4
1812 1811 5
1813 1713 4
1813 1814 2
1813 1913 5
1813 1812 4
1814 1714 4
1814 1815 3
1814 1914 1
1814 1813 4
1815 1715 2
1815 1816 2
1815 1915 3
1815 1814 4
1816 1716 5
1816 1817 2
1816 1916 5
1816 1815 2
1817 1717 5
1817 1818 1
1817 1917 4
1817 1816 1
1818 1718 1
1818 1819 4
1818 1918 5
1818 1817 1
1819 1719 4
1819 1820 5
1819 1919 4
1819 1818 4
1820 1720 1
1820 1821 4
1820 1920 4
1820 1819 2
1821 1721 1
1821 1822 5
1821 1921 1
1821 1820 4
1822 1722 2
1822 1823 2
1822 1922 3
1822 1821 3
1823 1723 2
1823 1824 1
1823 1923 1
1823 1822 4
1824 1724 3
1824 1825 2
1824 1924 4
1824 1823 5
1825 1725 5
1825 1826 1
1825 1925 4
1825 1824 4
1826 1726 2
1826 1827 4
1826 1926 2
1826 1825 3
1827 1727 4
1827 1828 1
1827 1927 1
1827 1826 4
1828 1728 3
1828 1829 5
1828 1928 1
1828 1827 3
1829 1729 4
1829 1830 3
1829 1929 5
1829 1828 5
1830 1730 5
1830 1831 2
1830 1930 1
1830 1829 5
1831 1731 3
1831 1832 1
1831 1931 5
1831 1830 3
1832 1732 1
1832 1833 1
1832 1932 4
1832 1831 3
1833 1733 4
1833 1834 5
1833 1933 1
1833 1832 3
1834 1734 3
1834 1835 2
1834 1934 5
1834 1833 1
1835 1735 5
1835 1836 2
1835 1935 2
1835 1834 3
1836 1736 2
1836 1837 5
1836 1936 1
1836 1835 4
1837 1737 5
1837 1838 2
1837 1937 2
1837 1836 3
1838 1738 3
1838 1839 3
1838 1938 5
1838 1837 4
1839 1739 3
1839 1840 1
1839 1939 1
1839 1838 3
1840 1740 3
1840 1841 4
1840 1940 4
1840 1839 5
1841 1741 5
1841 1842 1
1841 1941 4
1841 1840 5
1842 1742 5
1842 1843 3
1842 1942 4
1842 1841 5
1843 1743 3
1843 1844 1
1843 1943 2
1843 1842 4
1844 1744 1
1844 1845 1
1844 1944 4
1844 1843 2
1845 1745 3
1845 1846 1
1845 1945 1
1845 1844 2
1846 1746 3
1846 1847 1
1846 1946 2
1846 1845 4
1847 1747 2
1847 1848 2
1847 1947 5
1847 1846 1
1848 1748 3
1848 1849 4
1848 1948 5
1848 1847 2
1849 1749 4
1849 1850 3
1849 1949 4
1849 1848 4
1850 1750 1
1850 1851 3
1850 1950 2
1850 1849 1
1851 1751 1
1851 1852 2
1851 1951 5
1851 1850 3
1852 1752 4
1852 1853 5
1852 1952 3
1852 1851 3
1853 1753 4
1853 1854 5
1853 1953 5
1853 1852 5
1854 1754 4
1854 1855 4
1854 1954 3
1854 1853 5
1855 1755 2
1855 1856 3
1855 1955 2
1855 1854 3
1856 1756 2
1856 1857 4
1856 1956 3
1856 1855 3
1857 1757 1
1857 1858 2
1857 1957 3
1857 1856 3
1858 1758 4
1858 1859 2
1858 1958 5
1858 1857 2
1859 1759 5
1859 1860 3
1859 1959 2
1859 1858 2
1860 1760 2
1860 1861 2
1860 1960 2
1860 1859 1
1861 1761 1
1861 1862 3
1861 1961 5
1861 1860 2
1862 1762 4
1862 1863 3
1862 1962 3
1862 1861 2
1863 1763 2
1863 1864 5
1863 1963 1
1863 1862 3
1864 1764 3
1864 1865 2
1864 1964 3
1864 1863 4
1865 1765 5
1865 1866 2
1865 1965 5
1865 1864 3
1866 1766 1
1866 1867 1
1866 1966 4
1866 1865 4
1867 1767 2
1867 1868 4
1867 1967 3
1867 1866 2
1868 1768 1
1868 1869 5
1868 1968 5
1868 1867 3
1869 1769 3
1869 1870 4
1869 1969 3
1869 1868 5
1870 1770 2
1870 1871 5
1870 1970 4
1870 1869 3
1871 1771 1
1871 1872 4
1871 1971 1
1871 1870 2
1872 1772 5
1872 1873 1
1872 1972 3
1872 1871 1
1873 1773 4
1873 1874 5
1873 1973 2
1873 1872 4
1874 1774 3
1874 1875 1
1874 1974 3
1874 1873 1
1875 1775 5
1875 1876 2
1875 1975 5
1875 1874 5
1876 1776 2
1876 1877 3
1876 1976 2
1876 1875 1
1877 1777 1
1877 1878 5
1877 1977 4
1877 1876 1
1878 1778 5
1878 1879 4
1878 1978 2
1878 1877 4
1879 1779 3
1879 1880 5
1879 1979 5
1879 1878 5
1880 1780 1
1880 1881 3
1880 1980 4
1880 1879 2
1881 1781 4
1881 1882 3
1881 1981 4
1881 1880 3
1882 1782 1
1882 1883 3
1882 1982 3
1882 1881 3
1883 1783 3
1883 1884 4
1883 1983 5
1883 1882 1
1884 1784 2
1884 1885 4
1884 1984 4
1884 1883 4
1885 1785 3
1885 1886 2
1885 1985 4
1885 1884 4
1886 1786 2
1886 1887 5
1886 1986 5
1886 1885 1
1887 1787 2
1887 1888 2
1887 1987 3
1887 1886 4
1888 1788 5
1888 1889 3
1888 1988 1
1888 1887 5
1889 1789 4
1889 1890 1
1889 1989 1
1889 1888 4
1890 1790 3
1890 1891 4
1890 1990 2
1890 1889 5
1891 1791 4
1891 1892 5
1891 1991 2
1891 1890 2
1892 1792 2
1892 1893 4
1892 1992 3
1892 1891 5
1893 1793 4
1893 1894 1
1893 1993 3
1893 1892 5
1894 1794 3
1894 1895 4
1894 1994 5
1894 1893 4
1895 1795 2
1895 1896 1
1895 1995 1
1895 1894 2
1896 1796 3
1896 1897 3
1896 1996 4
1896 1895 1
1897 1797 3
1897 1898 4
1897 1997 2
1897 1896 4
1898 1798 2
1898 1899 1
1898 1998 1
1898 1897 3
1899 1799 4
1899 1999 1
1899 1898 5
1900 1800 3
1900 1901 5
1900 2000 4
1901 1801 5
1901 1902 4
1901 2001 3
1901 1900 4
1902 1802 1
1902 1903 3
1902 2002 5
1902 1901 5
1903 1803 1
1903 1904 3
1903 2003 2
1903 1902 5
1904 1804 1
1904 1905 2
1904 2004 3
1904 1903 4
1905 1805 2
1905 1906 3
1905 2005 2
1905 1904 1
1906 1806 3
1906 1907 3
1906 2006 4
1906 1905 3
1907 1807 1
1907 1908 3
1907 2007 3
1907 1906 5
1908 1808 1
1908 1909 5
1908 2008 2
1908 1907 2
1909 1809 1
1909 1910 5
1909 2009 2
1909 1908 5
1910 1810 3
1910 1911 3
1910 2010 3
1910 1909 3
1911 1811 3
1911 1912 1
1911 2011 5
1911 1910 5
1912 1812 3
1912 1913 2
1912 2012 1
1912 1911 2
1913 1813 5
1913 1914 3
1913 2013 3
1913 1912 4
1914 1814 4
1914 1915 3
1914 2014 2
1914 1913 1
1915 1815 2
1915 1916 2
1915 2015 5
1915 1914 2
1916 1816 2
1916 1917 5
1916 2016 5
1916 1915 5
1917 1817 5
1917 1918 5
1917 2017 1
1917 1916 4
1918 1818 4
1918 1919 1
1918 2018 1
1918 1917 2
1919 1819 1
1919 1920 4
1919 2019 3
1919 1918 3
1920 1820 3
1920 1921 2
1920 2020 4
1920 1919 5
1921 1821 5
1921 1922 3
1921 2021 2
1921 1920 3
1922 1822 1
1922 1923 1
1922 2022 2
1922 1921 2
1923 1823 2
1923 1924 2
1923 2023 3
1923 1922 2
1924 1824 2
1924 1925 2
1924 2024 1
1924 1923 4
1925 1825 1
1925 1926 1
1925 2025 1
1925 1924 4
1926 1826 4
1926 1927 1
1926 2026 2
1926 1925 1
1927 1827 1
1927 1928 5
1927 2027 5
1927 1926 1
1928 1828 4
1928 1929 1
1928 2028 3
1928 1927 1
1929 1829 1
1929 1930 3
1929 2029 1
1929 1928 1
1930 1830 1
1930 1931 5
1930 2030 2
1930 1929 5
1931 1831 2
1931 1932 2
1931 2031 3
1931 1930 1
1932 1832 1
1932 1933 2
1932 2032 3
1932 1931 5
1933 1833 3
1933 1934 3
1933 2033 2
1933 1932 5
1934 1834 5
1934 1935 2
1934 2034 5
1934 1933 5
1935 1835 1
1935 1936 1
1935 2035 5
1935 1934 1
1936 1836 5
1936 1937 2
1936 2036 2
1936 1935 3
1937 1837 2
1937 1938 5
1937 2037 1
1937 1936 1
1938 1838 2
1938 1939 5
1938 2038 4
1938 1937 3
1939 1839 5
1939 1940 2
1939 2039 4
1939 1938 1
1940 1840 2
1940 1941 3
1940 2040 4
1940 1939 4
1941 1841 2
1941 1942 5
1941 2041 2
1941 1940 4
1942 1842 1
1942 1943 3
1942 2042 1
1942 1941 4
1943 1843 1
1943 1944 5
1943 2043 2
1943 1942 4
1944 1844 3
1944 1945 3
1944 2044 5
1944 1943 1
1945 1845 1
1945 1946 3
1945 2045 4
1945 1944 1
1946 1846 4
1946 1947 3
1946 2046 4
1946 1945 5
1947 1847 3
1947 1948 4
1947 2047 2
1947 1946 5
1948 1848 4
1948 1949 3
1948 2048 4
1948 1947 2
1949 1849 1
1949 1950 4
1949 2049 3
1949 1948 2
1950 1850 1
1950 1951 4
1950 2050 1
1950 1949 4
1951 1851 4
1951 1952 5
1951 2051 1
1951 1950 1
1952 1852 2
1952 1953 4
1952 2052 4
1952 1951 5
1953 1853 1
1953 1954 2
1953 2053 1
1953 1952 3
1954 1854 2
1954 1955 3
1954 2054 2
1954 1953 5
1955 1855 4
1955 1956 1
1955 2055 2
1955 1954 4
1956 1856 4
1956 1957 3
1956 2056 5
1956 1955 5
1957 1857 3
1957 1958 4
1957 2057 3
1957 1956 4
1958 1858 5
1958 1959 4
1958 2058 4
1958 1957 5
1959 1859 3
1959 1960 2
1959 2059 4
1959 1958 1
1960 1860 1
1960 1961 3
1960 2060 4
1960 1959 4
1961 1861 2
1961 1962 2
1961 2061 1
1961 1960 1
1962 1862 1
1962 1963 1
1962 2062 4
1962 1961 1
1963 1863 2
1963 1964 4
1963 2063 5
1963 1962 3
1964 1864 2
1964 1965 3
1964 2064 5
1964 1963 5
1965 1865 1
1965 1966 1
1965 2065 5
1965 1964 4
1966 1866 4
1966 1967 2
1966 2066 3
1966 1965 4
1967 1867 4
1967 1968 5
1967 2067 3
1967 1966 5
1968 1868 3
1968 1969 5
1968 2068 5
1968 1967 1
1969 1869 1
1969 1970 4
1969 2069 1
1969 1968 4
1970 1870 4
1970 1971 3
1970 2070 4
1970 1969 4
1971 1871 4
1971 1972 1
1971 2071 1
1971 1970 2
1972 1872 5
1972 1973 3
1972 2072 2
1972 1971 4
1973 1873 4
1973 1974 2
1973 2073 3
1973 1972 4
1974 1874 4
1974 1975 1
1974 2074 5
1974 1973 4
1975 1875 5
1975 1976 5
1975 2075 5
1975 1974 4
1976 1876 4
1976 1977 5
1976 2076 2
1976 1975 5
1977 1877 1
1977 1978 4
1977 2077 3
1977 1976 4
1978 1878 5
1978 1979 4
1978 2078 5
1978 1977 3
1979 1879 3
1979 1980 3
1979 2079 1
1979 1978 1
1980 1880 5
1980 1981 1
1980 2080 2
1980 1979 3
1981 1881 3
1981 1982 5
1981 2081 1
1981 1980 3
1982 1882 4
1982 1983 1
1982 2082 4
1982 1981 3
1983 1883 3
1983 1984 4
1983 2083 3
1983 1982 1
1984 1884 2
1984 1985 2
1984 2084 2
1984 1983 3
1985 1885 5
1985 1986 1
1985 2085 1
1985 1984 3
1986 1886 1
1986 1987 3
1986 2086 2
1986 1985 1
1987 1887 5
1987 1988 3
1987 2087 1
1987 1986 4
1988 1888 4
1988 1989 5
1988 2088 5
1988 1987 4
1989 1889 3
1989 1990 1
1989 2089 4
1989 1988 5
1990 1890 1
1990 1991 3
1990 2090 4
1990 1989 5
1991 1891 4
1991 1992 3
1991 2091 5
1991 1990 1
1992 1892 4
1992 1993 1
1992 2092 2
1992 1991 3
1993 1893 4
1993 1994 5
1993 2093 3
1993 1992 2
1994 1894 5
1994 1995 3
1994 2094 3
1994 1993 4
1995 1895 2
1995 1996 4
1995 2095 1
1995 1994 5
1996 1896 2
1996 1997 3
1996 2096 3
1996 1995 1
1997 1897 3
1997 1998 5
1997 2097 4
1997 1996 2
1998 1898 5
1998 1999 1
1998 2098 5
1998 1997 1
1999 1899 5
1999 2099 3
1999 1998 3
2000 1900 1
2000 2001 5
2000 2100 5
2001 1901 4
2001 2002 4
2001 2101 2
2001 2000 3
2002 1902 1
2002 2003 3
2002 2102 5
2002 2001 3
2003 1903 4
2003 2004 5
2003 2103 3
2003 2002 2
2004 1904 4
2004 2005 4
2004 2104 3
2004 2003 5
2005 1905 5
2005 2006 4
2005 2105 5
2005 2004 2
2006 1906 1
2006 2007 5
2006 2106 2
2006 2005 5
2007 1907 4
2007 2008 2
2007 2107 4
2007 2006 3
2008 1908 5
2008 2009 5
2008 2108 4
2008 2007 5
2009 1909 1
2009 2010 5
2009 2109 2
2009 2008 3
2010 1910 4
2010 2011 2
2010 2110 2
2010 2009 2
2011 1911 3
2011 2012 4
2011 2111 4
2011 2010 3
2012 1912 1
2012 2013 2
2012 2112 4
2012 2011 3
2013 1913 3
2013 2014 2
2013 2113 3
2013 2012 5
2014 1914 2
2014 2015 4
2014 2114 2
2014 2013 1
2015 1915 2
2015 2016 2
2015 2115 1
2015 2014 2
2016 1916 3
2016 2017 4
2016 2116 4
2016 2015 5
2017 1917 4
2017 2018 4
2017 2117 1
2017 2016 2
2018 1918 2
2018 2019 3
2018 2118 2
2018 2017 1
2019 1919 3
2019 2020 3
2019 2119 5
2019 2018 2
2020 1920 1
2020 2021 4
2020 2120 1
2020 2019 1
2021 1921 1
2021 2022 3
2021 2121 5
2021 2020 3
2022 1922 1
2022 2023 4
2022 2122 3
2022 2021 1
2023 1923 4
2023 2024 2
2023 2123 2
2023 2022 1
2024 1924 5
2024 2025 5
2024 2124 1
2024 2023 5
2025 1925 5
2025 2026 5
2025 2125 3
2025 2024 4
2026 1926 1
2026 2027 2
2026 2126 5
2026 2025 1
2027 1927 3
2027 2028 3
2027 2127 5
2027 2026 4
2028 1928 2
2028 2029 4
2028 2128 2
2028 2027 2
2029 1929 1
2029 2030 2
2029 2129 2
2029 2028 3
2030 1930 4
2030 2031 4
2030 2130 3
2030 2029 5
2031 1931 1
2031 2032 4
2031 2131 5
2031 2030 3
2032 1932 1
2032 2033 3
2032 2132 5
2032 2031 4
2033 1933 4
2033 2034 2
2033 2133 3
2033 2032 2
2034 1934 3
2034 2035 4
2034 2134 3
2034 2033 3
2035 1935 1
2035 2036 5
2035 2135 1
2035 2034 1
2036 1936 2
2036 2037 3
2036 2136 5
2036 2035 4
2037 1937 3
2037 2038 3
2037 2137 1
2037 2036 5
2038 1938 2
2038 2039 4
2038 2138 4
2038 2037 1
2039 1939 4
2039 2040 3
2039 2139 3
2039 2038 1
2040 1940 2
2040 2041 3
2040 2140 2
2040 2039 2
2041 1941 4
2041 2042 3
2041 2141 4
2041 2040 1
2042 1942 3
2042 2043 1
2042 2142 4
2042 2041 4
2043 1943 4
2043 2044 3
2043 2143 4
2043 2042 1
2044 1944 2
2044 2045 3
2044 2144 5
2044 2043 1
2045 1945 3
2045 2046 4
2045 2145 5
2045 2044 5
2046 1946 3
2046 2047 4
2046 2146 1
2046 2045 1
2047 1947 2
2047 2048 4
2047 2147 2
2047 2046 1
2048 1948 4
2048 2049 2
2048 2148 3
2048 2047 3
2049 1949 5
2049 2050 1
2049 2149 1
2049 2048 2
2050 1950 2
2050 2051 5
2050 2150 2
2050 2049 5
2051 1951 4
2051 2052 3
2051 2151 4
2051 2050 4
2052 1952 2
2052 2053 3
2052 2152 2
2052 2051 5
2053 1953 3
2053 2054 3
2053 2153 2
2053 2052 1
2054 1954 4
2054 2055 3
2054 2154 2
2054 2053 4
2055 1955 4
2055 2056 5
2055 2155 2
2055 2054 1
2056 1956 1
2056 2057 5
2056 2156 5
2056 2055 2
2057 1957 1
2057 2058 4
2057 2157 2
2057 2056 3
2058 1958 2
2058 2059 1
2058 2158 4
2058 2057 5
2059 1959 4
2059 2060 5
2059 2159 3
2059 2058 2
2060 1960 1
2060 2061 3
2060 2160 2
2060 2059 5
2061 1961 1
2061 2062 1
2061 2161 5
2061 2060 4
2062 1962 4
2062 2063 4
2062 2162 1
2062 2061 2
2063 1963 2
2063 2064 2
2063 2163 3
2063 2062 3
2064 1964 4
2064 2065 4
2064 2164 2
2064 2063 4
2065 1965 2
2065 2066 5
2065 2165 2
2065 2064 3
2066 1966 2
2066 2067 4
2066 2166 2
2066 2065 4
2067 1967 2
2067 2068 1
2067 2167 3
2067 2066 3
2068 1968 2
2068 2069 5
2068 2168 4
2068 2067 2
2069 1969 3
2069 2070 5
2069 2169 4
2069 2068 1
2070 1970 1
2070 2071 4
2070 2170 2
2070 2069 3
2071 1971 4
2071 2072 2
2071 2171 4
2071 2070 4
2072 1972 5
2072 2073 3
2072 2172 1
2072 2071 1
2073 1973 5
2073 2074 1
2073 2173 1
2073 2072 3
2074 1974 2
2074 2075 4
2074 2174 3
2074 2073 5
2075 1975 5
2075 2076 1
2075 2175 1
2075 2074 3
2076 1976 5
2076 2077 5
2076 2176 4
2076 2075 3
2077 1977 4
2077 2078 3
2077 2177 2
2077 2076 5
2078 1978 1
2078 2079 5
2078 2178 2
2078 2077 3
2079 1979 2
2079 2080 5
2079 2179 4
2079 2078 3
2080 1980 4
2080 2081 2
2080 2180 1
2080 2079 3
2081 1981 5
2081 2082 4
2081 2181 2
2081 2080 3
2082 1982 1
2082 2083 3
2082 2182 1
2082 2081 2
2083 1983 4
2083 2084 3
2083 2183 3
2083 2082 4
2084 1984 3
2084 2085 3
2084 2184 5
2084 2083 3
2085 1985 5
2085 2086 3
2085 2185 4
2085 2084 2
2086 1986 3
2086 2087 4
2086 2186 2
2086 2085 5
2087 1987 4
2087 2088 1
2087 2187 2
2087 2086 2
2088 1988 1
2088 2089 2
2088 2188 2
2088 2087 1
2089 1989 4
2089 2090 3
2089 2189 2
2089 2088 4
2090 1990 4
2090 2091 1
2090 2190 4
2090 2089 1
2091 1991 4
2091 2092 3
2091 2191 5
2091 2090 4
2092 1992 4
2092 2093 4
2092 2192 1
2092 2091 2
2093 1993 1
2093 2094 3
2093 2193 1
2093 2092 2
2094 1994 3
2094 2095 2
2094 2194 2
2094 2093 5
2095 1995 3
2095 2096 5
2095 2195 5
2095 2094 2
2096 1996 5
2096 2097 1
2096 2196 5
2096 2095 5
2097 1997 2
2097 2098 4
2097 2197 1
2097 2096 2
2098 1998 4
2098 2099 1
2098 2198 3
2098 2097 1
2099 1999 3
2099 2199 1
2099 2098 4
2100 2000 3
2100 2101 5
2100 2200 1
2101 2001 3
2101 2102 2
2101 2201 1
2101 2100 1
2102 2002 4
2102 2103 4
2102 2202 4
2102 2101 3
2103 2003 5
2103 2104 1
2103 2203 3
2103 2102 1
2104 2004 5
2104 2105 4
2104 2204 3
2104 2103 5
2105 2005 2
2105 2106 2
2105 2205 1
2105 2104 3
2106 2006 3
2106 2107 1
2106 2206 1
2106 2105 5
2107 2007 5
2107 2108 4
2107 2207 1
2107 2106 4
2108 2008 3
2108 2109 2
2108 2208 2
2108 2107 4
2109 2009 1
2109 2110 1
2109 2209 2
2109 2108 2
2110 2010 4
2110 2111 4
2110 2210 3
2110 2109 2
2111 2011 1
2111 2112 3
2111 2211 4
2111 2110 4
2112 2012 3
2112 2113 5
2112 2212 2
2112 2111 3
2113 2013 1
2113 2114 3
2113 2213 5
2113 2112 2
2114 2014 4
2114 2115 4
2114 2214 4
2114 2113 4
2115 2015 3
2115 2116 5
2115 2215 5
2115 2114 4
2116 2016 1
2116 2117 4
2116 2216 3
2116 2115 5
2117 2017 2
2117 2118 4
2117 2217 4
2117 2116 1
2118 2018 1
2118 2119 5
2118 2218 3
2118 2117 4
2119 2019 2
2119 2120 2
2119 2219 4
2119 2118 5
2120 2020 5
2120 2121 1
2120 2220 3
2120 2119 4
2121 2021 4
2121 2122 1
2121 2221 4
2121 2120 3
2122 2022 2
2122 2123 2
2122 2222 3
2122 2121 2
2123 2023 5
2123 2124 4
2123 2223 3
2123 2122 5
2124 2024 1
2124 2125 5
2124 2224 1
2124 2123 1
2125 2025 5
2125 2126 1
2125 2225 5
2125 2124 4
2126 2026 4
2126 2127 1
2126 2226 4
2126 2125 5
2127 2027 3
2127 2128 3
2127 2227 3
2127 2126 5
2128 2028 1
2128 2129 5
2128 2228 1
2128 2127 1
2129 2029 4
2129 2130 2
2129 2229 2
2129 2128 4
2130 2030 1
2130 2131 1
2130 2230 4
2130 2129 3
2131 2031 3
2131 2132 5
2131 2231 4
2131 2130 4
2132 2032 5
2132 2133 3
2132 2232 3
2132 2131 2
2133 2033 2
2133 2134 2
2133 2233 1
2133 2132 5
2134 2034 3
2134 2135 1
2134 2234 4
2134 2133 5
2135 2035 1
2135 2136 1
2135 2235 4
2135 2134 1
2136 2036 1
2136 2137 2
2136 2236 4
2136 2135 4
2137 2037 4
2137 2138 5
2137 2237 4
2137 2136 3
2138 2038 5
2138 2139 5
2138 2238 3
2138 2137 4
2139 2039 3
2139 2140 1
2139 2239 2
2139 2138 2
2140 2040 1
2140 2141 2
2140 2240 1
2140 2139 1
2141 2041 2
2141 2142 1
2141 2241 2
2141 2140 4
2142 2042 2
2142 2143 2
2142 2242 4
2142 2141 5
2143 2043 2
2143 2144 1
2143 2243 3
2143 2142 4
2144 2044 2
2144 2145 4
2144 2244 4
2144 2143 1
2145 2045 1
2145 2146 2
2145 2245 2
2145 2144 4
2146 2046 4
2146 2147 4
2146 2246 1
2146 2145 4
2147 2047 5
2147 2148 2
2147 2247 2
2147 2146 3
2148 2048 5
2148 2149 4
2148 2248 1
2148 2147 3
2149 2049 1
2149 2150 1
2149 2249 4
2149 2148 4
2150 2050 4
2150 2151 5
2150 2250 5
2150 2149 5
2151 2051 3
2151 2152 1
2151 2251 4
2151 2150 4
2152 2052 4
2152 2153 5
2152 2252 5
2152 2151 5
2153 2053 4
2153 2154 2
2153 2253 1
2153 2152 5
2154 2054 1
2154 2155 4
2154 2254 5
2154 2153 3
2155 2055 5
2155 2156 1
2155 2255 3
2155 2154 4
2156 2056 4
2156 2157 1
2156 2256 4
2156 2155 5
2157 2057 3
2157 2158 4
2157 2257 4
2157 2156 1
2158 2058 2
2158 2159 3
2158 2258 2
2158 2157 4
2159 2059 3
2159 2160 4
2159 2259 2
2159 2158 5
2160 2060 2
2160 2161 5
2160 2260 3
2160 2159 5
2161 2061 4
2161 2162 2
2161 2261 3
2161 2160 4
2162 2062 4
2162 2163 3
2162 2262 4
2162 2161 2
2163 2063 5
2163 2164 2
2163 2263 3
2163 2162 1
2164 2064 4
2164 2165 2
2164 2264 2
2164 2163 2
2165 2065 2
2165 2166 5
2165 2265 4
2165 2164 1
2166 2066 4
2166 2167 4
2166 2266 3
2166 2165 2
2167 2067 2
2167 2168 5
2167 2267 1
2167 2166 1
2168 2068 3
2168 2169 3
2168 2268 3
2168 2167 2
2169 2069 2
2169 2170 5
2169 2269 1
2169 2168 1
2170 2070 3
2170 2171 4
2170 2270 1
2170 2169 5
2171 2071 2
2171 2172 1
2171 2271 5
2171 2170 2
2172 2072 4
2172 2173 3
2172 2272 3
2172 2171 3
2173 2073 1
2173 2174 5
2173 2273 3
2173 2172 2
2174 2074 5
2174 2175 5
2174 2274 1
2174 2173 1
2175 2075 4
2175 2176 4
2175 2275 1
2175 2174 1
2176 2076 5
2176 2177 5
2176 2276 1
2176 2175 5
2177 2077 1
2177 2178 5
2177 2277 1
2177 2176 2
2178 2078 1
2178 2179 2
2178 2278 3
2178 2177 2
2179 2079 3
2179 2180 4
2179 2279 5
2179 2178 4
2180 2080 1
2180 2181 2
2180 2280 3
2180 2179 3
2181 2081 2
2181 2182 1
2181 2281 2
2181 2180 4
2182 2082 4
2182 2183 1
2182 2282 2
2182 2181 4
2183 2083 3
2183 2184 3
2183 2283 5
2183 2182 2
2184 2084 1
2184 2185 3
2184 2284 3
2184 2183 4
2185 2085 3
2185 2186 2
2185 2285 2
2185 2184 5
2186 2086 4
2186 2187 2
2186 2286 2
2186 2185 4
2187 2087 4
2187 2188 4
2187 2287 4
2187 2186 5
2188 2088 3
2188 2189 1
2188 2288 4
2188 2187 2
2189 2089 1
2189 2190 5
2189 2289 1
2189 2188 1
2190 2090 3
2190 2191 3
2190 2290 4
2190 2189 2
2191 2091 4
2191 2192 1
2191 2291 4
2191 2190 1
2192 2092 2
2192 2193 5
2192 2292 1
2192 2191 5
2193 2093 3
2193 2194 4
2193 2293 4
2193 2192 5
2194 2094 3
2194 2195 3
2194 2294 3
2194 2193 1
2195 2095 3
2195 2196 5
2195 2295 5
2195 2194 2
2196 2096 4
2196 2197 4
2196 2296 2
2196 2195 5
2197 2097 5
2197 2198 5
2197 2297 4
2197 2196 3
2198 2098 4
2198 2199 2
2198 2298 3
2198 2197 1
2199 2099 1
2199 2299 5
2199 2198 3
2200 2100 4
2200 2201 2
2200 2300 5
2201 2101 5
2201 2202 3
2201 2301 2
2201 2200 1
2202 2102 5
2202 2203 5
2202 2302 3
2202 2201 5
2203 2103 3
2203 2204 2
2203 2303 1
2203 2202 1
2204 2104 5
2204 2205 5
2204 2304 3
2204 2203 2
2205 2105 3
2205 2206 4
2205 2305 5
2205 2204 1
2206 2106 1
2206 2207 3
2206 2306 3
2206 2205 5
2207 2107 3
2207 2208 1
2207 2307 1
2207 2206 1
2208 2108 4
2208 2209 3
2208 2308 5
2208 2207 1
2209 2109 4
2209 2210 3
2209 2309 2
2209 2208 5
2210 2110 5
2210 2211 5
2210 2310 5
2210 2209 2
2211 2111 3
2211 2212 3
2211 2311 3
2211 2210 5
2212 2112 2
2212 2213 4
2212 2312 5
2212 2211 2
2213 2113 1
2213 2214 3
2213 2313 5
2213 2212 5
2214 2114 2
2214 2215 3
2214 2314 4
2214 2213 1
2215 2115 2
2215 2216 4
2215 2315 4
2215 2214 1
2216 2116 1
2216 2217 1
2216 2316 4
2216 2215 2
2217 2117 4
2217 2218 2
2217 2317 4
2217 2216 1
2218 2118 3
2218 2219 5
2218 2318 4
2218 2217 5
2219 2119 5
2219 2220 5
2219 2319 4
2219 2218 3
2220 2120 5
2220 2221 4
2220 2320 4
2220 2219 4
2221 2121 4
2221 2222 4
2221 2321 2
2221 2220 2
2222 2122 5
2222 2223 2
2222 2322 4
2222 2221 4
2223 2123 2
2223 2224 5
2223 2323 5
2223 2222 1
2224 2124 2
2224 2225 4
2224 2324 4
2224 2223 1
2225 2125 2
2225 2226 5
2225 2325 3
2225 2224 1
2226 2126 5
2226 2227 4
2226 2326 1
2226 2225 1
2227 2127 3
2227 2228 5
2227 2327 3
2227 2226 1
2228 2128 5
2228 2229 2
2228 2328 1
2228 2227 3
2229 2129 3
2229 2230 3
2229 2329 3
2229 2228 3
2230 2130 4
2230 2231 1
2230 2330 2
2230 2229 2
2231 2131 5
2231 2232 4
2231 2331 1
2231 2230 3
2232 2132 3
2232 2233 2
2232 2332 2
2232 2231 4
2233 2133 1
2233 2234 1
2233 2333 5
2233 2232 3
2234 2134 1
2234 2235 1
2234 2334 4
2234 2233 4
2235 2135 5
2235 2236 3
2235 2335 5
2235 2234 4
2236 2136 3
2236 2237 4
2236 2336 4
2236 2235 5
2237 2137 2
2237 2238 2
2237 2337 5
2237 2236 4
2238 2138 4
2238 2239 4
2238 2338 2
2238 2237 3
2239 2139 1
2239 2240 5
2239 2339 5
2239 2238 4
2240 2140 4
2240 2241 2
2240 2340 4
2240 2239 3
2241 2141 5
2241 2242 1
2241 2341 4
2241 2240 3
2242 2142 1
2242 2243 2
2242 2342 1
2242 2241 5
2243 2143 3
2243 2244 5
2243 2343 1
2243 2242 5
2244 2144 1
2244 2245 2
2244 2344 5
2244 2243 5
2245 2145 5
2245 2246 1
2245 2345 5
2245 2244 5
2246 2146 2
2246 2247 4
2246 2346 5
2246 2245 1
2247 2147 1
2247 2248 5
2247 2347 2
2247 2246 1
2248 2148 3
2248 2249 2
2248 2348 2
2248 2247 5
2249 2149 4
2249 2250 1
2249 2349 5
2249 2248 5
2250 2150 3
2250 2251 4
2250 2350 5
2250 2249 1
2251 2151 4
2251 2252 1
2251 2351 3
2251 2250 4
2252 2152 2
2252 2253 4
2252 2352 1
2252 2251 5
2253 2153 3
2253 2254 4
2253 2353 3
2253 2252 1
2254 2154 1
2254 2255 1
2254 2354 5
2254 2253 2
2255 2155 3
2255 2256 2
2255 2355 2
2255 2254 3
2256 2156 1
2256 2257 2
2256 2356 3
2256 2255 4
2257 2157 2
2257 2258 1
2257 2357 5
2257 2256 3
2258 2158 2
2258 2259 1
2258 2358 1
2258 2257 3
2259 2159 4
2259 2260 1
2259 2359 3
2259 2258 2
2260 2160 4
2260 2261 3
2260 2360 3
2260 2259 4
2261 2161 1
2261 2262 1
2261 2361 2
2261 2260 2
2262 2162 5
2262 2263 5
2262 2362 2
2262 2261 4
2263 2163 5
2263 2264 5
2263 2363 4
2263 2262 1
2264 2164 3
2264 2265 1
2264 2364 3
2264 2263 4
2265 2165 5
2265 2266 4
2265 2365 1
2265 2264 4
2266 2166 1
2266 2267 4
2266 2366 2
2266 2265 1
2267 2167 3
2267 2268 5
2267 2367 5
2267 2266 1
2268 2168 2
2268 2269 5
2268 2368 2
2268 2267 3
2269 2169 5
2269 2270 4
2269 2369 4
2269 2268 1
2270 2170 5
2270 2271 2
2270 2370 2
2270 2269 3
2271 2171 5
2271 2272 2
2271 2371 2
2271 2270 5
2272 2172 4
2272 2273 5
2272 2372 4
2272 2271 1
2273 2173 1
2273 2274 4
2273 2373 5
2273 2272 3
2274 2174 2
2274 2275 1
2274 2374 1
2274 2273 4
2275 2175 3
2275 2276 5
2275 2375 3
2275 2274 4
2276 2176 3
2276 2277 2
2276 2376 5
2276 2275 5
2277 2177 3
2277 2278 1
2277 2377 2
2277 2276 5
2278 2178 5
2278 2279 1
2278 2378 3
2278 2277 1
2279 2179 4
2279 2280 1
2279 2379 2
2279 2278 5
2280 2180 3
2280 2281 4
2280 2380 2
2280 2279 5
2281 2181 5
2281 2282 3
2281 2381 3
2281 2280 3
2282 2182 4
2282 2283 3
2282 2382 2
2282 2281 3
2283 2183 3
2283 2284 2
2283 2383 4
2283 2282 5
2284 2184 3
2284 2285 1
2284 2384 2
2284 2283 1
2285 2185 5
2285 2286 4
2285 2385 1
2285 2284 1
2286 2186 2
2286 2287 4
2286 2386 5
2286 2285 4
2287 2187 4
2287 2288 5
2287 2387 1
2287 2286 1
2288 2188 5
2288 2289 1
2288 2388 4
2288 2287 1
2289 2189 3
2289 2290 4
2289 2389 5
2289 2288 3
2290 2190 4
2290 2291 2
2290 2390 1
2290 2289 1
2291 2191 4
2291 2292 3
2291 2391 2
2291 2290 4
2292 2192 1
2292 2293 2
2292 2392 1
2292 2291 3
2293 2193 3
2293 2294 2
2293 2393 1
2293 2292 5
2294 2194 3
2294 2295 2
2294 2394 2
2294 2293 4
2295 2195 3
2295 2296 1
2295 2395 3
2295 2294 4
2296 2196 5
2296 2297 2
2296 2396 1
2296 2295 2
2297 2197 4
2297 2298 1
2297 2397 3
2297 2296 5
2298 2198 5
2298 2299 4
2298 2398 2
2298 2297 5
2299 2199 2
2299 2399 5
2299 2298 5
2300 2200 5
2300 2301 2
2300 2400 1
2301 2201 5
2301 2302 2
2301 2401 1
2301 2300 2
2302 2202 3
2302 2303 5
2302 2402 2
2302 2301 5
2303 2203 3
2303 2304 2
2303 2403 1
2303 2302 5
2304 2204 5
2304 2305 3
2304 2404 5
2304 2303 4
2305 2205 1
2305 2306 4
2305 2405 1
2305 2304 3
2306 2206 4
2306 2307 4
2306 2406 3
2306 2305 1
2307 2207 5
2307 2308 4
2307 2407 4
2307 2306 3
2308 2208 5
2308 2309 1
2308 2408 2
2308 2307 1
2309 2209 3
2309 2310 4
2309 2409 5
2309 2308 4
2310 2210 3
2310 2311 1
2310 2410 4
2310 2309 2
2311 2211 3
2311 2312 1
2311 2411 5
2311 2310 1
2312 2212 2
2312 2313 4
2312 2412 1
2312 2311 2
2313 2213 2
2313 2314 2
2313 2413 3
2313 2312 3
2314 2214 1
2314 2315 1
2314 2414 1
2314 2313 4
2315 2215 4
2315 2316 1
2315 2415 5
2315 2314 3
2316 2216 3
2316 2317 2
2316 2416 1
2316 2315 4
2317 2217 2
2317 2318 3
2317 2417 1
2317 2316 3
2318 2218 5
2318 2319 2
2318 2418 1
2318 2317 5
2319 2219 5
2319 2320 4
2319 2419 1
2319 2318 4
2320 2220 5
2320 2321 1
2320 2420 1
2320 2319 1
2321 2221 1
2321 2322 4
2321 2421 3
2321 2320 1
2322 2222 2
2322 2323 1
2322 2422 4
2322 2321 1
2323 2223 3
2323 2324 5
2323 2423 4
2323 2322 1
2324 2224 1
2324 2325 1
2324 2424 5
2324 2323 1
2325 2225 3
2325 2326 4
2325 2425 4
2325 2324 1
2326 2226 5
2326 2327 4
2326 2426 2
2326 2325 5
2327 2227 5
2327 2328 1
2327 2427 4
2327 2326 4
2328 2228 4
2328 2329 4
2328 2428 5
2328 2327 5
2329 2229 1
2329 2330 3
2329 2429 1
2329 2328 4
2330 2230 5
2330 2331 3
2330 2430 5
2330 2329 2
2331 2231 1
2331 2332 1
2331 2431 1
2331 2330 5
2332 2232 1
2332 2333 5
2332 2432 2
2332 2331 5
2333 2233 2
2333 2334 5
2333 2433 3
2333 2332 3
2334 2234 4
2334 2335 4
2334 2434 5
2334 2333 4
2335 2235 2
2335 2336 2
2335 2435 2
2335 2334 1
2336 2236 1
2336 2337 2
2336 2436 3
2336 2335 5
2337 2237 4
2337 2338 5
2337 2437 3
2337 2336 3
2338 2238 5
2338 2339 5
2338 2438 2
2338 2337 2
2339 2239 4
2339 2340 3
2339 2439 5
2339 2338 3
2340 2240 3
2340 2341 3
2340 2440 1
2340 2339 5
2341 2241 5
2341 2342 2
2341 2441 1
2341 2340 2
2342 2242 5
2342 2343 5
2342 2442 1
2342 2341 4
2343 2243 3
2343 2344 2
2343 2443 2
2343 2342 2
2344 2244 1
2344 2345 3
2344 2444 2
2344 2343 4
2345 2245 4
2345 2346 5
2345 2445 3
2345 2344 5
2346 2246 5
2346 2347 3
2346 2446 5
2346 2345 3
2347 2247 4
2347 2348 3
2347 2447 2
2347 2346 1
2348 2248 4
2348 2349 1
2348 2448 4
2348 2347 2
2349 2249 1
2349 2350 2
2349 2449 2
2349 2348 4
2350 2250 5
2350 2351 2
2350 2450 2
2350 2349 4
2351 2251 3
2351 2352 4
2351 2451 2
2351 2350 4
2352 2252 2
2352 2353 1
2352 2452 3
2352 2351 1
2353 2253 1
2353 2354 3
2353 2453 1
2353 2352 5
2354 2254 1
2354 2355 2
2354 2454 3
2354 2353 4
2355 2255 2
2355 2356 5
2355 2455 3
2355 2354 1
2356 2256 1
2356 2357 2
2356 2456 2
2356 2355 3
2357 2257 2
2357 2358 2
2357 2457 3
2357 2356 2
2358 2258 3
2358 2359 5
2358 2458 2
2358 2357 2
2359 2259 2
2359 2360 1
2359 2459 2
2359 2358 3
2360 2260 1
2360 2361 1
2360 2460 2
2360 2359 4
2361 2261 1
2361 2362 3
2361 2461 2
2361 2360 3
2362 2262 4
2362 2363 2
2362 2462 3
2362 2361 3
2363 2263 2
2363 2364 5
2363 2463 5
2363 2362 4
2364 2264 1
2364 2365 1
2364 2464 2
2364 2363 2
2365 2265 2
2365 2366 2
2365 2465 5
2365 2364 4
2366 2266 3
2366 2367 3
2366 2466 5
2366 2365 4
2367 2267 2
2367 2368 1
2367 2467 5
2367 2366 5
2368 2268 2
2368 2369 5
2368 2468 3
2368 2367 2
2369 2269 3
2369 2370 2
2369 2469 1
2369 2368 3
2370 2270 2
2370 2371 5
2370 2470 5
2370 2369 4
2371 2271 2
2371 2372 1
2371 2471 4
2371 2370 5
2372 2272 1
2372 2373 2
2372 2472 5
2372 2371 4
2373 2273 5
2373 2374 3
2373 2473 4
2373 2372 5
2374 2274 4
2374 2375 2
2374 2474 3
2374 2373 3
2375 2275 5
2375 2376 4
2375 2475 4
2375 2374 4
2376 2276 3
2376 2377 5
2376 2476 4
2376 2375 5
2377 2277 1
2377 2378 2
2377 2477 2
2377 2376 2
2378 2278 4
2378 2379 2
2378 2478 4
2378 2377 2
2379 2279 3
2379 2380 4
2379 2479 4
2379 2378 5
2380 2280 2
2380 2381 3
2380 2480 3
2380 2379 5
2381 2281 1
2381 2382 2
2381 2481 1
2381 2380 3
2382 2282 4
2382 2383 5
2382 2482 3
2382 2381 2
2383 2283 5
2383 2384 1
2383 2483 4
2383 2382 5
2384 2284 5
2384 2385 3
2384 2484 4
2384 2383 4
2385 2285 4
2385 2386 4
2385 2485 4
2385 2384 3
2386 2286 4
2386 2387 3
2386 2486 3
2386 2385 4
2387 2287 1
2387 2388 2
2387 2487 4
2387 2386 2
2388 2288 3
2388 2389 1
2388 2488 3
2388 2387 1
2389 2289 3
2389 2390 5
2389 2489 5
2389 2388 5
2390 2290 1
2390 2391 3
2390 2490 2
2390 2389 1
2391 2291 1
2391 2392 1
2391 2491 3
2391 2390 1
2392 2292 5
2392 2393 2
2392 2492 3
2392 2391 2
2393 2293 3
2393 2394 3
2393 2493 3
2393 2392 3
2394 2294 2
2394 2395 5
2394 2494 2
2394 2393 5
2395 2295 3
2395 2396 1
2395 2495 3
2395 2394 3
2396 2296 3
2396 2397 4
2396 2496 4
2396 2395 5
2397 2297 1
2397 2398 4
2397 2497 5
2397 2396 2
2398 2298 4
2398 2399 2
2398 2498 2
2398 2397 2
2399 2299 4
2399 2499 2
2399 2398 5
2400 2300 5
2400 2401 5
2400 2500 4
2401 2301 4
2401 2402 3
2401 2501 1
2401 2400 3
2402 2302 2
2402 2403 4
2402 2502 4
2402 2401 2
2403 2303 4
2403 2404 4
2403 2503 5
2403 2402 1
2404 2304 3
2404 2405 2
2404 2504 5
2404 2403 2
2405 2305 3
2405 2406 1
2405 2505 4
2405 2404 3
2406 2306 3
2406 2407 2
2406 2506 4
2406 2405 4
2407 2307 4
2407 2408 5
2407 2507 3
2407 2406 3
2408 2308 5
2408 2409 1
2408 2508 5
2408 2407 1
2409 2309 2
2409 2410 2
2409 2509 3
2409 2408 5
2410 2310 5
2410 2411 5
2410 2510 5
2410 2409 4
2411 2311 4
2411 2412 2
2411 2511 4
2411 2410 1
2412 2312 5
2412 2413 4
2412 2512 2
2412 2411 4
2413 2313 1
2413 2414 3
2413 2513 5
2413 2412 4
2414 2314 3
2414 2415 1
2414 2514 2
2414 2413 1
2415 2315 5
2415 2416 2
2415 2515 1
2415 2414 5
2416 2316 4
2416 2417 1
2416 2516 2
2416 2415 2
2417 2317 1
2417 2418 4
2417 2517 3
2417 2416 2
2418 2318 2
2418 2419 3
2418 2518 5
2418 2417 1
2419 2319 4
2419 2420 1
2419 2519 3
2419 2418 5
2420 2320 1
2420 2421 2
2420 2520 3
2420 2419 4
2421 2321 4
2421 2422 2
2421 2521 1
2421 2420 2
2422 2322 5
2422 2423 4
2422 2522 4
2422 2421 1
2423 2323 4
2423 2424 2
2423 2523 2
2423 2422 2
2424 2324 3
2424 2425 4
2424 2524 4
2424 2423 2
2425 2325 5
2425 2426 5
2425 2525 3
2425 2424 5
2426 2326 2
2426 2427 5
2426 2526 4
2426 2425 3
2427 2327 2
2427 2428 1
2427 2527 2
2427 2426 4
2428 2328 1
2428 2429 4
2428 2528 5
2428 2427 2
2429 2329 5
2429 2430 3
2429 2529 5
2429 2428 4
2430 2330 4
2430 2431 4
2430 2530 5
2430 2429 1
2431 2331 1
2431 2432 3
2431 2531 4
2431 2430 3
2432 2332 3
2432 2433 4
2432 2532 5
2432 2431 2
2433 2333 4
2433 2434 2
2433 2533 2
2433 2432 5
2434 2334 4
2434 2435 4
2434 2534 4
2434 2433 2
2435 2335 5
2435 2436 1
2435 2535 4
2435 2434 1
2436 2336 2
2436 2437 2
2436 2536 3
2436 2435 5
2437 2337 3
2437 2438 1
2437 2537 2
2437 2436 4
2438 2338 4
2438 2439 5
2438 2538 1
2438 2437 3
2439 2339 1
2439 2440 1
2439 2539 5
2439 2438 3
2440 2340 4
2440 2441 4
2440 2540 2
2440 2439 3
2441 2341 2
2441 2442 5
2441 2541 1
2441 2440 4
2442 2342 1
2442 2443 1
2442 2542 4
2442 2441 4
2443 2343 3
2443 2444 4
2443 2543 2
2443 2442 4
2444 2344 1
2444 2445 1
2444 2544 3
2444 2443 1
2445 2345 2
2445 2446 3
2445 2545 4
2445 2444 4
2446 2346 4
2446 2447 1
2446 2546 1
2446 2445 5
2447 2347 2
2447 2448 4
2447 2547 2
2447 2446 4
2448 2348 3
2448 2449 2
2448 2548 2
2448 2447 1
2449 2349 5
2449 2450 1
2449 2549 2
2449 2448 3
2450 2350 1
2450 2451 5
2450 2550 4
2450 2449 2
2451 2351 1
2451 2452 1
2451 2551 3
2451 2450 2
2452 2352 4
2452 2453 3
2452 2552 2
2452 2451 2
2453 2353 1
2453 2454 5
2453 2553 2
2453 2452 4
2454 2354 1
2454 2455 5
2454 2554 1
2454 2453 4
2455 2355 3
2455 2456 4
2455 2555 1
2455 2454 5
2456 2356 1
2456 2457 1
2456 2556 4
2456 2455 2
2457 2357 2
2457 2458 3
2457 2557 2
2457 2456 2
2458 2358 1
2458 2459 1
2458 2558 4
2458 2457 1
2459 2359 1
2459 2460 3
2459 2559 2
2459 2458 1
2460 2360 2
2460 2461 1
2460 2560 2
2460 2459 2
2461 2361 1
2461 2462 4
2461 2561 5
2461 2460 1
2462 2362 3
2462 2463 3
2462 2562 5
2462 2461 2
2463 2363 5
2463 2464 2
2463 2563 5
2463 2462 4
2464 2364 4
2464 2465 1
2464 2564 2
2464 2463 2
2465 2365 1
2465 2466 3
2465 2565 3
2465 2464 2
2466 2366 1
2466 2467 4
2466 2566 3
2466 2465 1
2467 2367 4
2467 2468 2
2467 2567 4
2467 2466 2
2468 2368 1
2468 2469 3
2468 2568 5
2468 2467 3
2469 2369 1
2469 2470 1
2469 2569 2
2469 2468 4
2470 2370 3
2470 2471 5
2470 2570 4
2470 2469 1
2471 2371 5
2471 2472 5
2471 2571 2
2471 2470 3
2472 2372 1
2472 2473 5
2472 2572 3
2472 2471 4
2473 2373 2
2473 2474 3
2473 2573 2
2473 2472 3
2474 2374 4
2474 2475 1
2474 2574 3
2474 2473 1
2475 2375 5
2475 2476 5
2475 2575 4
2475 2474 4
2476 2376 5
2476 2477 2
2476 2576 5
2476 2475 5
2477 2377 1
2477 2478 2
2477 2577 1
2477 2476 5
2478 2378 1
2478 2479 3
2478 2578 2
2478 2477 4
2479 2379 2
2479 2480 5
2479 2579 1
2479 2478 1
2480 2380 2
2480 2481 3
2480 2580 4
2480 2479 3
2481 2381 2
2481 2482 2
2481 2581 4
2481 2480 2
2482 2382 1
2482 2483 2
2482 2582 5
2482 2481 4
2483 2383 3
2483 2484 2
2483 2583 3
2483 2482 3
2484 2384 1
2484 2485 5
2484 2584 4
2484 2483 3
2485 2385 1
2485 2486 2
2485 2585 3
2485 2484 3
2486 2386 2
2486 2487 2
2486 2586 5
2486 2485 1
2487 2387 2
2487 2488 2
2487 2587 5
2487 2486 4
2488 2388 5
2488 2489 3
2488 2588 2
2488 2487 4
2489 2389 1
2489 2490 1
2489 2589 4
2489 2488 1
2490 2390 2
2490 2491 1
2490 2590 2
2490 2489 2
2491 2391 2
2491 2492 1
2491 2591 2
2491 2490 5
2492 2392 5
2492 2493 2
2492 2592 2
2492 2491 5
2493 2393 1
2493 2494 4
2493 2593 4
2493 2492 3
2494 2394 2
2494 2495 2
2494 2594 2
2494 2493 4
2495 2395 2
2495 2496 5
2495 2595 2
2495 2494 3
2496 2396 3
2496 2497 5
2496 2596 4
2496 2495 2
2497 2397 3
2497 2498 4
2497 2597 1
2497 2496 3
2498 2398 4
2498 2499 4
2498 2598 2
2498 2497 4
2499 2399 4
2499 2599 4
2499 2498 5
2500 2400 5
2500 2501 4
2500 2600 2
2501 2401 4
2501 2502 1
2501 2601 4
2501 2500 4
2502 2402 1
2502 2503 3
2502 2602 5
2502 2501 5
2503 2403 2
2503 2504 5
2503 2603 2
2503 2502 3
2504 2404 4
2504 2505 4
2504 2604 3
2504 2503 4
2505 2405 3
2505 2506 4
2505 2605 5
2505 2504 5
2506 2406 4
2506 2507 1
2506 2606 3
2506 2505 2
2507 2407 4
2507 2508 2
2507 2607 2
2507 2506 2
2508 2408 1
2508 2509 1
2508 2608 5
2508 2507 3
2509 2409 4
2509 2510 4
2509 2609 4
2509 2508 4
2510 2410 3
2510 2511 4
2510 2610 4
2510 2509 3
2511 2411 5
2511 2512 1
2511 2611 4
2511 2510 1
2512 2412 1
2512 2513 4
2512 2612 5
2512 2511 2
2513 2413 2
2513 2514 4
2513 2613 3
2513 2512 3
2514 2414 5
2514 2515 4
2514 2614 3
2514 2513 1
2515 2415 4
2515 2516 4
2515 2615 2
2515 2514 2
2516 2416 4
2516 2517 1
2516 2616 3
2516 2515 1
2517 2417 2
2517 2518 3
2517 2617 5
2517 2516 4
2518 2418 2
2518 2519 3
2518 2618 2
2518 2517 5
2519 2419 5
2519 2520 2
2519 2619 1
2519 2518 1
2520 2420 1
2520 2521 4
2520 2620 4
2520 2519 5
2521 2421 1
2521 2522 5
2521 2621 2
2521 2520 4
2522 2422 2
2522 2523 4
2522 2622 3
2522 2521 3
2523 2423 5
2523 2524 5
2523 2623 4
2523 2522 5
2524 2424 3
2524 2525 4
2524 2624 1
2524 2523 1
2525 2425 5
2525 2526 3
2525 2625 2
2525 2524 3
2526 2426 2
2526 2527 4
2526 2626 3
2526 2525 1
2527 2427 2
2527 2528 4
2527 2627 1
2527 2526 1
2528 2428 1
2528 2529 4
2528 2628 5
2528 2527 4
2529 2429 3
2529 2530 4
2529 2629 2
2529 2528 2
2530 2430 3
2530 2531 2
2530 2630 2
2530 2529 2
2531 2431 4
2531 2532 2
2531 2631 5
2531 2530 1
2532 2432 4
2532 2533 5
2532 2632 2
2532 2531 2
2533 2433 2
2533 2534 1
2533 2633 2
2533 2532 2
2534 2434 3
2534 2535 4
2534 2634 4
2534 2533 5
2535 2435 1
2535 2536 2
2535 2635 1
2535 2534 3
2536 2436 1
2536 2537 4
2536 2636 1
2536 2535 3
2537 2437 1
2537 2538 3
2537 2637 1
2537 2536 5
2538 2438 2
2538 2539 4
2538 2638 4
2538 2537 1
2539 2439 1
2539 2540 1
2539 2639 3
2539 2538 1
2540 2440 5
2540 2541 1
2540 2640 1
2540 2539 2
2541 2441 5
2541 2542 1
2541 2641 4
2541 2540 5
2542 2442 5
2542 2543 3
2542 2642 4
2542 2541 4
2543 2443 3
2543 2544 5
2543 2643 4
2543 2542 3
2544 2444 3
2544 2545 3
2544 2644 3
2544 2543 2
2545 2445 3
2545 2546 4
2545 2645 4
2545 2544 5
2546 2446 1
2546 2547 3
2546 2646 3
2546 2545 1
2547 2447 1
2547 2548 4
2547 2647 4
2547 2546 2
2548 2448 1
2548 2549 5
2548 2648 1
2548 2547 5
2549 2449 3
2549 2550 2
2549 2649 3
2549 2548 4
2550 2450 5
2550 2551 4
2550 2650 5
2550 2549 4
2551 2451 2
2551 2552 1
2551 2651 3
2551 2550 1
2552 2452 3
2552 2553 1
2552 2652 3
2552 2551 4
2553 2453 2
2553 2554 5
2553 2653 4
2553 2552 4
2554 2454 5
2554 2555 1
2554 2654 3
2554 2553 4
2555 2455 4
2555 2556 1
2555 2655 4
2555 2554 3
2556 2456 5
2556 2557 2
2556 2656 2
2556 2555 5
2557 2457 5
2557 2558 5
2557 2657 1
2557 2556 2
2558 2458 4
2558 2559 1
2558 2658 3
2558 2557 5
2559 2459 4
2559 2560 2
2559 2659 4
2559 2558 1
2560 2460 4
2560 2561 5
2560 2660 2
2560 2559 2
2561 2461 2
2561 2562 2
2561 2661 1
2561 2560 1
2562 2462 4
2562 2563 1
2562 2662 2
2562 2561 3
2563 2463 4
2563 2564 3
2563 2663 2
2563 2562 3
2564 2464 4
2564 2565 1
2564 2664 2
2564 2563 5
2565 2465 4
2565 2566 1
2565 2665 3
2565 2564 2
2566 2466 5
2566 2567 5
2566 2666 1
2566 2565 3
2567 2467 4
2567 2568 4
2567 2667 5
2567 2566 4
2568 2468 2
2568 2569 2
2568 2668 3
2568 2567 1
2569 2469 3
2569 2570 1
2569 2669 1
2569 2568 1
2570 2470 3
2570 2571 5
2570 2670 2
2570 2569 1
2571 2471 5
2571 2572 3
2571 2671 2
2571 2570 3
2572 2472 4
2572 2573 5
2572 2672 1
2572 2571 3
2573 2473 1
2573 2574 5
2573 2673 5
2573 2572 2
2574 2474 4
2574 2575 4
2574 2674 3
2574 2573 3
2575 2475 2
2575 2576 5
2575 2675 5
2575 2574 5
2576 2476 2
2576 2577 1
2576 2676 4
2576 2575 1
2577 2477 5
2577 2578 4
2577 2677 3
2577 2576 2
2578 2478 3
2578 2579 2
2578 2678 4
2578 2577 4
2579 2479 2
2579 2580 5
2579 2679 3
2579 2578 2
2580 2480 1
2580 2581 5
2580 2680 3
2580 2579 3
2581 2481 5
2581 2582 1
2581 2681 3
2581 2580 5
2582 2482 4
2582 2583 2
2582 2682 4
2582 2581 3
2583 2483 4
2583 2584 1
2583 2683 3
2583 2582 2
2584 2484 2
2584 2585 2
2584 2684 1
2584 2583 2
2585 2485 4
2585 2586 4
2585 2685 3
2585 2584 2
2586 2486 1
2586 2587 5
2586 2686 4
2586 2585 3
2587 2487 4
2587 2588 4
2587 2687 3
2587 2586 4
2588 2488 4
2588 2589 1
2588 2688 5
2588 2587 3
2589 2489 3
2589 2590 2
2589 2689 5
2589 2588 4
2590 2490 1
2590 2591 2
2590 2690 3
2590 2589 5
2591 2491 1
2591 2592 3
2591 2691 4
2591 2590 2
2592 2492 5
2592 2593 2
2592 2692 4
2592 2591 4
2593 2493 3
2593 2594 2
2593 2693 2
2593 2592 2
2594 2494 2
2594 2595 1
2594 2694 3
2594 2593 5
2595 2495 1
2595 2596 2
2595 2695 4
2595 2594 4
2596 2496 2
2596 2597 1
2596 2696 1
2596 2595 3
2597 2497 4
2597 2598 2
2597 2697 1
2597 2596 1
2598 2498 5
2598 2599 3
2598 2698 5
2598 2597 4
2599 2499 2
2599 2699 4
2599 2598 2
2600 2500 1
2600 2601 1
2600 2700 2
2601 2501 4
2601 2602 4
2601 2701 3
2601 2600 5
2602 2502 2
2602 2603 4
2602 2702 1
2602 2601 4
2603 2503 4
2603 2604 3
2603 2703 4
2603 2602 3
2604 2504 1
2604 2605 1
2604 2704 1
2604 2603 1
2605 2505 1
2605 2606 4
2605 2705 5
2605 2604 2
2606 2506 1
2606 2607 5
2606 2706 5
2606 2605 5
2607 2507 4
2607 2608 3
2607 2707 1
2607 2606 5
2608 2508 2
2608 2609 4
2608 2708 4
2608 2607 4
2609 2509 3
2609 2610 5
2609 2709 2
2609 2608 1
2610 2510 3
2610 2611 1
2610 2710 5
2610 2609 2
2611 2511 4
2611 2612 1
2611 2711 4
2611 2610 5
2612 2512 5
2612 2613 5
2612 2712 4
2612 2611 1
2613 2513 5
2613 2614 5
2613 2713 5
2613 2612 1
2614 2514 2
2614 2615 1
2614 2714 2
2614 2613 5
2615 2515 2
2615 2616 1
2615 2715 5
2615 2614 4
2616 2516 3
2616 2617 1
2616 2716 1
2616 2615 2
2617 2517 5
2617 2618 2
2617 2717 2
2617 2616 1
2618 2518 5
2618 2619 3
2618 2718 1
2618 2617 1
2619 2519 1
2619 2620 5
2619 2719 3
2619 2618 3
2620 2520 5
2620 2621 2
2620 2720 4
2620 2619 1
2621 2521 2
2621 2622 3
2621 2721 1
2621 2620 5
2622 2522 3
2622 2623 5
2622 2722 4
2622 2621 2
2623 2523 5
2623 2624 4
2623 2723 3
2623 2622 5
2624 2524 3
2624 2625 5
2624 2724 5
2624 2623 5
2625 2525 2
2625 2626 1
2625 2725 1
2625 2624 2
2626 2526 1
2626 2627 2
2626 2726 2
2626 2625 3
2627 2527 2
2627 2628 2
2627 2727 5
2627 2626 5
2628 2528 2
2628 2629 5
2628 2728 3
2628 2627 3
2629 2529 2
2629 2630 5
2629 2729 4
2629 2628 1
2630 2530 5
2630 2631 3
2630 2730 3
2630 2629 4
2631 2531 2
2631 2632 4
2631 2731 4
2631 2630 1
2632 2532 3
2632 2633 4
2632 2732 2
2632 2631 5
2633 2533 2
2633 2634 1
2633 2733 3
2633 2632 2
2634 2534 3
2634 2635 5
2634 2734 5
2634 2633 5
2635 2535 2
2635 2636 4
2635 2735 2
2635 2634 3
2636 2536 4
2636 2637 4
2636 2736 1
2636 2635 5
2637 2537 2
2637 2638 1
2637 2737 3
2637 2636 1
2638 2538 5
2638 2639 1
2638 2738 5
2638 2637 4
2639 2539 1
2639 2640 3
2639 2739 1
2639 2638 3
2640 2540 3
2640 2641 3
2640 2740 2
2640 2639 2
2641 2541 3
2641 2642 1
2641 2741 1
2641 2640 4
2642 2542 2
2642 2643 4
2642 2742 1
2642 2641 1
2643 2543 2
2643 2644 5
2643 2743 3
2643 2642 5
2644 2544 4
2644 2645 1
2644 2744 5
2644 2643 3
2645 2545 5
2645 2646 3
2645 2745 5
2645 2644 3
2646 2546 5
2646 2647 1
2646 2746 1
2646 2645 2
2647 2547 3
2647 2648 4
2647 2747 2
2647 2646 3
2648 2548 5
2648 2649 5
2648 2748 5
2648 2647 4
2649 2549 4
2649 2650 5
2649 2749 2
2649 2648 3
2650 2550 1
2650 2651 5
2650 2750 2
2650 2649 2
2651 2551 2
2651 2652 4
2651 2751 5
2651 2650 3
2652 2552 1
2652 2653 3
2652 2752 2
2652 2651 5
2653 2553 4
2653 2654 4
2653 2753 2
2653 2652 4
2654 2554 3
2654 2655 4
2654 2754 5
2654 2653 3
2655 2555 3
2655 2656 4
2655 2755 5
2655 2654 2
2656 2556 3
2656 2657 1
2656 2756 3
2656 2655 4
2657 2557 3
2657 2658 1
2657 2757 1
2657 2656 1
2658 2558 2
2658 2659 1
2658 2758 2
2658 2657 5
2659 2559 1
2659 2660 1
2659 2759 3
2659 2658 5
2660 2560 4
2660 2661 1
2660 2760 4
2660 2659 5
2661 2561 2
2661 2662 4
2661 2761 4
2661 2660 5
2662 2562 5
2662 2663 1
2662 2762 4
2662 2661 1
2663 2563 5
2663 2664 2
2663 2763 1
2663 2662 4
2664 2564 5
2664 2665 3
2664 2764 2
2664 2663 5
2665 2565 5
2665 2666 1
2665 2765 5
2665 2664 4
2666 2566 2
2666 2667 5
2666 2766 2
2666 2665 2
2667 2567 1
2667 2668 3
2667 2767 2
2667 2666 5
2668 2568 3
2668 2669 1
2668 2768 4
2668 2667 4
2669 2569 4
2669 2670 2
2669 2769 3
2669 2668 1
2670 2570 3
2670 2671 2
2670 2770 5
2670 2669 1
2671 2571 3
2671 2672 3
2671 2771 4
2671 2670 3
2672 2572 3
2672 2673 2
2672 2772 1
2672 2671 5
2673 2573 4
2673 2674 2
2673 2773 3
2673 2672 5
2674 2574 1
2674 2675 4
2674 2774 5
2674 2673 4
2675 2575 1
2675 2676 3
2675 2775 1
2675 2674 5
2676 2576 4
2676 2677 3
2676 2776 3
2676 2675 3
2677 2577 1
2677 2678 1
2677 2777 3
2677 2676 2
2678 2578 4
2678 2679 3
2678 2778 1
2678 2677 1
2679 2579 4
2679 2680 4
2679 2779 2
2679 2678 1
2680 2580 5
2680 2681 5
2680 2780 2
2680 2679 4
2681 2581 1
2681 2682 4
2681 2781 1
2681 2680 2
2682 2582 3
2682 2683 2
2682 2782 4
2682 2681 4
2683 2583 3
2683 2684 3
2683 2783 3
2683 2682 4
2684 2584 2
2684 2685 5
2684 2784 3
2684 2683 1
2685 2585 4
2685 2686 4
2685 2785 2
2685 2684 2
2686 2586 3
2686 2687 4
2686 2786 1
2686 2685 3
2687 2587 2
2687 2688 1
2687 2787 2
2687 2686 3
2688 2588 1
2688 2689 2
2688 2788 4
2688 2687 4
2689 2589 3
2689 2690 1
2689 2789 2
2689 2688 2
2690 2590 4
2690 2691 3
2690 2790 1
2690 2689 4
2691 2591 4
2691 2692 5
2691 2791 4
2691 2690 2
2692 2592 3
2692 2693 4
2692 2792 5
2692 2691 4
2693 2593 2
2693 2694 1
2693 2793 1
2693 2692 1
2694 2594 2
2694 2695 2
2694 2794 3
2694 2693 5
2695 2595 1
2695 2696 2
2695 2795 1
2695 2694 3
2696 2596 4
2696 2697 5
2696 2796 1
2696 2695 4
2697 2597 4
2697 2698 3
2697 2797 3
2697 2696 4
2698 2598 1
2698 2699 4
2698 2798 2
2698 2697 5
2699 2599 2
2699 2799 5
2699 2698 2
2700 2600 2
2700 2701 3
2700 2800 1
2701 2601 3
2701 2702 2
2701 2801 4
2701 2700 2
2702 2602 4
2702 2703 1
2702 2802 5
2702 2701 5
2703 2603 2
2703 2704 2
2703 2803 5
2703 2702 2
2704 2604 2
2704 2705 1
2704 2804 2
2704 2703 4
2705 2605 1
2705 2706 3
2705 2805 2
2705 2704 2
2706 2606 4
2706 2707 1
2706 2806 5
2706 2705 2
2707 2607 1
2707 2708 1
2707 2807 4
2707 2706 4
2708 2608 5
2708 2709 3
2708 2808 2
2708 2707 2
2709 2609 3
2709 2710 4
2709 2809 4
2709 2708 1
2710 2610 5
2710 2711 4
2710 2810 1
2710 2709 3
2711 2611 1
2711 2712 3
2711 2811 3
2711 2710 3
2712 2612 3
2712 2713 4
2712 2812 2
2712 2711 3
2713 2613 1
2713 2714 2
2713 2813 1
2713 2712 1
2714 2614 1
2714 2715 3
2714 2814 2
2714 2713 3
2715 2615 4
2715 2716 3
2715 2815 5
2715 2714 1
2716 2616 4
2716 2717 2
2716 2816 3
2716 2715 4
2717 2617 3
2717 2718 3
2717 2817 3
2717 2716 1
2718 2618 1
2718 2719 1
2718 2818 5
2718 2717 2
2719 2619 3
2719 2720 3
2719 2819 3
2719 2718 5
2720 2620 5
2720 2721 5
2720 2820 3
2720 2719 2
2721 2621 3
2721 2722 2
2721 2821 5
2721 2720 4
2722 2622 1
2722 2723 1
2722 2822 2
2722 2721 5
2723 2623 1
2723 2724 1
2723 2823 5
2723 2722 2
2724 2624 2
2724 2725 4
2724 2824 1
2724 2723 1
2725 2625 5
2725 2726 5
2725 2825 3
2725 2724 3
2726 2626 4
2726 2727 2
2726 2826 5
2726 2725 2
2727 2627 1
2727 2728 2
2727 2827 2
2727 2726 4
2728 2628 5
2728 2729 3
2728 2828 5
2728 2727 3
2729 2629 3
2729 2730 4
2729 2829 1
2729 2728 4
2730 2630 1
2730 2731 4
2730 2830 4
2730 2729 5
2731 2631 5
2731 2732 1
2731 2831 2
2731 2730 5
2732 2632 3
2732 2733 2
2732 2832 3
2732 2731 1
2733 2633 5
2733 2734 1
2733 2833 2
2733 2732 4
2734 2634 4
2734 2735 5
2734 2834 5
2734 2733 1
2735 2635 2
2735 2736 4
2735 2835 5
2735 2734 4
2736 2636 5
2736 2737 4
2736 2836 4
2736 2735 5
2737 2637 3
2737 2738 2
2737 2837 2
2737 2736 1
2738 2638 2
2738 2739 5
2738 2838 2
2738 2737 5
2739 2639 1
2739 2740 5
2739 2839 4
2739 2738 5
2740 2640 5
2740 2741 3
2740 2840 3
2740 2739 2
2741 2641 3
2741 2742 3
2741 2841 5
2741 2740 1
2742 2642 2
2742 2743 2
2742 2842 1
2742 2741 5
2743 2643 2
2743 2744 3
2743 2843 1
2743 2742 2
2744 2644 3
2744 2745 2
2744 2844 3
2744 2743 1
2745 2645 2
2745 2746 2
2745 2845 5
2745 2744 1
2746 2646 1
2746 2747 3
2746 2846 5
2746 2745 3
2747 2647 3
2747 2748 1
2747 2847 5
2747 2746 3
2748 2648 2
2748 2749 4
2748 2848 5
2748 2747 3
2749 2649 3
2749 2750 1
2749 2849 1
2749 2748 3
2750 2650 2
2750 2751 3
2750 2850 2
2750 2749 3
2751 2651 1
2751 2752 5
2751 2851 5
2751 2750 1
2752 2652 4
2752 2753 3
2752 2852 5
2752 2751 5
2753 2653 2
2753 2754 4
2753 2853 2
2753 2752 3
2754 2654 3
2754 2755 2
2754 2854 5
2754 2753 4
2755 2655 2
2755 2756 4
2755 2855 2
2755 2754 4
2756 2656 3
2756 2757 2
2756 2856 4
2756 2755 1
2757 2657 4
2757 2758 2
2757 2857 4
2757 2756 2
2758 2658 2
2758 2759 2
2758 2858 5
2758 2757 4
2759 2659 2
2759 2760 3
2759 2859 1
2759 2758 3
2760 2660 2
2760 2761 2
2760 2860 4
2760 2759 5
2761 2661 2
2761 2762 1
2761 2861 2
2761 2760 1
2762 2662 4
2762 2763 2
2762 2862 4
2762 2761 4
2763 2663 1
2763 2764 5
2763 2863 2
2763 2762 1
2764 2664 5
2764 2765 1
2764 2864 4
2764 2763 4
2765 2665 1
2765 2766 1
2765 2865 1
2765 2764 1
2766 2666 2
2766 2767 2
2766 2866 1
2766 2765 3
2767 2667 2
2767 2768 5
2767 2867 1
2767 2766 1
2768 2668 1
2768 2769 5
2768 2868 3
2768 2767 1
2769 2669 2
2769 2770 2
2769 2869 4
2769 2768 5
2770 2670 4
2770 2771 2
2770 2870 3
2770 2769 3
2771 2671 4
2771 2772 2
2771 2871 2
2771 2770 1
2772 2672 5
2772 2773 3
2772 2872 5
2772 2771 1
2773 2673 1
2773 2774 1
2773 2873 1
2773 2772 5
2774 2674 3
2774 2775 1
2774 2874 5
2774 2773 4
2775 2675 2
2775 2776 1
2775 2875 2
2775 2774 1
2776 2676 2
2776 2777 4
2776 2876 4
2776 2775 2
2777 2677 3
2777 2778 3
2777 2877 2
2777 2776 4
2778 2678 1
2778 2779 4
2778 2878 2
2778 2777 1
2779 2679 2
2779 2780 1
2779 2879 3
2779 2778 3
2780 2680 1
2780 2781 5
2780 2880 3
2780 2779 1
2781 2681 3
2781 2782 1
2781 2881 1
2781 2780 5
2782 2682 2
2782 2783 2
2782 2882 4
2782 2781 5
2783 2683 3
2783 2784 5
2783 2883 2
2783 2782 4
2784 2684 2
2784 2785 3
2784 2884 5
2784 2783 3
2785 2685 3
2785 2786 1
2785 2885 3
2785 2784 4
2786 2686 3
2786 2787 3
2786 2886 1
2786 2785 1
2787 2687 2
2787 2788 2
2787 2887 3
2787 2786 2
2788 2688 4
2788 2789 4
2788 2888 4
2788 2787 1
2789 2689 1
2789 2790 5
2789 2889 4
2789 2788 3
2790 2690 2
2790 2791 1
2790 2890 3
2790 2789 2
2791 2691 2
2791 2792 4
2791 2891 3
2791 2790 3
2792 2692 4
2792 2793 4
2792 2892 4
2792 2791 4
2793 2693 5
2793 2794 3
2793 2893 2
2793 2792 2
2794 2694 4
2794 2795 4
2794 2894 5
2794 2793 4
2795 2695 5
2795 2796 5
2795 2895 4
2795 2794 5
2796 2696 5
2796 2797 2
2796 2896 4
2796 2795 1
2797 2697 5
2797 2798 4
2797 2897 5
2797 2796 5
2798 2698 2
2798 2799 1
2798 2898 2
2798 2797 3
2799 2699 1
2799 2899 2
2799 2798 1
2800 2700 3
2800 2801 5
2800 2900 4
2801 2701 2
2801 2802 1
2801 2901 1
2801 2800 3
2802 2702 3
2802 2803 2
2802 2902 3
2802 2801 4
2803 2703 2
2803 2804 5
2803 2903 4
2803 2802 2
2804 2704 2
2804 2805 2
2804 2904 1
2804 2803 2
2805 2705 1
2805 2806 2
2805 2905 4
2805 2804 1
2806 2706 4
2806 2807 3
2806 2906 1
2806 2805 1
2807 2707 5
2807 2808 1
2807 2907 4
2807 2806 5
2808 2708 2
2808 2809 1
2808 2908 2
2808 2807 3
2809 2709 2
2809 2810 1
2809 2909 2
2809 2808 1
2810 2710 1
2810 2811 5
2810 2910 4
2810 2809 2
2811 2711 2
2811 2812 4
2811 2911 2
2811 2810 5
2812 2712 3
2812 2813 4
2812 2912 4
2812 2811 3
2813 2713 4
2813 2814 1
2813 2913 3
2813 2812 1
2814 2714 2
2814 2815 1
2814 2914 1
2814 2813 5
2815 2715 2
2815 2816 5
2815 2915 2
2815 2814 1
2816 2716 4
2816 2817 4
2816 2916 4
2816 2815 5
2817 2717 3
2817 2818 5
2817 2917 5
2817 2816 3
2818 2718 2
2818 2819 4
2818 2918 2
2818 2817 3
2819 2719 1
2819 2820 5
2819 2919 4
2819 2818 2
2820 2720 2
2820 2821 4
2820 2920 5
2820 2819 1
2821 2721 2
2821 2822 4
2821 2921 2
2821 2820 5
2822 2722 5
2822 2823 1
2822 2922 4
2822 2821 4
2823 2723 3
2823 2824 4
2823 2923 4
2823 2822 2
2824 2724 1
2824 2825 3
2824 2924 4
2824 2823 2
2825 2725 3
2825 2826 1
2825 2925 1
2825 2824 1
2826 2726 3
2826 2827 5
2826 2926 3
2826 2825 1
2827 2727 2
2827 2828 3
2827 2927 2
2827 2826 5
2828 2728 1
2828 2829 1
2828 2928 2
2828 2827 5
2829 2729 1
2829 2830 3
2829 2929 2
2829 2828 5
2830 2730 2
2830 2831 1
2830 2930 2
2830 2829 3
2831 2731 1
2831 2832 5
2831 2931 5
2831 2830 1
2832 2732 5
2832 2833 4
2832 2932 1
2832 2831 1
2833 2733 3
2833 2834 1
2833 2933 3
2833 2832 1
2834 2734 3
2834 2835 3
2834 2934 4
2834 2833 5
2835 2735 2
2835 2836 3
2835 2935 4
2835 2834 3
2836 2736 2
2836 2837 1
2836 2936 3
2836 2835 4
2837 2737 5
2837 2838 1
2837 2937 5
2837 2836 2
2838 2738 1
2838 2839 5
2838 2938 4
2838 2837 4
2839 2739 5
2839 2840 1
2839 2939 3
2839 2838 2
2840 2740 2
2840 2841 4
2840 2940 1
2840 2839 1
2841 2741 2
2841 2842 2
2841 2941 2
2841 2840 2
2842 2742 5
2842 2843 5
2842 2942 5
2842 2841 5
2843 2743 3
2843 2844 4
2843 2943 2
2843 2842 3
2844 2744 3
2844 2845 3
2844 2944 5
2844 2843 4
2845 2745 1
2845 2846 4
2845 2945 2
2845 2844 2
2846 2746 5
2846 2847 5
2846 2946 1
2846 2845 2
2847 2747 5
2847 2848 4
2847 2947 1
2847 2846 1
2848 2748 2
2848 2849 3
2848 2948 5
2848 2847 1
2849 2749 4
2849 2850 1
2849 2949 4
2849 2848 3
2850 2750 2
2850 2851 3
2850 2950 2
2850 2849 1
2851 2751 3
2851 2852 5
2851 2951 3
2851 2850 3
2852 2752 1
2852 2853 1
2852 2952 2
2852 2851 4
2853 2753 3
2853 2854 4
2853 2953 3
2853 2852 4
2854 2754 2
2854 2855 1
2854 2954 5
2854 2853 4
2855 2755 1
2855 2856 3
2855 2955 3
2855 2854 4
2856 2756 4
2856 2857 5
2856 2956 2
2856 2855 4
2857 2757 3
2857 2858 5
2857 2957 5
2857 2856 3
2858 2758 3
2858 2859 1
2858 2958 4
2858 2857 5
2859 2759 4
2859 2860 3
2859 2959 1
2859 2858 5
2860 2760 1
2860 2861 2
2860 2960 5
2860 2859 1
2861 2761 2
2861 2862 1
2861 2961 3
2861 2860 4
2862 2762 2
2862 2863 5
2862 2962 4
2862 2861 1
2863 2763 2
2863 2864 4
2863 2963 4
2863 2862 1
2864 2764 3
2864 2865 4
2864 2964 4
2864 2863 5
2865 2765 4
2865 2866 1
2865 2965 1
2865 2864 2
2866 2766 1
2866 2867 4
2866 2966 4
2866 2865 2
2867 2767 4
2867 2868 3
2867 2967 1
2867 2866 3
2868 2768 3
2868 2869 5
2868 2968 4
2868 2867 2
2869 2769 4
2869 2870 1
2869 2969 3
2869 2868 4
2870 2770 1
2870 2871 5
2870 2970 2
2870 2869 4
2871 2771 2
2871 2872 2
2871 2971 3
2871 2870 5
2872 2772 1
2872 2873 5
2872 2972 4
2872 2871 1
2873 2773 3
2873 2874 4
2873 2973 4
2873 2872 2
2874 2774 1
2874 2875 2
2874 2974 1
2874 2873 4
2875 2775 3
2875 2876 3
2875 2975 2
2875 2874 1
2876 2776 2
2876 2877 1
2876 2976 3
2876 2875 4
2877 2777 1
2877 2878 3
2877 2977 4
2877 2876 4
2878 2778 5
2878 2879 2
2878 2978 3
2878 2877 2
2879 2779 1
2879 2880 1
2879 2979 4
2879 2878 3
2880 2780 3
2880 2881 2
2880 2980 2
2880 2879 3
2881 2781 4
2881 2882 4
2881 2981 4
2881 2880 5
2882 2782 2
2882 2883 4
2882 2982 3
2882 2881 5
2883 2783 4
2883 2884 1
2883 2983 5
2883 2882 5
2884 2784 2
2884 2885 1
2884 2984 5
2884 2883 5
2885 2785 2
2885 2886 3
2885 2985 3
2885 2884 1
2886 2786 2
2886 2887 4
2886 2986 2
2886 2885 4
2887 2787 3
2887 2888 1
2887 2987 4
2887 2886 3
2888 2788 5
2888 2889 1
2888 2988 4
2888 2887 2
2889 2789 4
2889 2890 5
2889 2989 1
2889 2888 1
2890 2790 2
2890 2891 2
2890 2990 4
2890 2889 5
2891 2791 2
2891 2892 5
2891 2991 4
2891 2890 2
2892 2792 3
2892 2893 2
2892 2992 2
2892 2891 5
2893 2793 1
2893 2894 3
2893 2993 3
2893 2892 1
2894 2794 3
2894 2895 3
2894 2994 5
2894 2893 1
2895 2795 4
2895 2896 4
2895 2995 4
2895 2894 4
2896 2796 3
2896 2897 3
2896 2996 5
2896 2895 4
2897 2797 5
2897 2898 3
2897 2997 1
2897 2896 2
2898 2798 4
2898 2899 4
2898 2998 3
2898 2897 2
2899 2799 5
2899 2999 5
2899 2898 2
2900 2800 5
2900 2901 4
2900 3000 4
2901 2801 3
2901 2902 4
2901 3001 3
2901 2900 5
2902 2802 1
2902 2903 1
2902 3002 1
2902 2901 1
2903 2803 1
2903 2904 5
2903 3003 4
2903 2902 1
2904 2804 4
2904 2905 5
2904 3004 5
2904 2903 1
2905 2805 4
2905 2906 5
2905 3005 5
2905 2904 1
2906 2806 3
2906 2907 4
2906 3006 2
2906 2905 2
2907 2807 4
2907 2908 5
2907 3007 4
2907 2906 1
2908 2808 2
2908 2909 4
2908 3008 1
2908 2907 3
2909 2809 4
2909 2910 4
2909 3009 4
2909 2908 1
2910 2810 3
2910 2911 2
2910 3010 5
2910 2909 3
2911 2811 3
2911 2912 3
2911 3011 3
2911 2910 4
2912 2812 2
2912 2913 1
2912 3012 4
2912 2911 1
2913 2813 1
2913 2914 1
2913 3013 2
2913 2912 3
2914 2814 5
2914 2915 5
2914 3014 3
2914 2913 3
2915 2815 2
2915 2916 5
2915 3015 4
2915 2914 2
2916 2816 5
2916 2917 4
2916 3016 2
2916 2915 5
2917 2817 4
2917 2918 1
2917 3017 5
2917 2916 4
2918 2818 2
2918 2919 4
2918 3018 2
2918 2917 4
2919 2819 3
2919 2920 5
2919 3019 2
2919 2918 4
2920 2820 2
2920 2921 1
2920 3020 2
2920 2919 5
2921 2821 1
2921 2922 5
2921 3021 4
2921 2920 3
2922 2822 5
2922 2923 2
2922 3022 3
2922 2921 2
2923 2823 1
2923 2924 1
2923 3023 1
2923 2922 4
2924 2824 1
2924 2925 5
2924 3024 2
2924 2923 1
2925 2825 5
2925 2926 5
2925 3025 1
2925 2924 5
2926 2826 4
2926 2927 1
2926 3026 2
2926 2925 4
2927 2827 3
2927 2928 2
2927 3027 2
2927 2926 2
2928 2828 3
2928 2929 2
2928 3028 5
2928 2927 2
2929 2829 4
2929 2930 3
2929 3029 1
2929 2928 3
2930 2830 1
2930 2931 2
2930 3030 1
2930 2929 5
2931 2831 1
2931 2932 1
2931 3031 4
2931 2930 5
2932 2832 1
2932 2933 1
2932 3032 2
2932 2931 3
2933 2833 3
2933 2934 2
2933 3033 1
2933 2932 1
2934 2834 4
2934 2935 3
2934 3034 2
2934 2933 4
2935 2835 1
2935 2936 4
2935 3035 1
2935 2934 4
2936 2836 1
2936 2937 4
2936 3036 1
2936 2935 2
2937 2837 4
2937 2938 4
2937 3037 3
2937 2936 4
2938 2838 2
2938 2939 2
2938 3038 3
2938 2937 1
2939 2839 2
2939 2940 5
2939 3039 5
2939 2938 1
2940 2840 1
2940 2941 3
2940 3040 3
2940 2939 4
2941 2841 5
2941 2942 5
2941 3041 5
2941 2940 1
2942 2842 2
2942 2943 5
2942 3042 3
2942 2941 1
2943 2843 2
2943 2944 5
2943 3043 1
2943 2942 5
2944 2844 1
2944 2945 5
2944 3044 5
2944 2943 2
2945 2845 2
2945 2946 3
2945 3045 1
2945 2944 2
2946 2846 1
2946 2947 3
2946 3046 2
2946 2945 2
2947 2847 1
2947 2948 2
2947 3047 3
2947 2946 3
2948 2848 4
2948 2949 2
2948 3048 1
2948 2947 3
2949 2849 5
2949 2950 3
2949 3049 4
2949 2948 4
2950 2850 4
2950 2951 5
2950 3050 4
2950 2949 2
2951 2851 3
2951 2952 2
2951 3051 2
2951 2950 3
2952 2852 4
2952 2953 1
2952 3052 5
2952 2951 5
2953 2853 3
2953 2954 2
2953 3053 2
2953 2952 4
2954 2854 4
2954 2955 4
2954 3054 4
2954 2953 5
2955 2855 3
2955 2956 3
2955 3055 5
2955 2954 1
2956 2856 5
2956 2957 4
2956 3056 4
2956 2955 2
2957 2857 5
2957 2958 3
2957 3057 3
2957 2956 1
2958 2858 4
2958 2959 2
2958 3058 1
2958 2957 5
2959 2859 3
2959 2960 5
2959 3059 4
2959 2958 3
2960 2860 5
2960 2961 5
2960 3060 3
2960 2959 4
2961 2861 1
2961 2962 1
2961 3061 2
2961 2960 3
2962 2862 4
2962 2963 2
2962 3062 3
2962 2961 2
2963 2863 1
2963 2964 2
2963 3063 3
2963 2962 3
2964 2864 2
2964 2965 3
2964 3064 1
2964 2963 1
2965 2865 3
2965 2966 1
2965 3065 3
2965 2964 2
2966 2866 4
2966 2967 5
2966 3066 3
2966 2965 2
2967 2867 5
2967 2968 1
2967 3067 4
2967 2966 3
2968 2868 5
2968 2969 2
2968 3068 5
2968 2967 2
2969 2869 1
2969 2970 5
2969 3069 3
2969 2968 5
2970 2870 1
2970 2971 5
2970 3070 4
2970 2969 4
2971 2871 3
2971 2972 3
2971 3071 2
2971 2970 2
2972 2872 1
2972 2973 4
2972 3072 4
2972 2971 1
2973 2873 3
2973 2974 4
2973 3073 1
2973 2972 1
2974 2874 4
2974 2975 2
2974 3074 5
2974 2973 3
2975 2875 5
2975 2976 4
2975 3075 2
2975 2974 5
2976 2876 1
2976 2977 3
2976 3076 1
2976 2975 5
2977 2877 1
2977 2978 4
2977 3077 3
2977 2976 2
2978 2878 4
2978 2979 1
2978 3078 5
2978 2977 5
2979 2879 1
2979 2980 3
2979 3079 1
2979 2978 1
2980 2880 4
2980 2981 1
2980 3080 4
2980 2979 3
2981 2881 3
2981 2982 3
2981 3081 3
2981 2980 4
2982 2882 1
2982 2983 5
2982 3082 3
2982 2981 4
2983 2883 5
2983 2984 1
2983 3083 4
2983 2982 3
2984 2884 4
2984 2985 4
2984 3084 1
2984 2983 3
2985 2885 5
2985 2986 1
2985 3085 1
2985 2984 2
2986 2886 1
2986 2987 1
2986 3086 2
2986 2985 1
2987 2887 3
2987 2988 4
2987 3087 2
2987 2986 2
2988 2888 1
2988 2989 2
2988 3088 3
2988 2987 5
2989 2889 1
2989 2990 1
2989 3089 3
2989 2988 1
2990 2890 1
2990 2991 1
2990 3090 3
2990 2989 1
2991 2891 3
2991 2992 3
2991 3091 5
2991 2990 4
2992 2892 3
2992 2993 2
2992 3092 2
2992 2991 5
2993 2893 4
2993 2994 1
2993 3093 2
2993 2992 3
2994 2894 2
2994 2995 5
2994 3094 4
2994 2993 4
2995 2895 1
2995 2996 5
2995 3095 5
2995 2994 2
2996 2896 5
2996 2997 4
2996 3096 4
2996 2995 3
2997 2897 3
2997 2998 4
2997 3097 2
2997 2996 1
2998 2898 3
2998 2999 3
2998 3098 1
2998 2997 3
2999 2899 5
2999 3099 2
2999 2998 2
3000 2900 1
3000 3001 1
3000 3100 4
3001 2901 1
3001 3002 2
3001 3101 1
3001 3000 2
3002 2902 4
3002 3003 4
3002 3102 2
3002 3001 4
3003 2903 1
3003 3004 3
3003 3103 2
3003 3002 5
3004 2904 5
3004 3005 5
3004 3104 3
3004 3003 3
3005 2905 4
3005 3006 2
3005 3105 5
3005 3004 1
3006 2906 2
3006 3007 2
3006 3106 3
3006 3005 4
3007 2907 4
3007 3008 5
3007 3107 5
3007 3006 2
3008 2908 4
3008 3009 2
3008 3108 1
3008 3007 3
3009 2909 4
3009 3010 2
3009 3109 3
3009 3008 5
3010 2910 1
3010 3011 2
3010 3110 4
3010 3009 1
3011 2911 1
3011 3012 2
3011 3111 1
3011 3010 4
3012 2912 2
3012 3013 3
3012 3112 1
3012 3011 4
3013 2913 5
3013 3014 4
3013 3113 3
3013 3012 3
3014 2914 1
3014 3015 5
3014 3114 1
3014 3013 3
3015 2915 4
3015 3016 2
3015 3115 2
3015 3014 4
3016 2916 5
3016 3017 4
3016 3116 5
3016 3015 3
3017 2917 1
3017 3018 4
3017 3117 3
3017 3016 3
3018 2918 1
3018 3019 1
3018 3118 4
3018 3017 4
3019 2919 2
3019 3020 3
3019 3119 2
3019 3018 4
3020 2920 2
3020 3021 5
3020 3120 3
3020 3019 5
3021 2921 5
3021 3022 4
3021 3121 5
3021 3020 4
3022 2922 1
3022 3023 1
3022 3122 2
3022 3021 1
3023 2923 2
3023 3024 1
3023 3123 1
3023 3022 1
3024 2924 5
3024 3025 3
3024 3124 2
3024 3023 1
3025 2925 5
3025 3026 1
3025 3125 3
3025 3024 2
3026 2926 5
3026 3027 4
3026 3126 4
3026 3025 4
3027 2927 1
3027 3028 2
3027 3127 3
3027 3026 4
3028 2928 2
3028 3029 2
3028 3128 2
3028 3027 3
3029 2929 3
3029 3030 5
3029 3129 3
3029 3028 1
3030 2930 1
3030 3031 2
3030 3130 5
3030 3029 5
3031 2931 4
3031 3032 3
3031 3131 2
3031 3030 2
3032 2932 3
3032 3033 1
3032 3132 2
3032 3031 2
3033 2933 3
3033 3034 4
3033 3133 2
3033 3032 1
3034 2934 4
3034 3035 4
3034 3134 3
3034 3033 1
3035 2935 2
3035 3036 3
3035 3135 1
3035 3034 2
3036 2936 1
3036 3037 5
3036 3136 3
3036 3035 4
3037 2937 5
3037 3038 1
3037 3137 4
3037 3036 2
3038 2938 4
3038 3039 1
3038 3138 1
3038 3037 1
3039 2939 5
3039 3040 3
3039 3139 2
3039 3038 5
3040 2940 5
3040 3041 2
3040 3140 2
3040 3039 1
3041 2941 1
3041 3042 3
3041 3141 3
3041 3040 4
3042 2942 4
3042 3043 3
3042 3142 5
3042 3041 3
3043 2943 4
3043 3044 3
3043 3143 3
3043 3042 4
3044 2944 1
3044 3045 3
3044 3144 3
3044 3043 3
3045 2945 5
3045 3046 5
3045 3145 4
3045 3044 1
3046 2946 3
3046 3047 5
3046 3146 1
3046 3045 2
3047 2947 4
3047 3048 2
3047 3147 2
3047 3046 3
3048 2948 4
3048 3049 1
3048 3148 2
3048 3047 5
3049 2949 4
3049 3050 3
3049 3149 2
3049 3048 1
3050 2950 2
3050 3051 4
3050 3150 1
3050 3049 3
3051 2951 5
3051 3052 4
3051 3151 5
3051 3050 2
3052 2952 3
3052 3053 3
3052 3152 3
3052 3051 4
3053 2953 5
3053 3054 4
3053 3153 3
3053 3052 3
3054 2954 2
3054 3055 1
3054 3154 5
3054 3053 5
3055 2955 3
3055 3056 5
3055 3155 1
3055 3054 4
3056 2956 4
3056 3057 5
3056 3156 3
3056 3055 3
3057 2957 1
3057 3058 1
3057 3157 4
3057 3056 2
3058 2958 4
3058 3059 2
3058 3158 5
3058 3057 3
3059 2959 5
3059 3060 5
3059 3159 2
3059 3058 3
3060 2960 4
3060 3061 3
3060 3160 1
3060 3059 3
3061 2961 1
3061 3062 4
3061 3161 1
3061 3060 2
3062 2962 3
3062 3063 5
3062 3162 1
3062 3061 1
3063 2963 4
3063 3064 3
3063 3163 1
3063 3062 4
3064 2964 3
3064 3065 1
3064 3164 1
3064 3063 3
3065 2965 2
3065 3066 3
3065 3165 3
3065 3064 5
3066 2966 5
3066 3067 2
3066 3166 1
3066 3065 3
3067 2967 2
3067 3068 2
3067 3167 4
3067 3066 5
3068 2968 1
3068 3069 3
3068 3168 2
3068 3067 1
3069 2969 4
3069 3070 3
3069 3169 2
3069 3068 4
3070 2970 4
3070 3071 4
3070 3170 1
3070 3069 3
3071 2971 3
3071 3072 5
3071 3171 3
3071 3070 2
3072 2972 5
3072 3073 4
3072 3172 3
3072 3071 5
3073 2973 2
3073 3074 2
3073 3173 3
3073 3072 2
3074 2974 4
3074 3075 5
3074 3174 2
3074 3073 3
3075 2975 3
3075 3076 1
3075 3175 3
3075 3074 5
3076 2976 4
3076 3077 5
3076 3176 2
3076 3075 4
3077 2977 4
3077 3078 1
3077 3177 2
3077 3076 5
3078 2978 4
3078 3079 3
3078 3178 5
3078 3077 3
3079 2979 4
3079 3080 3
3079 3179 4
3079 3078 4
3080 2980 4
3080 3081 4
3080 3180 4
3080 3079 1
3081 2981 5
3081 3082 1
3081 3181 4
3081 3080 1
3082 2982 2
3082 3083 5
3082 3182 3
3082 3081 2
3083 2983 5
3083 3084 5
3083 3183 3
3083 3082 2
3084 2984 5
3084 3085 5
3084 3184 5
3084 3083 3
3085 2985 1
3085 3086 4
3085 3185 2
3085 3084 4
3086 2986 1
3086 3087 4
3086 3186 5
3086 3085 4
3087 2987 1
3087 3088 1
3087 3187 1
3087 3086 3
3088 2988 1
3088 3089 3
3088 3188 5
3088 3087 1
3089 2989 3
3089 3090 5
3089 3189 4
3089 3088 3
3090 2990 1
3090 3091 1
3090 3190 5
3090 3089 5
3091 2991 1
3091 3092 2
3091 3191 5
3091 3090 2
3092 2992 5
3092 3093 4
3092 3192 2
3092 3091 2
3093 2993 2
3093 3094 3
3093 3193 3
3093 3092 1
3094 2994 4
3094 3095 5
3094 3194 2
3094 3093 1
3095 2995 1
3095 3096 1
3095 3195 2
3095 3094 5
3096 2996 1
3096 3097 5
3096 3196 1
3096 3095 2
3097 2997 2
3097 3098 1
3097 3197 4
3097 3096 1
3098 2998 5
3098 3099 4
3098 3198 4
3098 3097 1
3099 2999 1
3099 3199 3
3099 3098 4
3100 3000 4
3100 3101 2
3100 3200 2
3101 3001 5
3101 3102 3
3101 3201 5
3101 3100 4
3102 3002 5
3102 3103 1
3102 3202 4
3102 3101 2
3103 3003 1
3103 3104 2
3103 3203 2
3103 3102 2
3104 3004 2
3104 3105 5
3104 3204 5
3104 3103 2
3105 3005 4
3105 3106 4
3105 3205 3
3105 3104 3
3106 3006 1
3106 3107 5
3106 3206 4
3106 3105 3
3107 3007 3
3107 3108 4
3107 3207 4
3107 3106 1
3108 3008 4
3108 3109 4
3108 3208 4
3108 3107 2
3109 3009 1
3109 3110 3
3109 3209 4
3109 3108 1
3110 3010 5
3110 3111 4
3110 3210 1
3110 3109 5
3111 3011 3
3111 3112 1
3111 3211 5
3111 3110 4
3112 3012 1
3112 3113 3
3112 3212 2
3112 3111 4
3113 3013 4
3113 3114 3
3113 3213 1
3113 3112 2
3114 3014 3
3114 3115 5
3114 3214 5
3114 3113 2
3115 3015 3
3115 3116 5
3115 3215 4
3115 3114 5
3116 3016 1
3116 3117 2
3116 3216 2
3116 3115 3
3117 3017 5
3117 3118 3
3117 3217 4
3117 3116 2
3118 3018 3
3118 3119 3
3118 3218 4
3118 3117 1
3119 3019 4
3119 3120 4
3119 3219 4
3119 3118 5
3120 3020 2
3120 3121 5
3120 3220 5
3120 3119 5
3121 3021 3
3121 3122 2
3121 3221 3
3121 3120 5
3122 3022 5
3122 3123 3
3122 3222 5
3122 3121 5
3123 3023 4
3123 3124 1
3123 3223 1
3123 3122 1
3124 3024 2
3124 3125 2
3124 3224 1
3124 3123 1
3125 3025 4
3125 3126 4
3125 3225 3
3125 3124 2
3126 3026 2
3126 3127 1
3126 3226 2
3126 3125 4
3127 3027 4
3127 3128 1
3127 3227 1
3127 3126 5
3128 3028 3
3128 3129 1
3128 3228 1
3128 3127 1
3129 3029 4
3129 3130 3
3129 3229 5
3129 3128 1
3130 3030 2
3130 3131 3
3130 3230 1
3130 3129 4
3131 3031 4
3131 3132 2
3131 3231 5
3131 3130 5
3132 3032 2
3132 3133 2
3132 3232 3
3132 3131 4
3133 3033 4
3133 3134 3
3133 3233 2
3133 3132 2
3134 3034 2
3134 3135 4
3134 3234 5
3134 3133 2
3135 3035 1
3135 3136 5
3135 3235 1
3135 3134 1
3136 3036 2
3136 3137 1
3136 3236 2
3136 3135 1
3137 3037 3
3137 3138 4
3137 3237 5
3137 3136 5
3138 3038 1
3138 3139 3
3138 3238 2
3138 3137 5
3139 3039 4
3139 3140 2
3139 3239 2
3139 3138 5
3140 3040 4
3140 3141 5
3140 3240 3
3140 3139 3
3141 3041 5
3141 3142 5
3141 3241 2
3141 3140 1
3142 3042 4
3142 3143 4
3142 3242 4
3142 3141 1
3143 3043 5
3143 3144 1
3143 3243 2
3143 3142 5
3144 3044 3
3144 3145 1
3144 3244 1
3144 3143 4
3145 3045 2
3145 3146 1
3145 3245 5
3145 3144 5
3146 3046 3
3146 3147 1
3146 3246 2
3146 3145 3
3147 3047 3
3147 3148 4
3147 3247 3
3147 3146 1
3148 3048 2
3148 3149 3
3148 3248 1
3148 3147 5
3149 3049 5
3149 3150 2
3149 3249 5
3149 3148 5
3150 3050 5
3150 3151 3
3150 3250 4
3150 3149 5
3151 3051 1
3151 3152 5
3151 3251 1
3151 3150 5
3152 3052 4
3152 3153 3
3152 3252 1
3152 3151 1
3153 3053 3
3153 3154 4
3153 3253 3
3153 3152 2
3154 3054 3
3154 3155 1
3154 3254 2
3154 3153 2
3155 3055 5
3155 3156 3
3155 3255 1
3155 3154 2
3156 3056 4
3156 3157 1
3156 3256 5
3156 3155 5
3157 3057 1
3157 3158 3
3157 3257 1
3157 3156 4
3158 3058 5
3158 3159 5
3158 3258 1
3158 3157 5
3159 3059 4
3159 3160 2
3159 3259 3
3159 3158 1
3160 3060 1
3160 3161 1
3160 3260 4
3160 3159 5
3161 3061 2
3161 3162 3
3161 3261 4
3161 3160 4
3162 3062 3
3162 3163 2
3162 3262 1
3162 3161 1
3163 3063 1
3163 3164 2
3163 3263 5
3163 3162 5
3164 3064 4
3164 3165 1
3164 3264 5
3164 3163 4
3165 3065 1
3165 3166 4
3165 3265 4
3165 3164 2
3166 3066 4
3166 3167 4
3166 3266 5
3166 3165 2
3167 3067 1
3167 3168 4
3167 3267 1
3167 3166 5
3168 3068 3
3168 3169 3
3168 3268 2
3168 3167 3
3169 3069 4
3169 3170 1
3169 3269 2
3169 3168 2
3170 3070 1
3170 3171 5
3170 3270 1
3170 3169 2
3171 3071 4
3171 3172 5
3171 3271 5
3171 3170 1
3172 3072 1
3172 3173 2
3172 3272 1
3172 3171 1
3173 3073 1
3173 3174 2
3173 3273 4
3173 3172 2
3174 3074 3
3174 3175 1
3174 3274 3
3174 3173 3
3175 3075 5
3175 3176 2
3175 3275 3
3175 3174 2
3176 3076 5
3176 3177 4
3176 3276 4
3176 3175 1
3177 3077 1
3177 3178 1
3177 3277 3
3177 3176 5
3178 3078 2
3178 3179 4
3178 3278 3
3178 3177 2
3179 3079 4
3179 3180 3
3179 3279 3
3179 3178 5
3180 3080 3
3180 3181 2
3180 3280 5
3180 3179 3
3181 3081 3
3181 3182 5
3181 3281 5
3181 3180 1
3182 3082 1
3182 3183 3
3182 3282 4
3182 3181 5
3183 3083 4
3183 3184 3
3183 3283 1
3183 3182 2
3184 3084 2
3184 3185 5
3184 3284 2
3184 3183 3
3185 3085 5
3185 3186 2
3185 3285 1
3185 3184 3
3186 3086 2
3186 3187 1
3186 3286 2
3186 3185 4
3187 3087 4
3187 3188 1
3187 3287 1
3187 3186 4
3188 3088 1
3188 3189 3
3188 3288 3
3188 3187 5
3189 3089 4
3189 3190 3
3189 3289 1
3189 3188 1
3190 3090 3
3190 3191 5
3190 3290 4
3190 3189 4
3191 3091 1
3191 3192 4
3191 3291 4
3191 3190 4
3192 3092 1
3192 3193 2
3192 3292 2
3192 3191 4
3193 3093 2
3193 3194 4
3193 3293 5
3193 3192 1
3194 3094 3
3194 3195 1
3194 3294 5
3194 3193 3
3195 3095 1
3195 3196 5
3195 3295 3
3195 3194 3
3196 3096 5
3196 3197 2
3196 3296 1
3196 3195 3
3197 3097 5
3197 3198 4
3197 3297 4
3197 3196 1
3198 3098 1
3198 3199 5
3198 3298 4
3198 3197 3
3199 3099 5
3199 3299 4
3199 3198 4
3200 3100 5
3200 3201 5
3200 3300 5
3201 3101 3
3201 3202 2
3201 3301 4
3201 3200 4
3202 3102 2
3202 3203 2
3202 3302 1
3202 3201 3
3203 3103 3
3203 3204 1
3203 3303 2
3203 3202 5
3204 3104 3
3204 3205 3
3204 3304 5
3204 3203 4
3205 3105 1
3205 3206 5
3205 3305 3
3205 3204 3
3206 3106 3
3206 3207 3
3206 3306 5
3206 3205 1
3207 3107 1
3207 3208 3
3207 3307 5
3207 3206 3
3208 3108 3
3208 3209 2
3208 3308 4
3208 3207 4
3209 3109 1
3209 3210 4
3209 3309 1
3209 3208 4
3210 3110 1
3210 3211 3
3210 3310 4
3210 3209 5
3211 3111 2
3211 3212 4
3211 3311 1
3211 3210 5
3212 3112 1
3212 3213 3
3212 3312 5
3212 3211 5
3213 3113 3
3213 3214 1
3213 3313 4
3213 3212 2
3214 3114 3
3214 3215 3
3214 3314 3
3214 3213 4
3215 3115 2
3215 3216 2
3215 3315 2
3215 3214 2
3216 3116 5
3216 3217 1
3216 3316 2
3216 3215 1
3217 3117 1
3217 3218 2
3217 3317 5
3217 3216 4
3218 3118 5
3218 3219 3
3218 3318 1
3218 3217 5
3219 3119 2
3219 3220 1
3219 3319 3
3219 3218 3
3220 3120 1
3220 3221 3
3220 3320 5
3220 3219 1
3221 3121 5
3221 3222 2
3221 3321 3
3221 3220 1
3222 3122 1
3222 3223 5
3222 3322 4
3222 3221 1
3223 3123 5
3223 3224 1
3223 3323 2
3223 3222 2
3224 3124 3
3224 3225 5
3224 3324 3
3224 3223 4
3225 3125 1
3225 3226 4
3225 3325 3
3225 3224 2
3226 3126 1
3226 3227 3
3226 3326 5
3226 3225 3
3227 3127 3
3227 3228 4
3227 3327 3
3227 3226 4
3228 3128 3
3228 3229 5
3228 3328 1
3228 3227 2
3229 3129 3
3229 3230 1
3229 3329 3
3229 3228 2
3230 3130 5
3230 3231 1
3230 3330 1
3230 3229 5
3231 3131 2
3231 3232 3
3231 3331 5
3231 3230 5
3232 3132 5
3232 3233 3
3232 3332 2
3232 3231 4
3233 3133 5
3233 3234 1
3233 3333 2
3233 3232 4
3234 3134 1
3234 3235 1
3234 3334 2
3234 3233 5
3235 3135 5
3235 3236 5
3235 3335 5
3235 3234 4
3236 3136 5
3236 3237 1
3236 3336 5
3236 3235 1
3237 3137 5
3237 3238 4
3237 3337 5
3237 3236 5
3238 3138 4
3238 3239 3
3238 3338 3
3238 3237 2
3239 3139 5
3239 3240 3
3239 3339 2
3239 3238 3
3240 3140 2
3240 3241 3
3240 3340 2
3240 3239 4
3241 3141 3
3241 3242 1
3241 3341 2
3241 3240 4
3242 3142 4
3242 3243 3
3242 3342 1
3242 3241 3
3243 3143 5
3243 3244 5
3243 3343 1
3243 3242 3
3244 3144 4
3244 3245 5
3244 3344 2
3244 3243 4
3245 3145 4
3245 3246 2
3245 3345 5
3245 3244 2
3246 3146 5
3246 3247 2
3246 3346 4
3246 3245 5
3247 3147 2
3247 3248 5
3247 3347 3
3247 3246 3
3248 3148 3
3248 3249 3
3248 3348 1
3248 3247 1
3249 3149 4
3249 3250 4
3249 3349 5
3249 3248 2
3250 3150 5
3250 3251 4
3250 3350 2
3250 3249 2
3251 3151 4
3251 3252 1
3251 3351 2
3251 3250 1
3252 3152 4
3252 3253 3
3252 3352 5
3252 3251 4
3253 3153 1
3253 3254 2
3253 3353 1
3253 3252 4
3254 3154 1
3254 3255 2
3254 3354 1
3254 3253 2
3255 3155 5
3255 3256 5
3255 3355 4
3255 3254 4
3256 3156 3
3256 3257 2
3256 3356 4
3256 3255 5
3257 3157 2
3257 3258 3
3257 3357 1
3257 3256 3
3258 3158 3
3258 3259 5
3258 3358 5
3258 3257 5
3259 3159 1
3259 3260 1
3259 3359 1
3259 3258 3
3260 3160 4
3260 3261 4
3260 3360 4
3260 3259 4
3261 3161 3
3261 3262 4
3261 3361 2
3261 3260 2
3262 3162 5
3262 3263 5
3262 3362 1
3262 3261 2
3263 3163 1
3263 3264 5
3263 3363 5
3263 3262 3
3264 3164 4
3264 3265 4
3264 3364 3
3264 3263 4
3265 3165 2
3265 3266 5
3265 3365 5
3265 3264 3
3266 3166 1
3266 3267 2
3266 3366 3
3266 3265 4
3267 3167 3
3267 3268 1
3267 3367 5
3267 3266 5
3268 3168 5
3268 3269 5
3268 3368 5
3268 3267 4
3269 3169 3
3269 3270 3
3269 3369 4
3269 3268 3
3270 3170 2
3270 3271 2
3270 3370 1
3270 3269 2
3271 3171 4
3271 3272 5
3271 3371 3
3271 3270 5
3272 3172 5
3272 3273 3
3272 3372 1
3272 3271 3
3273 3173 3
3273 3274 2
3273 3373 1
3273 3272 3
3274 3174 3
3274 3275 4
3274 3374 4
3274 3273 2
3275 3175 2
3275 3276 3
3275 3375 3
3275 3274 5
3276 3176 1
3276 3277 2
3276 3376 3
3276 3275 2
3277 3177 1
3277 3278 2
3277 3377 5
3277 3276 5
3278 3178 2
3278 3279 1
3278 3378 5
3278 3277 1
3279 3179 5
3279 3280 5
3279 3379 2
3279 3278 1
3280 3180 4
3280 3281 1
3280 3380 3
3280 3279 2
3281 3181 3
3281 3282 5
3281 3381 4
3281 3280 4
3282 3182 5
3282 3283 2
3282 3382 4
3282 3281 3
3283 3183 1
3283 3284 1
3283 3383 4
3283 3282 4
3284 3184 4
3284 3285 3
3284 3384 1
3284 3283 2
3285 3185 3
3285 3286 1
3285 3385 3
3285 3284 1
3286 3186 2
3286 3287 1
3286 3386 3
3286 3285 2
3287 3187 5
3287 3288 3
3287 3387 3
3287 3286 4
3288 3188 5
3288 3289 1
3288 3388 3
3288 3287 1
3289 3189 4
3289 3290 1
3289 3389 5
3289 3288 3
3290 3190 2
3290 3291 5
3290 3390 1
3290 3289 1
3291 3191 2
3291 3292 2
3291 3391 5
3291 3290 4
3292 3192 2
3292 3293 2
3292 3392 3
3292 3291 4
3293 3193 2
3293 3294 4
3293 3393 2
3293 3292 4
3294 3194 3
3294 3295 2
3294 3394 2
3294 3293 1
3295 3195 5
3295 3296 2
3295 3395 1
3295 3294 4
3296 3196 1
3296 3297 4
3296 3396 5
3296 3295 5
3297 3197 2
3297 3298 2
3297 3397 1
3297 3296 4
3298 3198 3
3298 3299 5
3298 3398 4
3298 3297 5
3299 3199 2
3299 3399 3
3299 3298 4
3300 3200 5
3300 3301 2
3300 3400 3
3301 3201 2
3301 3302 3
3301 3401 4
3301 3300 4
3302 3202 4
3302 3303 5
3302 3402 3
3302 3301 5
3303 3203 4
3303 3304 3
3303 3403 1
3303 3302 2
3304 3204 1
3304 3305 3
3304 3404 4
3304 3303 4
3305 3205 3
3305 3306 2
3305 3405 4
3305 3304 1
3306 3206 2
3306 3307 4
3306 3406 3
3306 3305 1
3307 3207 3
3307 3308 4
3307 3407 2
3307 3306 4
3308 3208 4
3308 3309 5
3308 3408 4
3308 3307 2
3309 3209 1
3309 3310 3
3309 3409 3
3309 3308 5
3310 3210 2
3310 3311 4
3310 3410 1
3310 3309 5
3311 3211 3
3311 3312 3
3311 3411 3
3311 3310 4
3312 3212 4
3312 3313 4
3312 3412 4
3312 3311 4
3313 3213 3
3313 3314 1
3313 3413 3
3313 3312 4
3314 3214 2
3314 3315 3
3314 3414 1
3314 3313 3
3315 3215 4
3315 3316 4
3315 3415 2
3315 3314 5
3316 3216 2
3316 3317 5
3316 3416 2
3316 3315 1
3317 3217 5
3317 3318 5
3317 3417 3
3317 3316 2
3318 3218 5
3318 3319 5
3318 3418 1
3318 3317 1
3319 3219 4
3319 3320 1
3319 3419 3
3319 3318 3
3320 3220 5
3320 3321 1
3320 3420 1
3320 3319 5
3321 3221 2
3321 3322 3
3321 3421 5
3321 3320 2
3322 3222 2
3322 3323 5
3322 3422 4
3322 3321 2
3323 3223 3
3323 3324 2
3323 3423 3
3323 3322 3
3324 3224 4
3324 3325 2
3324 3424 5
3324 3323 2
3325 3225 1
3325 3326 1
3325 3425 1
3325 3324 5
3326 3226 1
3326 3327 5
3326 3426 4
3326 3325 4
3327 3227 1
3327 3328 2
3327 3427 3
3327 3326 3
3328 3228 1
3328 3329 2
3328 3428 2
3328 3327 1
3329 3229 3
3329 3330 1
3329 3429 4
3329 3328 4
3330 3230 2
3330 3331 3
3330 3430 1
3330 3329 1
3331 3231 1
3331 3332 5
3331 3431 4
3331 3330 1
3332 3232 1
3332 3333 5
3332 3432 5
3332 3331 2
3333 3233 1
3333 3334 5
3333 3433 4
3333 3332 2
3334 3234 5
3334 3335 3
3334 3434 3
3334 3333 4
3335 3235 5
3335 3336 1
3335 3435 3
3335 3334 3
3336 3236 4
3336 3337 2
3336 3436 1
3336 3335 3
3337 3237 5
3337 3338 4
3337 3437 4
3337 3336 3
3338 3238 4
3338 3339 1
3338 3438 2
3338 3337 4
3339 3239 5
3339 3340 3
3339 3439 4
3339 3338 3
3340 3240 5
3340 3341 5
3340 3440 2
3340 3339 4
3341 3241 1
3341 3342 4
3341 3441 4
3341 3340 3
3342 3242 5
3342 3343 1
3342 3442 4
3342 3341 2
3343 3243 5
3343 3344 1
3343 3443 4
3343 3342 2
3344 3244 4
3344 3345 3
3344 3444 4
3344 3343 5
3345 3245 1
3345 3346 3
3345 3445 3
3345 3344 2
3346 3246 1
3346 3347 1
3346 3446 5
3346 3345 2
3347 3247 2
3347 3348 4
3347 3447 5
3347 3346 2
3348 3248 1
3348 3349 2
3348 3448 4
3348 3347 5
3349 3249 4
3349 3350 5
3349 3449 5
3349 3348 2
3350 3250 1
3350 3351 4
3350 3450 3
3350 3349 4
3351 3251 3
3351 3352 3
3351 3451 2
3351 3350 1
3352 3252 3
3352 3353 5
3352 3452 5
3352 3351 4
3353 3253 1
3353 3354 3
3353 3453 2
3353 3352 5
3354 3254 4
3354 3355 5
3354 3454 4
3354 3353 3
3355 3255 2
3355 3356 3
3355 3455 4
3355 3354 4
3356 3256 5
3356 3357 5
3356 3456 1
3356 3355 1
3357 3257 4
3357 3358 1
3357 3457 4
3357 3356 2
3358 3258 1
3358 3359 2
3358 3458 5
3358 3357 1
3359 3259 2
3359 3360 2
3359 3459 4
3359 3358 1
3360 3260 1
3360 3361 4
3360 3460 4
3360 3359 2
3361 3261 5
3361 3362 4
3361 3461 2
3361 3360 5
3362 3262 4
3362 3363 4
3362 3462 1
3362 3361 3
3363 3263 1
3363 3364 4
3363 3463 3
3363 3362 3
3364 3264 5
3364 3365 3
3364 3464 5
3364 3363 3
3365 3265 5
3365 3366 2
3365 3465 2
3365 3364 3
3366 3266 5
3366 3367 2
3366 3466 5
3366 3365 3
3367 3267 5
3367 3368 5
3367 3467 3
3367 3366 4
3368 3268 4
3368 3369 2
3368 3468 3
3368 3367 2
3369 3269 2
3369 3370 5
3369 3469 4
3369 3368 1
3370 3270 3
3370 3371 4
3370 3470 2
3370 3369 2
3371 3271 4
3371 3372 1
3371 3471 1
3371 3370 3
3372 3272 2
3372 3373 2
3372 3472 1
3372 3371 5
3373 3273 4
3373 3374 3
3373 3473 1
3373 3372 1
3374 3274 5
3374 3375 4
3374 3474 5
3374 3373 2
3375 3275 1
3375 3376 3
3375 3475 5
3375 3374 2
3376 3276 3
3376 3377 1
3376 3476 2
3376 3375 3
3377 3277 3
3377 3378 4
3377 3477 5
3377 3376 3
3378 3278 3
3378 3379 5
3378 3478 4
3378 3377 3
3379 3279 5
3379 3380 5
3379 3479 2
3379 3378 1
3380 3280 5
3380 3381 2
3380 3480 1
3380 3379 2
3381 3281 3
3381 3382 2
3381 3481 3
3381 3380 5
3382 3282 1
3382 3383 2
3382 3482 5
3382 3381 5
3383 3283 4
3383 3384 3
3383 3483 5
3383 3382 5
3384 3284 5
3384 3385 3
3384 3484 5
3384 3383 4
3385 3285 2
3385 3386 2
3385 3485 1
3385 3384 2
3386 3286 2
3386 3387 1
3386 3486 5
3386 3385 2
3387 3287 2
3387 3388 2
3387 3487 4
3387 3386 1
3388 3288 3
3388 3389 1
3388 3488 1
3388 3387 2
3389 3289 5
3389 3390 4
3389 3489 4
3389 3388 4
3390 3290 3
3390 3391 3
3390 3490 5
3390 3389 1
3391 3291 2
3391 3392 5
3391 3491 4
3391 3390 4
3392 3292 4
3392 3393 4
3392 3492 3
3392 3391 3
3393 3293 5
3393 3394 3
3393 3493 5
3393 3392 1
3394 3294 5
3394 3395 2
3394 3494 2
3394 3393 3
3395 3295 2
3395 3396 4
3395 3495 5
3395 3394 4
3396 3296 4
3396 3397 3
3396 3496 1
3396 3395 5
3397 3297 4
3397 3398 3
3397 3497 2
3397 3396 1
3398 3298 3
3398 3399 4
3398 3498 3
3398 3397 4
3399 3299 2
3399 3499 5
3399 3398 5
3400 3300 2
3400 3401 4
3400 3500 3
3401 3301 2
3401 3402 1
3401 3501 2
3401 3400 4
3402 3302 3
3402 3403 5
3402 3502 2
3402 3401 1
3403 3303 5
3403 3404 3
3403 3503 3
3403 3402 1
3404 3304 3
3404 3405 3
3404 3504 5
3404 3403 1
3405 3305 5
3405 3406 3
3405 3505 1
3405 3404 3
3406 3306 4
3406 3407 4
3406 3506 1
3406 3405 3
3407 3307 3
3407 3408 1
3407 3507 5
3407 3406 1
3408 3308 4
3408 3409 5
3408 3508 4
3408 3407 4
3409 3309 2
3409 3410 4
3409 3509 5
3409 3408 1
3410 3310 1
3410 3411 3
3410 3510 1
3410 3409 5
3411 3311 2
3411 3412 2
3411 3511 2
3411 3410 1
3412 3312 4
3412 3413 1
3412 3512 1
3412 3411 4
3413 3313 1
3413 3414 3
3413 3513 1
3413 3412 5
3414 3314 3
3414 3415 2
3414 3514 5
3414 3413 1
3415 3315 3
3415 3416 3
3415 3515 2
3415 3414 5
3416 3316 3
3416 3417 5
3416 3516 1
3416 3415 4
3417 3317 4
3417 3418 1
3417 3517 1
3417 3416 2
3418 3318 5
3418 3419 2
3418 3518 3
3418 3417 1
3419 3319 2
3419 3420 4
3419 3519 1
3419 3418 3
3420 3320 5
3420 3421 2
3420 3520 5
3420 3419 4
3421 3321 2
3421 3422 1
3421 3521 3
3421 3420 3
3422 3322 5
3422 3423 3
3422 3522 1
3422 3421 3
3423 3323 4
3423 3424 5
3423 3523 1
3423 3422 5
3424 3324 4
3424 3425 1
3424 3524 1
3424 3423 1
3425 3325 2
3425 3426 1
3425 3525 2
3425 3424 3
3426 3326 5
3426 3427 1
3426 3526 2
3426 3425 1
3427 3327 2
3427 3428 3
3427 3527 4
3427 3426 1
3428 3328 2
3428 3429 3
3428 3528 2
3428 3427 2
3429 3329 3
3429 3430 1
3429 3529 4
3429 3428 3
3430 3330 2
3430 3431 3
3430 3530 2
3430 3429 5
3431 3331 3
3431 3432 4
3431 3531 2
3431 3430 2
3432 3332 3
3432 3433 2
3432 3532 2
3432 3431 3
3433 3333 3
3433 3434 4
3433 3533 3
3433 3432 1
3434 3334 4
3434 3435 3
3434 3534 5
3434 3433 3
3435 3335 3
3435 3436 5
3435 3535 4
3435 3434 2
3436 3336 1
3436 3437 5
3436 3536 4
3436 3435 2
3437 3337 5
3437 3438 5
3437 3537 2
3437 3436 4
3438 3338 3
3438 3439 3
3438 3538 2
3438 3437 3
3439 3339 5
3439 3440 5
3439 3539 3
3439 3438 1
3440 3340 5
3440 3441 2
3440 3540 3
3440 3439 2
3441 3341 4
3441 3442 3
3441 3541 1
3441 3440 1
3442 3342 5
3442 3443 2
3442 3542 4
3442 3441 2
3443 3343 4
3443 3444 5
3443 3543 3
3443 3442 3
3444 3344 5
3444 3445 4
3444 3544 5
3444 3443 1
3445 3345 3
3445 3446 1
3445 3545 3
3445 3444 1
3446 3346 2
3446 3447 4
3446 3546 4
3446 3445 3
3447 3347 3
3447 3448 1
3447 3547 2
3447 3446 3
3448 3348 3
3448 3449 2
3448 3548 4
3448 3447 5
3449 3349 2
3449 3450 1
3449 3549 4
3449 3448 5
3450 3350 4
3450 3451 5
3450 3550 5
3450 3449 4
3451 3351 4
3451 3452 4
3451 3551 2
3451 3450 3
3452 3352 3
3452 3453 5
3452 3552 3
3452 3451 4
3453 3353 4
3453 3454 3
3453 3553 1
3453 3452 2
3454 3354 5
3454 3455 1
3454 3554 4
3454 3453 4
3455 3355 3
3455 3456 5
3455 3555 4
3455 3454 5
3456 3356 1
3456 3457 2
3456 3556 5
3456 3455 2
3457 3357 3
3457 3458 5
3457 3557 5
3457 3456 2
3458 3358 5
3458 3459 2
3458 3558 2
3458 3457 3
3459 3359 1
3459 3460 1
3459 3559 3
3459 3458 2
3460 3360 3
3460 3461 4
3460 3560 4
3460 3459 2
3461 3361 4
3461 3462 1
3461 3561 2
3461 3460 2
3462 3362 2
3462 3463 3
3462 3562 3
3462 3461 1
3463 3363 2
3463 3464 2
3463 3563 2
3463 3462 4
3464 3364 1
3464 3465 2
3464 3564 2
3464 3463 5
3465 3365 3
3465 3466 1
3465 3565 4
3465 3464 2
3466 3366 3
3466 3467 1
3466 3566 4
3466 3465 5
3467 3367 4
3467 3468 2
3467 3567 4
3467 3466 4
3468 3368 4
3468 3469 2
3468 3568 1
3468 3467 4
3469 3369 2
3469 3470 3
3469 3569 2
3469 3468 4
3470 3370 3
3470 3471 3
3470 3570 4
3470 3469 5
3471 3371 4
3471 3472 5
3471 3571 1
3471 3470 3
3472 3372 4
3472 3473 5
3472 3572 1
3472 3471 2
3473 3373 5
3473 3474 2
3473 3573 2
3473 3472 3
3474 3374 3
3474 3475 3
3474 3574 5
3474 3473 1
3475 3375 5
3475 3476 5
3475 3575 4
3475 3474 1
3476 3376 2
3476 3477 2
3476 3576 4
3476 3475 2
3477 3377 1
3477 3478 2
3477 3577 3
3477 3476 4
3478 3378 1
3478 3479 3
3478 3578 4
3478 3477 2
3479 3379 4
3479 3480 2
3479 3579 3
3479 3478 3
3480 3380 4
3480 3481 4
3480 3580 1
3480 3479 3
3481 3381 4
3481 3482 2
3481 3581 2
3481 3480 4
3482 3382 5
3482 3483 1
3482 3582 4
3482 3481 1
3483 3383 3
3483 3484 1
3483 3583 4
3483 3482 1
3484 3384 2
3484 3485 3
3484 3584 2
3484 3483 5
3485 3385 5
3485 3486 4
3485 3585 4
3485 3484 1
3486 3386 4
3486 3487 4
3486 3586 4
3486 3485 1
3487 3387 3
3487 3488 4
3487 3587 3
3487 3486 1
3488 3388 5
3488 3489 4
3488 3588 5
3488 3487 3
3489 3389 4
3489 3490 3
3489 3589 5
3489 3488 3
3490 3390 1
3490 3491 2
3490 3590 4
3490 3489 5
3491 3391 4
3491 3492 1
3491 3591 2
3491 3490 1
3492 3392 3
3492 3493 5
3492 3592 3
3492 3491 2
3493 3393 5
3493 3494 5
3493 3593 4
3493 3492 4
3494 3394 1
3494 3495 4
3494 3594 3
3494 3493 1
3495 3395 1
3495 3496 4
3495 3595 4
3495 3494 3
3496 3396 1
3496 3497 5
3496 3596 3
3496 3495 3
3497 3397 4
3497 3498 3
3497 3597 3
3497 3496 1
3498 3398 5
3498 3499 3
3498 3598 2
3498 3497 3
3499 3399 3
3499 3599 4
3499 3498 1
3500 3400 4
3500 3501 3
3500 3600 3
3501 3401 1
3501 3502 5
3501 3601 1
3501 3500 3
3502 3402 1
3502 3503 5
3502 3602 4
3502 3501 2
3503 3403 2
3503 3504 1
3503 3603 5
3503 3502 1
3504 3404 2
3504 3505 2
3504 3604 4
3504 3503 4
3505 3405 3
3505 3506 3
3505 3605 4
3505 3504 5
3506 3406 2
3506 3507 5
3506 3606 5
3506 3505 4
3507 3407 1
3507 3508 1
3507 3607 3
3507 3506 3
3508 3408 1
3508 3509 2
3508 3608 5
3508 3507 1
3509 3409 4
3509 3510 5
3509 3609 1
3509 3508 3
3510 3410 3
3510 3511 4
3510 3610 4
3510 3509 1
3511 3411 2
3511 3512 3
3511 3611 1
3511 3510 4
3512 3412 1
3512 3513 2
3512 3612 5
3512 3511 3
3513 3413 3
3513 3514 5
3513 3613 5
3513 3512 5
3514 3414 2
3514 3515 1
3514 3614 3
3514 3513 5
3515 3415 4
3515 3516 2
3515 3615 4
3515 3514 3
3516 3416 2
3516 3517 3
3516 3616 5
3516 3515 1
3517 3417 5
3517 3518 4
3517 3617 2
3517 3516 3
3518 3418 3
3518 3519 1
3518 3618 4
3518 3517 2
3519 3419 1
3519 3520 4
3519 3619 2
3519 3518 3
3520 3420 3
3520 3521 4
3520 3620 5
3520 3519 3
3521 3421 1
3521 3522 2
3521 3621 2
3521 3520 1
3522 3422 3
3522 3523 2
3522 3622 1
3522 3521 5
3523 3423 3
3523 3524 5
3523 3623 4
3523 3522 5
3524 3424 4
3524 3525 5
3524 3624 3
3524 3523 5
3525 3425 4
3525 3526 4
3525 3625 5
3525 3524 1
3526 3426 3
3526 3527 3
3526 3626 3
3526 3525 3
3527 3427 4
3527 3528 2
3527 3627 4
3527 3526 4
3528 3428 2
3528 3529 5
3528 3628 2
3528 3527 4
3529 3429 3
3529 3530 4
3529 3629 1
3529 3528 5
3530 3430 1
3530 3531 4
3530 3630 5
3530 3529 3
3531 3431 1
3531 3532 2
3531 3631 5
3531 3530 3
3532 3432 3
3532 3533 3
3532 3632 3
3532 3531 4
3533 3433 4
3533 3534 1
3533 3633 2
3533 3532 5
3534 3434 5
3534 3535 2
3534 3634 5
3534 3533 3
3535 3435 5
3535 3536 4
3535 3635 4
3535 3534 1
3536 3436 3
3536 3537 5
3536 3636 4
3536 3535 2
3537 3437 4
3537 3538 5
3537 3637 2
3537 3536 4
3538 3438 5
3538 3539 1
3538 3638 1
3538 3537 4
3539 3439 2
3539 3540 2
3539 3639 1
3539 3538 5
3540 3440 3
3540 3541 2
3540 3640 2
3540 3539 4
3541 3441 5
3541 3542 4
3541 3641 3
3541 3540 2
3542 3442 4
3542 3543 5
3542 3642 3
3542 3541 3
3543 3443 3
3543 3544 1
3543 3643 3
3543 3542 5
3544 3444 5
3544 3545 5
3544 3644 4
3544 3543 2
3545 3445 4
3545 3546 4
3545 3645 4
3545 3544 3
3546 3446 4
3546 3547 2
3546 3646 2
3546 3545 4
3547 3447 3
3547 3548 1
3547 3647 5
3547 3546 3
3548 3448 4
3548 3549 2
3548 3648 1
3548 3547 4
3549 3449 5
3549 3550 4
3549 3649 4
3549 3548 4
3550 3450 2
3550 3551 1
3550 3650 5
3550 3549 2
3551 3451 2
3551 3552 5
3551 3651 5
3551 3550 5
3552 3452 1
3552 3553 5
3552 3652 5
3552 3551 4
3553 3453 1
3553 3554 3
3553 3653 5
3553 3552 2
3554 3454 2
3554 3555 5
3554 3654 4
3554 3553 1
3555 3455 3
3555 3556 1
3555 3655 5
3555 3554 4
3556 3456 5
3556 3557 5
3556 3656 2
3556 3555 2
3557 3457 4
3557 3558 3
3557 3657 2
3557 3556 2
3558 3458 4
3558 3559 2
3558 3658 3
3558 3557 2
3559 3459 3
3559 3560 1
3559 3659 1
3559 3558 2
3560 3460 5
3560 3561 4
3560 3660 4
3560 3559 2
3561 3461 5
3561 3562 4
3561 3661 2
3561 3560 2
3562 3462 4
3562 3563 5
3562 3662 1
3562 3561 5
3563 3463 3
3563 3564 2
3563 3663 2
3563 3562 4
3564 3464 1
3564 3565 1
3564 3664 1
3564 3563 4
3565 3465 5
3565 3566 4
3565 3665 4
3565 3564 1
3566 3466 4
3566 3567 3
3566 3666 5
3566 3565 1
3567 3467 5
3567 3568 5
3567 3667 1
3567 3566 4
3568 3468 4
3568 3569 1
3568 3668 3
3568 3567 4
3569 3469 1
3569 3570 3
3569 3669 4
3569 3568 5
3570 3470 4
3570 3571 4
3570 3670 1
3570 3569 1
3571 3471 2
3571 3572 3
3571 3671 5
3571 3570 1
3572 3472 2
3572 3573 3
3572 3672 4
3572 3571 3
3573 3473 2
3573 3574 2
3573 3673 4
3573 3572 2
3574 3474 3
3574 3575 1
3574 3674 3
3574 3573 1
3575 3475 4
3575 3576 4
3575 3675 2
3575 3574 3
3576 3476 3
3576 3577 3
3576 3676 4
3576 3575 3
3577 3477 4
3577 3578 3
3577 3677 5
3577 3576 3
3578 3478 5
3578 3579 1
3578 3678 2
3578 3577 2
3579 3479 5
3579 3580 3
3579 3679 1
3579 3578 2
3580 3480 3
3580 3581 5
3580 3680 3
3580 3579 3
3581 3481 3
3581 3582 2
3581 3681 5
3581 3580 3
3582 3482 4
3582 3583 4
3582 3682 3
3582 3581 2
3583 3483 2
3583 3584 2
3583 3683 5
3583 3582 3
3584 3484 4
3584 3585 3
3584 3684 2
3584 3583 1
3585 3485 2
3585 3586 5
3585 3685 3
3585 3584 2
3586 3486 5
3586 3587 1
3586 3686 3
3586 3585 3
3587 3487 5
3587 3588 5
3587 3687 4
3587 3586 4
3588 3488 5
3588 3589 2
3588 3688 3
3588 3587 2
3589 3489 5
3589 3590 5
3589 3689 3
3589 3588 5
3590 3490 3
3590 3591 4
3590 3690 4
3590 3589 2
3591 3491 5
3591 3592 4
3591 3691 2
3591 3590 4
3592 3492 4
3592 3593 1
3592 3692 1
3592 3591 3
3593 3493 2
3593 3594 3
3593 3693 2
3593 3592 2
3594 3494 2
3594 3595 3
3594 3694 5
3594 3593 1
3595 3495 2
3595 3596 3
3595 3695 4
3595 3594 4
3596 3496 5
3596 3597 1
3596 3696 5
3596 3595 2
3597 3497 2
3597 3598 3
3597 3697 1
3597 3596 4
3598 3498 1
3598 3599 3
3598 3698 5
3598 3597 1
3599 3499 3
3599 3699 5
3599 3598 5
3600 3500 5
3600 3601 1
3600 3700 1
3601 3501 4
3601 3602 5
3601 3701 5
3601 3600 2
3602 3502 2
3602 3603 3
3602 3702 2
3602 3601 2
3603 3503 2
3603 3604 4
3603 3703 2
3603 3602 1
3604 3504 5
3604 3605 3
3604 3704 5
3604 3603 3
3605 3505 1
3605 3606 2
3605 3705 1
3605 3604 2
3606 3506 5
3606 3607 3
3606 3706 1
3606 3605 2
3607 3507 2
3607 3608 2
3607 3707 5
3607 3606 5
3608 3508 4
3608 3609 4
3608 3708 1
3608 3607 5
3609 3509 1
3609 3610 3
3609 3709 1
3609 3608 2
3610 3510 4
3610 3611 1
3610 3710 4
3610 3609 1
3611 3511 4
3611 3612 2
3611 3711 1
3611 3610 5
3612 3512 5
3612 3613 2
3612 3712 5
3612 3611 4
3613 3513 3
3613 3614 5
3613 3713 1
3613 3612 5
3614 3514 4
3614 3615 1
3614 3714 4
3614 3613 2
3615 3515 5
3615 3616 5
3615 3715 4
3615 3614 1
3616 3516 3
3616 3617 4
3616 3716 5
3616 3615 3
3617 3517 4
3617 3618 2
3617 3717 3
3617 3616 5
3618 3518 4
3618 3619 5
3618 3718 3
3618 3617 3
3619 3519 3
3619 3620 5
3619 3719 2
3619 3618 3
3620 3520 3
3620 3621 5
3620 3720 5
3620 3619 3
3621 3521 4
3621 3622 1
3621 3721 2
3621 3620 4
3622 3522 1
3622 3623 3
3622 3722 5
3622 3621 4
3623 3523 4
3623 3624 2
3623 3723 2
3623 3622 1
3624 3524 4
3624 3625 3
3624 3724 1
3624 3623 4
3625 3525 3
3625 3626 5
3625 3725 2
3625 3624 2
3626 3526 1
3626 3627 2
3626 3726 2
3626 3625 3
3627 3527 5
3627 3628 3
3627 3727 3
3627 3626 5
3628 3528 4
3628 3629 1
3628 3728 3
3628 3627 5
3629 3529 2
3629 3630 5
3629 3729 2
3629 3628 3
3630 3530 2
3630 3631 2
3630 3730 4
3630 3629 2
3631 3531 2
3631 3632 5
3631 3731 2
3631 3630 3
3632 3532 5
3632 3633 4
3632 3732 5
3632 3631 4
3633 3533 3
3633 3634 2
3633 3733 3
3633 3632 4
3634 3534 3
3634 3635 3
3634 3734 2
3634 3633 3
3635 3535 3
3635 3636 3
3635 3735 3
3635 3634 4
3636 3536 3
3636 3637 4
3636 3736 5
3636 3635 4
3637 3537 4
3637 3638 1
3637 3737 4
3637 3636 1
3638 3538 4
3638 3639 3
3638 3738 2
3638 3637 4
3639 3539 3
3639 3640 1
3639 3739 2
3639 3638 2
3640 3540 3
3640 3641 3
3640 3740 3
3640 3639 1
3641 3541 3
3641 3642 4
3641 3741 4
3641 3640 3
3642 3542 5
3642 3643 5
3642 3742 2
3642 3641 2
3643 3543 5
3643 3644 5
3643 3743 4
3643 3642 3
3644 3544 1
3644 3645 1
3644 3744 2
3644 3643 2
3645 3545 3
3645 3646 4
3645 3745 5
3645 3644 4
3646 3546 1
3646 3647 4
3646 3746 4
3646 3645 2
3647 3547 3
3647 3648 5
3647 3747 5
3647 3646 4
3648 3548 1
3648 3649 1
3648 3748 1
3648 3647 3
3649 3549 3
3649 3650 5
3649 3749 3
3649 3648 4
3650 3550 3
3650 3651 1
3650 3750 4
3650 3649 2
3651 3551 1
3651 3652 3
3651 3751 4
3651 3650 2
3652 3552 2
3652 3653 5
3652 3752 3
3652 3651 5
3653 3553 2
3653 3654 5
3653 3753 1
3653 3652 4
3654 3554 2
3654 3655 3
3654 3754 5
3654 3653 5
3655 3555 3
3655 3656 5
3655 3755 5
3655 3654 3
3656 3556 1
3656 3657 2
3656 3756 1
3656 3655 3
3657 3557 3
3657 3658 4
3657 3757 2
3657 3656 2
3658 3558 3
3658 3659 4
3658 3758 2
3658 3657 4
3659 3559 3
3659 3660 3
3659 3759 2
3659 3658 3
3660 3560 3
3660 3661 5
3660 3760 1
3660 3659 2
3661 3561 1
3661 3662 4
3661 3761 4
3661 3660 4
3662 3562 4
3662 3663 1
3662 3762 5
3662 3661 1
3663 3563 5
3663 3664 3
3663 3763 1
3663 3662 5
3664 3564 4
3664 3665 1
3664 3764 5
3664 3663 3
3665 3565 5
3665 3666 4
3665 3765 3
3665 3664 5
3666 3566 3
3666 3667 1
3666 3766 1
3666 3665 5
3667 3567 1
3667 3668 5
3667 3767 1
3667 3666 5
3668 3568 2
3668 3669 5
3668 3768 1
3668 3667 5
3669 3569 4
3669 3670 5
3669 3769 2
3669 3668 1
3670 3570 4
3670 3671 3
3670 3770 4
3670 3669 4
3671 3571 2
3671 3672 3
3671 3771 1
3671 3670 2
3672 3572 5
3672 3673 3
3672 3772 4
3672 3671 5
3673 3573 4
3673 3674 1
3673 3773 4
3673 3672 5
3674 3574 3
3674 3675 1
3674 3774 5
3674 3673 4
3675 3575 1
3675 3676 1
3675 3775 2
3675 3674 3
3676 3576 4
3676 3677 2
3676 3776 3
3676 3675 2
3677 3577 5
3677 3678 3
3677 3777 5
3677 3676 4
3678 3578 2
3678 3679 5
3678 3778 3
3678 3677 5
3679 3579 2
3679 3680 2
3679 3779 2
3679 3678 2
3680 3580 3
3680 3681 2
3680 3780 1
3680 3679 1
3681 3581 5
3681 3682 5
3681 3781 1
3681 3680 2
3682 3582 5
3682 3683 3
3682 3782 1
3682 3681 3
3683 3583 3
3683 3684 2
3683 3783 2
3683 3682 2
3684 3584 3
3684 3685 2
3684 3784 4
3684 3683 3
3685 3585 2
3685 3686 2
3685 3785 3
3685 3684 1
3686 3586 2
3686 3687 4
3686 3786 1
3686 3685 4
3687 3587 1
3687 3688 4
3687 3787 2
3687 3686 4
3688 3588 1
3688 3689 4
3688 3788 4
3688 3687 4
3689 3589 2
3689 3690 2
3689 3789 4
3689 3688 5
3690 3590 1
3690 3691 1
3690 3790 2
3690 3689 5
3691 3591 5
3691 3692 5
3691 3791 1
3691 3690 2
3692 3592 2
3692 3693 1
3692 3792 4
3692 3691 5
3693 3593 3
3693 3694 3
3693 3793 4
3693 3692 2
3694 3594 2
3694 3695 1
3694 3794 5
3694 3693 3
3695 3595 4
3695 3696 3
3695 3795 5
3695 3694 1
3696 3596 4
3696 3697 1
3696 3796 1
3696 3695 4
3697 3597 4
3697 3698 4
3697 3797 1
3697 3696 3
3698 3598 3
3698 3699 3
3698 3798 1
3698 3697 4
3699 3599 3
3699 3799 2
3699 3698 1
3700 3600 4
3700 3701 4
3700 3800 1
3701 3601 3
3701 3702 3
3701 3801 1
3701 3700 2
3702 3602 2
3702 3703 2
3702 3802 5
3702 3701 1
3703 3603 2
3703 3704 5
3703 3803 2
3703 3702 2
3704 3604 4
3704 3705 1
3704 3804 1
3704 3703 5
3705 3605 2
3705 3706 3
3705 3805 3
3705 3704 5
3706 3606 4
3706 3707 2
3706 3806 4
3706 3705 2
3707 3607 2
3707 3708 5
3707 3807 2
3707 3706 2
3708 3608 3
3708 3709 1
3708 3808 2
3708 3707 1
3709 3609 4
3709 3710 2
3709 3809 3
3709 3708 4
3710 3610 3
3710 3711 3
3710 3810 5
3710 3709 3
3711 3611 1
3711 3712 1
3711 3811 3
3711 3710 1
3712 3612 4
3712 3713 1
3712 3812 2
3712 3711 4
3713 3613 1
3713 3714 5
3713 3813 4
3713 3712 5
3714 3614 5
3714 3715 2
3714 3814 2
3714 3713 1
3715 3615 1
3715 3716 3
3715 3815 2
3715 3714 1
3716 3616 4
3716 3717 1
3716 3816 1
3716 3715 4
3717 3617 4
3717 3718 4
3717 3817 5
3717 3716 4
3718 3618 2
3718 3719 5
3718 3818 1
3718 3717 3
3719 3619 4
3719 3720 4
3719 3819 3
3719 3718 2
3720 3620 3
3720 3721 5
3720 3820 3
3720 3719 5
3721 3621 1
3721 3722 4
3721 3821 4
3721 3720 5
3722 3622 2
3722 3723 2
3722 3822 2
3722 3721 5
3723 3623 2
3723 3724 2
3723 3823 2
3723 3722 1
3724 3624 1
3724 3725 4
3724 3824 3
3724 3723 5
3725 3625 1
3725 3726 2
3725 3825 2
3725 3724 3
3726 3626 2
3726 3727 3
3726 3826 3
3726 3725 4
3727 3627 5
3727 3728 5
3727 3827 5
3727 3726 5
3728 3628 3
3728 3729 2
3728 3828 3
3728 3727 4
3729 3629 3
3729 3730 2
3729 3829 5
3729 3728 1
3730 3630 4
3730 3731 1
3730 3830 2
3730 3729 2
3731 3631 1
3731 3732 2
3731 3831 1
3731 3730 2
3732 3632 2
3732 3733 4
3732 3832 3
3732 3731 1
3733 3633 5
3733 3734 4
3733 3833 4
3733 3732 3
3734 3634 2
3734 3735 5
3734 3834 4
3734 3733 4
3735 3635 2
3735 3736 4
3735 3835 5
3735 3734 3
3736 3636 5
3736 3737 4
3736 3836 1
3736 3735 3
3737 3637 5
3737 3738 3
3737 3837 3
3737 3736 2
3738 3638 3
3738 3739 3
3738 3838 4
3738 3737 5
3739 3639 4
3739 3740 1
3739 3839 3
3739 3738 5
3740 3640 3
3740 3741 1
3740 3840 3
3740 3739 4
3741 3641 1
3741 3742 5
3741 3841 2
3741 3740 1
3742 3642 2
3742 3743 4
3742 3842 1
3742 3741 1
3743 3643 5
3743 3744 3
3743 3843 2
3743 3742 3
3744 3644 3
3744 3745 4
3744 3844 4
3744 3743 5
3745 3645 1
3745 3746 5
3745 3845 2
3745 3744 4
3746 3646 5
3746 3747 2
3746 3846 2
3746 3745 2
3747 3647 1
3747 3748 2
3747 3847 3
3747 3746 5
3748 3648 5
3748 3749 2
3748 3848 5
3748 3747 5
3749 3649 5
3749 3750 1
3749 3849 5
3749 3748 3
3750 3650 5
3750 3751 2
3750 3850 5
3750 3749 2
3751 3651 3
3751 3752 2
3751 3851 1
3751 3750 2
3752 3652 5
3752 3753 2
3752 3852 2
3752 3751 5
3753 3653 5
3753 3754 4
3753 3853 2
3753 3752 3
3754 3654 1
3754 3755 4
3754 3854 3
3754 3753 4
3755 3655 5
3755 3756 4
3755 3855 4
3755 3754 4
3756 3656 3
3756 3757 2
3756 3856 3
3756 3755 1
3757 3657 1
3757 3758 3
3757 3857 5
3757 3756 3
3758 3658 2
3758 3759 5
3758 3858 5
3758 3757 1
3759 3659 1
3759 3760 4
3759 3859 2
3759 3758 2
3760 3660 4
3760 3761 2
3760 3860 2
3760 3759 4
3761 3661 2
3761 3762 4
3761 3861 4
3761 3760 5
3762 3662 2
3762 3763 2
3762 3862 3
3762 3761 1
3763 3663 2
3763 3764 3
3763 3863 2
3763 3762 4
3764 3664 1
3764 3765 5
3764 3864 2
3764 3763 2
3765 3665 4
3765 3766 2
3765 3865 3
3765 3764 3
3766 3666 1
3766 3767 1
3766 3866 5
3766 3765 3
3767 3667 5
3767 3768 1
3767 3867 5
3767 3766 4
3768 3668 2
3768 3769 4
3768 3868 3
3768 3767 1
3769 3669 5
3769 3770 5
3769 3869 4
3769 3768 2
3770 3670 1
3770 3771 3
3770 3870 3
3770 3769 1
3771 3671 4
3771 3772 3
3771 3871 1
3771 3770 4
3772 3672 4
3772 3773 5
3772 3872 2
3772 3771 4
3773 3673 3
3773 3774 2
3773 3873 5
3773 3772 1
3774 3674 1
3774 3775 5
3774 3874 5
3774 3773 3
3775 3675 2
3775 3776 4
3775 3875 4
3775 3774 4
3776 3676 1
3776 3777 1
3776 3876 3
3776 3775 3
3777 3677 3
3777 3778 5
3777 3877 3
3777 3776 4
3778 3678 3
3778 3779 3
3778 3878 1
3778 3777 1
3779 3679 1
3779 3780 4
3779 3879 2
3779 3778 5
3780 3680 4
3780 3781 2
3780 3880 5
3780 3779 4
3781 3681 3
3781 3782 1
3781 3881 4
3781 3780 5
3782 3682 5
3782 3783 5
3782 3882 4
3782 3781 5
3783 3683 5
3783 3784 4
3783 3883 1
3783 3782 5
3784 3684 1
3784 3785 5
3784 3884 1
3784 3783 5
3785 3685 1
3785 3786 1
3785 3885 2
3785 3784 3
3786 3686 5
3786 3787 5
3786 3886 4
3786 3785 4
3787 3687 1
3787 3788 3
3787 3887 4
3787 3786 4
3788 3688 5
3788 3789 5
3788 3888 1
3788 3787 4
3789 3689 4
3789 3790 1
3789 3889 2
3789 3788 5
3790 3690 2
3790 3791 1
3790 3890 3
3790 3789 1
3791 3691 3
3791 3792 4
3791 3891 1
3791 3790 4
3792 3692 3
3792 3793 3
3792 3892 3
3792 3791 3
3793 3693 2
3793 3794 3
3793 3893 4
3793 3792 1
3794 3694 3
3794 3795 4
3794 3894 3
3794 3793 2
3795 3695 2
3795 3796 5
3795 3895 5
3795 3794 3
3796 3696 4
3796 3797 3
3796 3896 2
3796 3795 4
3797 3697 1
3797 3798 3
3797 3897 3
3797 3796 5
3798 3698 5
3798 3799 2
3798 3898 3
3798 3797 3
3799 3699 1
3799 3899 1
3799 3798 4
3800 3700 3
3800 3801 5
3800 3900 4
3801 3701 2
3801 3802 4
3801 3901 2
3801 3800 3
3802 3702 4
3802 3803 3
3802 3902 3
3802 3801 4
3803 3703 3
3803 3804 2
3803 3903 2
3803 3802 3
3804 3704 1
3804 3805 1
3804 3904 2
3804 3803 5
3805 3705 3
3805 3806 5
3805 3905 5
3805 3804 3
3806 3706 5
3806 3807 5
3806 3906 2
3806 3805 4
3807 3707 5
3807 3808 1
3807 3907 2
3807 3806 1
3808 3708 1
3808 3809 5
3808 3908 4
3808 3807 3
3809 3709 2
3809 3810 3
3809 3909 5
3809 3808 3
3810 3710 4
3810 3811 2
3810 3910 4
3810 3809 1
3811 3711 3
3811 3812 5
3811 3911 5
3811 3810 1
3812 3712 3
3812 3813 2
3812 3912 4
3812 3811 1
3813 3713 2
3813 3814 5
3813 3913 2
3813 3812 3
3814 3714 1
3814 3815 4
3814 3914 2
3814 3813 2
3815 3715 2
3815 3816 2
3815 3915 4
3815 3814 2
3816 3716 2
3816 3817 1
3816 3916 3
3816 3815 2
3817 3717 1
3817 3818 5
3817 3917 4
3817 3816 4
3818 3718 4
3818 3819 5
3818 3918 5
3818 3817 5
3819 3719 2
3819 3820 4
3819 3919 2
3819 3818 5
3820 3720 5
3820 3821 4
3820 3920 5
3820 3819 4
3821 3721 3
3821 3822 3
3821 3921 3
3821 3820 4
3822 3722 3
3822 3823 3
3822 3922 2
3822 3821 3
3823 3723 5
3823 3824 3
3823 3923 1
3823 3822 2
3824 3724 3
3824 3825 2
3824 3924 5
3824 3823 5
3825 3725 2
3825 3826 1
3825 3925 5
3825 3824 4
3826 3726 5
3826 3827 3
3826 3926 1
3826 3825 5
3827 3727 2
3827 3828 3
3827 3927 5
3827 3826 2
3828 3728 4
3828 3829 3
3828 3928 5
3828 3827 1
3829 3729 4
3829 3830 5
3829 3929 4
3829 3828 4
3830 3730 5
3830 3831 4
3830 3930 1
3830 3829 2
3831 3731 1
3831 3832 5
3831 3931 4
3831 3830 5
3832 3732 1
3832 3833 3
3832 3932 4
3832 3831 2
3833 3733 1
3833 3834 3
3833 3933 1
3833 3832 3
3834 3734 5
3834 3835 3
3834 3934 1
3834 3833 5
3835 3735 4
3835 3836 4
3835 3935 2
3835 3834 4
3836 3736 2
3836 3837 4
3836 3936 3
3836 3835 5
3837 3737 3
3837 3838 3
3837 3937 2
3837 3836 5
3838 3738 5
3838 3839 4
3838 3938 2
3838 3837 5
3839 3739 5
3839 3840 3
3839 3939 1
3839 3838 5
3840 3740 1
3840 3841 3
3840 3940 5
3840 3839 1
3841 3741 1
3841 3842 5
3841 3941 1
3841 3840 5
3842 3742 4
3842 3843 2
3842 3942 2
3842 3841 2
3843 3743 5
3843 3844 2
3843 3943 2
3843 3842 1
3844 3744 4
3844 3845 1
3844 3944 3
3844 3843 1
3845 3745 1
3845 3846 4
3845 3945 5
3845 3844 4
3846 3746 4
3846 3847 4
3846 3946 4
3846 3845 2
3847 3747 3
3847 3848 2
3847 3947 1
3847 3846 3
3848 3748 3
3848 3849 2
3848 3948 4
3848 3847 3
3849 3749 4
3849 3850 1
3849 3949 2
3849 3848 3
3850 3750 4
3850 3851 2
3850 3950 2
3850 3849 3
3851 3751 1
3851 3852 3
3851 3951 4
3851 3850 1
3852 3752 5
3852 3853 3
3852 3952 1
3852 3851 5
3853 3753 1
3853 3854 5
3853 3953 1
3853 3852 3
3854 3754 1
3854 3855 2
3854 3954 1
3854 3853 5
3855 3755 1
3855 3856 1
3855 3955 3
3855 3854 4
3856 3756 3
3856 3857 1
3856 3956 5
3856 3855 5
3857 3757 3
3857 3858 1
3857 3957 2
3857 3856 2
3858 3758 5
3858 3859 4
3858 3958 2
3858 3857 5
3859 3759 2
3859 3860 3
3859 3959 1
3859 3858 2
3860 3760 5
3860 3861 3
3860 3960 5
3860 3859 2
3861 3761 4
3861 3862 2
3861 3961 5
3861 3860 2
3862 3762 4
3862 3863 1
3862 3962 5
3862 3861 1
3863 3763 5
3863 3864 1
3863 3963 3
3863 3862 3
3864 3764 1
3864 3865 3
3864 3964 2
3864 3863 5
3865 3765 5
3865 3866 2
3865 3965 1
3865 3864 4
3866 3766 2
3866 3867 5
3866 3966 2
3866 3865 5
3867 3767 3
3867 3868 4
3867 3967 5
3867 3866 4
3868 3768 4
3868 3869 1
3868 3968 5
3868 3867 1
3869 3769 3
3869 3870 2
3869 3969 3
3869 3868 2
3870 3770 2
3870 3871 4
3870 3970 2
3870 3869 4
3871 3771 1
3871 3872 3
3871 3971 1
3871 3870 4
3872 3772 5
3872 3873 1
3872 3972 5
3872 3871 1
3873 3773 3
3873 3874 5
3873 3973 5
3873 3872 5
3874 3774 5
3874 3875 5
3874 3974 4
3874 3873 5
3875 3775 2
3875 3876 3
3875 3975 3
3875 3874 2
3876 3776 4
3876 3877 2
3876 3976 3
3876 3875 4
3877 3777 4
3877 3878 4
3877 3977 4
3877 3876 1
3878 3778 4
3878 3879 1
3878 3978 4
3878 3877 1
3879 3779 3
3879 3880 5
3879 3979 4
3879 3878 5
3880 3780 4
3880 3881 3
3880 3980 4
3880 3879 3
3881 3781 1
3881 3882 5
3881 3981 1
3881 3880 2
3882 3782 1
3882 3883 3
3882 3982 5
3882 3881 5
3883 3783 5
3883 3884 2
3883 3983 3
3883 3882 1
3884 3784 5
3884 3885 1
3884 3984 1
3884 3883 3
3885 3785 4
3885 3886 2
3885 3985 3
3885 3884 5
3886 3786 1
3886 3887 4
3886 3986 5
3886 3885 5
3887 3787 2
3887 3888 5
3887 3987 3
3887 3886 1
3888 3788 2
3888 3889 1
3888 3988 4
3888 3887 2
3889 3789 2
3889 3890 3
3889 3989 1
3889 3888 2
3890 3790 4
3890 3891 2
3890 3990 5
3890 3889 5
3891 3791 1
3891 3892 1
3891 3991 4
3891 3890 2
3892 3792 1
3892 3893 3
3892 3992 1
3892 3891 2
3893 3793 3
3893 3894 2
3893 3993 4
3893 3892 2
3894 3794 3
3894 3895 4
3894 3994 1
3894 3893 2
3895 3795 2
3895 3896 5
3895 3995 2
3895 3894 5
3896 3796 3
3896 3897 4
3896 3996 5
3896 3895 3
3897 3797 2
3897 3898 3
3897 3997 4
3897 3896 1
3898 3798 4
3898 3899 4
3898 3998 4
3898 3897 3
3899 3799 2
3899 3999 4
3899 3898 3
3900 3800 5
3900 3901 1
3900 4000 4
3901 3801 1
3901 3902 4
3901 4001 2
3901 3900 2
3902 3802 1
3902 3903 1
3902 4002 1
3902 3901 2
3903 3803 4
3903 3904 1
3903 4003 2
3903 3902 5
3904 3804 3
3904 3905 2
3904 4004 3
3904 3903 4
3905 3805 3
3905 3906 5
3905 4005 3
3905 3904 3
3906 3806 5
3906 3907 3
3906 4006 1
3906 3905 1
3907 3807 4
3907 3908 2
3907 4007 1
3907 3906 5
3908 3808 4
3908 3909 2
3908 4008 2
3908 3907 5
3909 3809 1
3909 3910 4
3909 4009 4
3909 3908 1
3910 3810 1
3910 3911 2
3910 4010 1
3910 3909 4
3911 3811 2
3911 3912 1
3911 4011 1
3911 3910 2
3912 3812 4
3912 3913 5
3912 4012 3
3912 3911 4
3913 3813 2
3913 3914 4
3913 4013 5
3913 3912 1
3914 3814 5
3914 3915 2
3914 4014 2
3914 3913 3
3915 3815 1
3915 3916 5
3915 4015 1
3915 3914 2
3916 3816 3
3916 3917 3
3916 4016 2
3916 3915 3
3917 3817 4
3917 3918 2
3917 4017 1
3917 3916 4
3918 3818 4
3918 3919 2
3918 4018 3
3918 3917 5
3919 3819 1
3919 3920 2
3919 4019 2
3919 3918 2
3920 3820 3
3920 3921 4
3920 4020 1
3920 3919 4
3921 3821 1
3921 3922 2
3921 4021 5
3921 3920 5
3922 3822 3
3922 3923 5
3922 4022 2
3922 3921 2
3923 3823 5
3923 3924 3
3923 4023 1
3923 3922 1
3924 3824 1
3924 3925 4
3924 4024 5
3924 3923 5
3925 3825 1
3925 3926 5
3925 4025 2
3925 3924 3
3926 3826 3
3926 3927 1
3926 4026 2
3926 3925 1
3927 3827 2
3927 3928 1
3927 4027 4
3927 3926 1
3928 3828 5
3928 3929 1
3928 4028 4
3928 3927 5
3929 3829 1
3929 3930 2
3929 4029 1
3929 3928 5
3930 3830 5
3930 3931 1
3930 4030 1
3930 3929 4
3931 3831 5
3931 3932 4
3931 4031 3
3931 3930 5
3932 3832 4
3932 3933 4
3932 4032 2
3932 3931 4
3933 3833 5
3933 3934 3
3933 4033 3
3933 3932 4
3934 3834 4
3934 3935 2
3934 4034 4
3934 3933 5
3935 3835 3
3935 3936 2
3935 4035 2
3935 3934 3
3936 3836 2
3936 3937 4
3936 4036 3
3936 3935 2
3937 3837 3
3937 3938 1
3937 4037 4
3937 3936 3
3938 3838 2
3938 3939 1
3938 4038 4
3938 3937 4
3939 3839 5
3939 3940 2
3939 4039 4
3939 3938 2
3940 3840 3
3940 3941 2
3940 4040 4
3940 3939 4
3941 3841 4
3941 3942 4
3941 4041 4
3941 3940 4
3942 3842 4
3942 3943 4
3942 4042 3
3942 3941 3
3943 3843 3
3943 3944 4
3943 4043 2
3943 3942 5
3944 3844 2
3944 3945 2
3944 4044 2
3944 3943 2
3945 3845 5
3945 3946 2
3945 4045 5
3945 3944 3
3946 3846 4
3946 3947 5
3946 4046 4
3946 3945 3
3947 3847 3
3947 3948 2
3947 4047 4
3947 3946 2
3948 3848 4
3948 3949 1
3948 4048 5
3948 3947 4
3949 3849 3
3949 3950 5
3949 4049 4
3949 3948 1
3950 3850 2
3950 3951 2
3950 4050 3
3950 3949 5
3951 3851 2
3951 3952 4
3951 4051 5
3951 3950 4
3952 3852 2
3952 3953 4
3952 4052 1
3952 3951 2
3953 3853 4
3953 3954 5
3953 4053 2
3953 3952 3
3954 3854 5
3954 3955 2
3954 4054 4
3954 3953 5
3955 3855 2
3955 3956 2
3955 4055 4
3955 3954 3
3956 3856 4
3956 3957 2
3956 4056 2
3956 3955 4
3957 3857 3
3957 3958 5
3957 4057 5
3957 3956 5
3958 3858 1
3958 3959 1
3958 4058 1
3958 3957 1
3959 3859 1
3959 3960 1
3959 4059 1
3959 3958 3
3960 3860 1
3960 3961 3
3960 4060 3
3960 3959 2
3961 3861 2
3961 3962 2
3961 4061 3
3961 3960 1
3962 3862 3
3962 3963 5
3962 4062 3
3962 3961 5
3963 3863 4
3963 3964 4
3963 4063 3
3963 3962 2
3964 3864 3
3964 3965 3
3964 4064 1
3964 3963 5
3965 3865 2
3965 3966 2
3965 4065 2
3965 3964 4
3966 3866 1
3966 3967 5
3966 4066 5
3966 3965 4
3967 3867 2
3967 3968 5
3967 4067 5
3967 3966 4
3968 3868 3
3968 3969 2
3968 4068 1
3968 3967 2
3969 3869 4
3969 3970 1
3969 4069 1
3969 3968 2
3970 3870 4
3970 3971 4
3970 4070 4
3970 3969 4
3971 3871 2
3971 3972 1
3971 4071 5
3971 3970 3
3972 3872 4
3972 3973 5
3972 4072 5
3972 3971 2
3973 3873 4
3973 3974 1
3973 4073 4
3973 3972 5
3974 3874 3
3974 3975 3
3974 4074 1
3974 3973 3
3975 3875 1
3975 3976 2
3975 4075 2
3975 3974 5
3976 3876 3
3976 3977 4
3976 4076 2
3976 3975 1
3977 3877 2
3977 3978 3
3977 4077 3
3977 3976 1
3978 3878 3
3978 3979 5
3978 4078 4
3978 3977 1
3979 3879 5
3979 3980 5
3979 4079 4
3979 3978 2
3980 3880 3
3980 3981 3
3980 4080 2
3980 3979 5
3981 3881 3
3981 3982 5
3981 4081 1
3981 3980 4
3982 3882 3
3982 3983 2
3982 4082 1
3982 3981 2
3983 3883 3
3983 3984 3
3983 4083 4
3983 3982 4
3984 3884 3
3984 3985 1
3984 4084 3
3984 3983 4
3985 3885 1
3985 3986 3
3985 4085 5
3985 3984 1
3986 3886 2
3986 3987 5
3986 4086 1
3986 3985 5
3987 3887 1
3987 3988 3
3987 4087 4
3987 3986 2
3988 3888 4
3988 3989 4
3988 4088 4
3988 3987 1
3989 3889 3
3989 3990 4
3989 4089 3
3989 3988 3
3990 3890 5
3990 3991 4
3990 4090 4
3990 3989 3
3991 3891 2
3991 3992 3
3991 4091 3
3991 3990 5
3992 3892 2
3992 3993 4
3992 4092 3
3992 3991 3
3993 3893 1
3993 3994 4
3993 4093 1
3993 3992 3
3994 3894 5
3994 3995 1
3994 4094 1
3994 3993 2
3995 3895 1
3995 3996 2
3995 4095 1
3995 3994 2
3996 3896 3
3996 3997 1
3996 4096 2
3996 3995 5
3997 3897 2
3997 3998 1
3997 4097 1
3997 3996 1
3998 3898 1
3998 3999 3
3998 4098 5
3998 3997 1
3999 3899 2
3999 4099 5
3999 3998 4
4000 3900 3
4000 4001 1
4000 4100 5
4001 3901 1
4001 4002 1
4001 4101 2
4001 4000 2
4002 3902 1
4002 4003 2
4002 4102 1
4002 4001 1
4003 3903 1
4003 4004 4
4003 4103 2
4003 4002 2
4004 3904 1
4004 4005 1
4004 4104 4
4004 4003 3
4005 3905 5
4005 4006 2
4005 4105 4
4005 4004 2
4006 3906 4
4006 4007 5
4006 4106 2
4006 4005 4
4007 3907 3
4007 4008 5
4007 4107 1
4007 4006 4
4008 3908 2
4008 4009 5
4008 4108 1
4008 4007 1
4009 3909 2
4009 4010 2
4009 4109 3
4009 4008 2
4010 3910 5
4010 4011 5
4010 4110 2
4010 4009 1
4011 3911 1
4011 4012 2
4011 4111 2
4011 4010 3
4012 3912 2
4012 4013 2
4012 4112 4
4012 4011 5
4013 3913 3
4013 4014 5
4013 4113 4
4013 4012 5
4014 3914 3
4014 4015 2
4014 4114 4
4014 4013 3
4015 3915 3
4015 4016 2
4015 4115 5
4015 4014 1
4016 3916 3
4016 4017 3
4016 4116 2
4016 4015 1
4017 3917 1
4017 4018 1
4017 4117 4
4017 4016 3
4018 3918 1
4018 4019 5
4018 4118 4
4018 4017 1
4019 3919 4
4019 4020 1
4019 4119 1
4019 4018 3
4020 3920 5
4020 4021 3
4020 4120 5
4020 4019 1
4021 3921 5
4021 4022 3
4021 4121 3
4021 4020 4
4022 3922 3
4022 4023 4
4022 4122 3
4022 4021 4
4023 3923 3
4023 4024 4
4023 4123 3
4023 4022 5
4024 3924 2
4024 4025 2
4024 4124 5
4024 4023 2
4025 3925 1
4025 4026 3
4025 4125 4
4025 4024 4
4026 3926 4
4026 4027 3
4026 4126 4
4026 4025 4
4027 3927 4
4027 4028 4
4027 4127 2
4027 4026 2
4028 3928 4
4028 4029 4
4028 4128 1
4028 4027 2
4029 3929 3
4029 4030 4
4029 4129 2
4029 4028 4
4030 3930 3
4030 4031 1
4030 4130 4
4030 4029 2
4031 3931 2
4031 4032 5
4031 4131 2
4031 4030 2
4032 3932 1
4032 4033 1
4032 4132 4
4032 4031 4
4033 3933 2
4033 4034 3
4033 4133 3
4033 4032 2
4034 3934 1
4034 4035 4
4034 4134 4
4034 4033 2
4035 3935 3
4035 4036 5
4035 4135 3
4035 4034 2
4036 3936 2
4036 4037 4
4036 4136 5
4036 4035 4
4037 3937 4
4037 4038 4
4037 4137 2
4037 4036 4
4038 3938 1
4038 4039 3
4038 4138 1
4038 4037 1
4039 3939 3
4039 4040 4
4039 4139 5
4039 4038 3
4040 3940 2
4040 4041 2
4040 4140 5
4040 4039 4
4041 3941 2
4041 4042 4
4041 4141 4
4041 4040 1
4042 3942 3
4042 4043 2
4042 4142 3
4042 4041 3
4043 3943 5
4043 4044 4
4043 4143 5
4043 4042 1
4044 3944 5
4044 4045 2
4044 4144 5
4044 4043 3
4045 3945 3
4045 4046 3
4045 4145 2
4045 4044 3
4046 3946 5
4046 4047 4
4046 4146 1
4046 4045 1
4047 3947 4
4047 4048 3
4047 4147 4
4047 4046 2
4048 3948 2
4048 4049 3
4048 4148 2
4048 4047 3
4049 3949 4
4049 4050 3
4049 4149 5
4049 4048 3
4050 3950 5
4050 4051 3
4050 4150 2
4050 4049 2
4051 3951 3
4051 4052 5
4051 4151 2
4051 4050 5
4052 3952 5
4052 4053 2
4052 4152 2
4052 4051 4
4053 3953 5
4053 4054 4
4053 4153 1
4053 4052 3
4054 3954 5
4054 4055 1
4054 4154 4
4054 4053 2
4055 3955 5
4055 4056 3
4055 4155 1
4055 4054 5
4056 3956 4
4056 4057 4
4056 4156 5
4056 4055 3
4057 3957 1
4057 4058 4
4057 4157 4
4057 4056 2
4058 3958 3
4058 4059 2
4058 4158 3
4058 4057 1
4059 3959 4
4059 4060 2
4059 4159 2
4059 4058 1
4060 3960 3
4060 4061 3
4060 4160 5
4060 4059 4
4061 3961 5
4061 4062 2
4061 4161 3
4061 4060 3
4062 3962 4
4062 4063 3
4062 4162 5
4062 4061 5
4063 3963 2
4063 4064 2
4063 4163 5
4063 4062 5
4064 3964 1
4064 4065 3
4064 4164 1
4064 4063 2
4065 3965 5
4065 4066 5
4065 4165 3
4065 4064 2
4066 3966 4
4066 4067 4
4066 4166 1
4066 4065 3
4067 3967 3
4067 4068 2
4067 4167 2
4067 4066 3
4068 3968 1
4068 4069 1
4068 4168 4
4068 4067 1
4069 3969 3
4069 4070 4
4069 4169 2
4069 4068 4
4070 3970 4
4070 4071 5
4070 4170 2
4070 4069 5
4071 3971 4
4071 4072 3
4071 4171 1
4071 4070 3
4072 3972 4
4072 4073 3
4072 4172 2
4072 4071 5
4073 3973 4
4073 4074 3
4073 4173 2
4073 4072 5
4074 3974 2
4074 4075 3
4074 4174 1
4074 4073 1
4075 3975 1
4075 4076 3
4075 4175 5
4075 4074 4
4076 3976 3
4076 4077 2
4076 4176 3
4076 4075 4
4077 3977 5
4077 4078 1
4077 4177 4
4077 4076 3
4078 3978 4
4078 4079 2
4078 4178 3
4078 4077 5
4079 3979 1
4079 4080 3
4079 4179 3
4079 4078 5
4080 3980 5
4080 4081 1
4080 4180 5
4080 4079 1
4081 3981 2
4081 4082 4
4081 4181 1
4081 4080 1
4082 3982 2
4082 4083 2
4082 4182 1
4082 4081 5
4083 3983 2
4083 4084 2
4083 4183 1
4083 4082 3
4084 3984 3
4084 4085 3
4084 4184 1
4084 4083 4
4085 3985 3
4085 4086 1
4085 4185 4
4085 4084 4
4086 3986 5
4086 4087 1
4086 4186 5
4086 4085 4
4087 3987 4
4087 4088 2
4087 4187 5
4087 4086 1
4088 3988 2
4088 4089 4
4088 4188 2
4088 4087 1
4089 3989 3
4089 4090 2
4089 4189 2
4089 4088 1
4090 3990 5
4090 4091 1
4090 4190 1
4090 4089 2
4091 3991 4
4091 4092 1
4091 4191 1
4091 4090 2
4092 3992 2
4092 4093 2
4092 4192 2
4092 4091 5
4093 3993 3
4093 4094 3
4093 4193 4
4093 4092 4
4094 3994 1
4094 4095 5
4094 4194 3
4094 4093 4
4095 3995 1
4095 4096 4
4095 4195 5
4095 4094 1
4096 3996 1
4096 4097 2
4096 4196 5
4096 4095 1
4097 3997 2
4097 4098 2
4097 4197 5
4097 4096 4
4098 3998 1
4098 4099 3
4098 4198 1
4098 4097 5
4099 3999 3
4099 4199 5
4099 4098 2
4100 4000 4
4100 4101 2
4100 4200 2
4101 4001 5
4101 4102 1
4101 4201 5
4101 4100 3
4102 4002 3
4102 4103 5
4102 4202 3
4102 4101 5
4103 4003 4
4103 4104 2
4103 4203 2
4103 4102 5
4104 4004 3
4104 4105 3
4104 4204 2
4104 4103 3
4105 4005 3
4105 4106 4
4105 4205 1
4105 4104 3
4106 4006 4
4106 4107 1
4106 4206 4
4106 4105 5
4107 4007 5
4107 4108 4
4107 4207 2
4107 4106 2
4108 4008 1
4108 4109 1
4108 4208 4
4108 4107 1
4109 4009 2
4109 4110 2
4109 4209 5
4109 4108 3
4110 4010 2
4110 4111 5
4110 4210 3
4110 4109 3
4111 4011 4
4111 4112 1
4111 4211 2
4111 4110 5
4112 4012 3
4112 4113 2
4112 4212 5
4112 4111 1
4113 4013 3
4113 4114 1
4113 4213 2
4113 4112 2
4114 4014 3
4114 4115 2
4114 4214 4
4114 4113 4
4115 4015 3
4115 4116 4
4115 4215 4
4115 4114 5
4116 4016 2
4116 4117 4
4116 4216 4
4116 4115 5
4117 4017 5
4117 4118 3
4117 4217 2
4117 4116 1
4118 4018 5
4118 4119 1
4118 4218 1
4118 4117 1
4119 4019 5
4119 4120 1
4119 4219 1
4119 4118 3
4120 4020 1
4120 4121 3
4120 4220 4
4120 4119 4
4121 4021 5
4121 4122 2
4121 4221 1
4121 4120 1
4122 4022 3
4122 4123 2
4122 4222 2
4122 4121 4
4123 4023 3
4123 4124 1
4123 4223 3
4123 4122 4
4124 4024 1
4124 4125 3
4124 4224 1
4124 4123 1
4125 4025 3
4125 4126 2
4125 4225 3
4125 4124 4
4126 4026 2
4126 4127 1
4126 4226 1
4126 4125 4
4127 4027 2
4127 4128 1
4127 4227 1
4127 4126 1
4128 4028 2
4128 4129 4
4128 4228 5
4128 4127 5
4129 4029 3
4129 4130 3
4129 4229 1
4129 4128 5
4130 4030 4
4130 4131 1
4130 4230 2
4130 4129 2
4131 4031 1
4131 4132 4
4131 4231 4
4131 4130 1
4132 4032 1
4132 4133 4
4132 4232 4
4132 4131 4
4133 4033 4
4133 4134 2
4133 4233 1
4133 4132 5
4134 4034 1
4134 4135 1
4134 4234 3
4134 4133 3
4135 4035 4
4135 4136 2
4135 4235 3
4135 4134 1
4136 4036 3
4136 4137 2
4136 4236 2
4136 4135 4
4137 4037 1
4137 4138 1
4137 4237 5
4137 4136 4
4138 4038 5
4138 4139 4
4138 4238 2
4138 4137 1
4139 4039 3
4139 4140 3
4139 4239 1
4139 4138 5
4140 4040 3
4140 4141 4
4140 4240 4
4140 4139 5
4141 4041 2
4141 4142 3
4141 4241 3
4141 4140 5
4142 4042 5
4142 4143 2
4142 4242 3
4142 4141 3
4143 4043 4
4143 4144 2
4143 4243 5
4143 4142 4
4144 4044 3
4144 4145 4
4144 4244 3
4144 4143 3
4145 4045 2
4145 4146 4
4145 4245 5
4145 4144 4
4146 4046 3
4146 4147 4
4146 4246 1
4146 4145 5
4147 4047 3
4147 4148 2
4147 4247 3
4147 4146 3
4148 4048 4
4148 4149 4
4148 4248 5
4148 4147 2
4149 4049 1
4149 4150 3
4149 4249 5
4149 4148 2
4150 4050 5
4150 4151 3
4150 4250 5
4150 4149 2
4151 4051 5
4151 4152 2
4151 4251 2
4151 4150 4
4152 4052 1
4152 4153 4
4152 4252 1
4152 4151 5
4153 4053 5
4153 4154 1
4153 4253 5
4153 4152 1
4154 4054 5
4154 4155 1
4154 4254 3
4154 4153 5
4155 4055 2
4155 4156 2
4155 4255 3
4155 4154 4
4156 4056 1
4156 4157 3
4156 4256 3
4156 4155 5
4157 4057 4
4157 4158 5
4157 4257 4
4157 4156 2
4158 4058 5
4158 4159 3
4158 4258 4
4158 4157 1
4159 4059 2
4159 4160 4
4159 4259 2
4159 4158 2
4160 4060 1
4160 4161 5
4160 4260 1
4160 4159 4
4161 4061 2
4161 4162 1
4161 4261 3
4161 4160 2
4162 4062 4
4162 4163 3
4162 4262 2
4162 4161 5
4163 4063 1
4163 4164 2
4163 4263 1
4163 4162 1
4164 4064 1
4164 4165 3
4164 4264 1
4164 4163 2
4165 4065 2
4165 4166 1
4165 4265 1
4165 4164 3
4166 4066 4
4166 4167 1
4166 4266 4
4166 4165 3
4167 4067 4
4167 4168 1
4167 4267 5
4167 4166 3
4168 4068 3
4168 4169 4
4168 4268 3
4168 4167 2
4169 4069 3
4169 4170 4
4169 4269 5
4169 4168 5
4170 4070 4
4170 4171 5
4170 4270 5
4170 4169 1
4171 4071 4
4171 4172 1
4171 4271 4
4171 4170 3
4172 4072 3
4172 4173 1
4172 4272 3
4172 4171 4
4173 4073 4
4173 4174 5
4173 4273 1
4173 4172 4
4174 4074 5
4174 4175 5
4174 4274 3
4174 4173 4
4175 4075 1
4175 4176 4
4175 4275 1
4175 4174 4
4176 4076 1
4176 4177 4
4176 4276 3
4176 4175 5
4177 4077 1
4177 4178 1
4177 4277 2
4177 4176 1
4178 4078 4
4178 4179 4
4178 4278 3
4178 4177 2
4179 4079 5
4179 4180 4
4179 4279 1
4179 4178 3
4180 4080 3
4180 4181 5
4180 4280 4
4180 4179 2
4181 4081 5
4181 4182 4
4181 4281 1
4181 4180 1
4182 4082 2
4182 4183 5
4182 4282 1
4182 4181 5
4183 4083 4
4183 4184 1
4183 4283 5
4183 4182 2
4184 4084 4
4184 4185 3
4184 4284 5
4184 4183 4
4185 4085 5
4185 4186 1
4185 4285 3
4185 4184 5
4186 4086 1
4186 4187 5
4186 4286 4
4186 4185 2
4187 4087 4
4187 4188 3
4187 4287 2
4187 4186 1
4188 4088 3
4188 4189 5
4188 4288 3
4188 4187 4
4189 4089 1
4189 4190 2
4189 4289 1
4189 4188 2
4190 4090 4
4190 4191 4
4190 4290 2
4190 4189 1
4191 4091 4
4191 4192 2
4191 4291 4
4191 4190 1
4192 4092 3
4192 4193 2
4192 4292 2
4192 4191 3
4193 4093 5
4193 4194 4
4193 4293 2
4193 4192 4
4194 4094 1
4194 4195 1
4194 4294 2
4194 4193 2
4195 4095 2
4195 4196 5
4195 4295 5
4195 4194 1
4196 4096 4
4196 4197 4
4196 4296 3
4196 4195 4
4197 4097 1
4197 4198 5
4197 4297 3
4197 4196 5
4198 4098 1
4198 4199 4
4198 4298 4
4198 4197 1
4199 4099 3
4199 4299 4
4199 4198 5
4200 4100 4
4200 4201 1
4200 4300 1
4201 4101 1
4201 4202 3
4201 4301 3
4201 4200 4
4202 4102 4
4202 4203 5
4202 4302 2
4202 4201 2
4203 4103 1
4203 4204 1
4203 4303 2
4203 4202 1
4204 4104 5
4204 4205 2
4204 4304 2
4204 4203 4
4205 4105 5
4205 4206 3
4205 4305 5
4205 4204 3
4206 4106 4
4206 4207 1
4206 4306 2
4206 4205 5
4207 4107 4
4207 4208 1
4207 4307 5
4207 4206 1
4208 4108 2
4208 4209 2
4208 4308 2
4208 4207 3
4209 4109 2
4209 4210 4
4209 4309 1
4209 4208 3
4210 4110 1
4210 4211 5
4210 4310 1
4210 4209 1
4211 4111 5
4211 4212 3
4211 4311 5
4211 4210 5
4212 4112 1
4212 4213 3
4212 4312 2
4212 4211 3
4213 4113 2
4213 4214 4
4213 4313 2
4213 4212 2
4214 4114 4
4214 4215 4
4214 4314 4
4214 4213 2
4215 4115 1
4215 4216 2
4215 4315 4
4215 4214 5
4216 4116 5
4216 4217 1
4216 4316 2
4216 4215 2
4217 4117 5
4217 4218 2
4217 4317 1
4217 4216 4
4218 4118 5
4218 4219 1
4218 4318 5
4218 4217 2
4219 4119 2
4219 4220 4
4219 4319 3
4219 4218 2
4220 4120 3
4220 4221 4
4220 4320 1
4220 4219 4
4221 4121 1
4221 4222 3
4221 4321 4
4221 4220 1
4222 4122 2
4222 4223 3
4222 4322 4
4222 4221 4
4223 4123 5
4223 4224 2
4223 4323 2
4223 4222 4
4224 4124 5
4224 4225 5
4224 4324 4
4224 4223 2
4225 4125 2
4225 4226 5
4225 4325 5
4225 4224 3
4226 4126 4
4226 4227 1
4226 4326 4
4226 4225 5
4227 4127 1
4227 4228 4
4227 4327 1
4227 4226 5
4228 4128 1
4228 4229 2
4228 4328 1
4228 4227 3
4229 4129 3
4229 4230 4
4229 4329 3
4229 4228 4
4230 4130 3
4230 4231 3
4230 4330 5
4230 4229 5
4231 4131 3
4231 4232 3
4231 4331 4
4231 4230 5
4232 4132 4
4232 4233 4
4232 4332 5
4232 4231 5
4233 4133 5
4233 4234 5
4233 4333 5
4233 4232 2
4234 4134 4
4234 4235 3
4234 4334 1
4234 4233 4
4235 4135 3
4235 4236 5
4235 4335 5
4235 4234 5
4236 4136 1
4236 4237 3
4236 4336 3
4236 4235 3
4237 4137 3
4237 4238 5
4237 4337 5
4237 4236 2
4238 4138 3
4238 4239 3
4238 4338 2
4238 4237 5
4239 4139 2
4239 4240 3
4239 4339 3
4239 4238 2
4240 4140 3
4240 4241 5
4240 4340 4
4240 4239 3
4241 4141 3
4241 4242 5
4241 4341 4
4241 4240 2
4242 4142 5
4242 4243 2
4242 4342 3
4242 4241 2
4243 4143 3
4243 4244 5
4243 4343 5
4243 4242 3
4244 4144 2
4244 4245 4
4244 4344 5
4244 4243 5
4245 4145 2
4245 4246 1
4245 4345 3
4245 4244 2
4246 4146 2
4246 4247 5
4246 4346 3
4246 4245 2
4247 4147 4
4247 4248 3
4247 4347 2
4247 4246 4
4248 4148 4
4248 4249 3
4248 4348 5
4248 4247 4
4249 4149 5
4249 4250 3
4249 4349 2
4249 4248 3
4250 4150 5
4250 4251 1
4250 4350 3
4250 4249 1
4251 4151 4
4251 4252 5
4251 4351 4
4251 4250 1
4252 4152 1
4252 4253 2
4252 4352 3
4252 4251 4
4253 4153 4
4253 4254 5
4253 4353 5
4253 4252 3
4254 4154 5
4254 4255 5
4254 4354 4
4254 4253 2
4255 4155 3
4255 4256 1
4255 4355 4
4255 4254 4
4256 4156 5
4256 4257 1
4256 4356 4
4256 4255 4
4257 4157 4
4257 4258 3
4257 4357 1
4257 4256 2
4258 4158 2
4258 4259 1
4258 4358 3
4258 4257 1
4259 4159 1
4259 4260 1
4259 4359 3
4259 4258 1
4260 4160 5
4260 4261 5
4260 4360 3
4260 4259 2
4261 4161 1
4261 4262 4
4261 4361 2
4261 4260 1
4262 4162 5
4262 4263 1
4262 4362 1
4262 4261 1
4263 4163 3
4263 4264 5
4263 4363 3
4263 4262 3
4264 4164 4
4264 4265 2
4264 4364 2
4264 4263 2
4265 4165 5
4265 4266 5
4265 4365 5
4265 4264 3
4266 4166 5
4266 4267 3
4266 4366 2
4266 4265 2
4267 4167 1
4267 4268 5
4267 4367 5
4267 4266 3
4268 4168 2
4268 4269 2
4268 4368 4
4268 4267 2
4269 4169 5
4269 4270 5
4269 4369 1
4269 4268 2
4270 4170 1
4270 4271 5
4270 4370 5
4270 4269 3
4271 4171 4
4271 4272 1
4271 4371 1
4271 4270 2
4272 4172 4
4272 4273 2
4272 4372 2
4272 4271 4
4273 4173 5
4273 4274 2
4273 4373 2
4273 4272 2
4274 4174 3
4274 4275 1
4274 4374 1
4274 4273 2
4275 4175 3
4275 4276 4
4275 4375 5
4275 4274 5
4276 4176 4
4276 4277 4
4276 4376 2
4276 4275 2
4277 4177 1
4277 4278 1
4277 4377 4
4277 4276 4
4278 4178 4
4278 4279 2
4278 4378 4
4278 4277 5
4279 4179 4
4279 4280 1
4279 4379 5
4279 4278 3
4280 4180 2
4280 4281 4
4280 4380 4
4280 4279 5
4281 4181 3
4281 4282 3
4281 4381 1
4281 4280 4
4282 4182 5
4282 4283 5
4282 4382 4
4282 4281 4
4283 4183 5
4283 4284 2
4283 4383 3
4283 4282 2
4284 4184 1
4284 4285 5
4284 4384 4
4284 4283 2
4285 4185 4
4285 4286 2
4285 4385 2
4285 4284 3
4286 4186 3
4286 4287 4
4286 4386 3
4286 4285 2
4287 4187 3
4287 4288 2
4287 4387 4
4287 4286 5
4288 4188 4
4288 4289 1
4288 4388 5
4288 4287 2
4289 4189 1
4289 4290 4
4289 4389 1
4289 4288 4
4290 4190 5
4290 4291 3
4290 4390 3
4290 4289 4
4291 4191 1
4291 4292 4
4291 4391 4
4291 4290 4
4292 4192 4
4292 4293 1
4292 4392 4
4292 4291 3
4293 4193 3
4293 4294 2
4293 4393 3
4293 4292 3
4294 4194 3
4294 4295 4
4294 4394 2
4294 4293 2
4295 4195 2
4295 4296 5
4295 4395 5
4295 4294 5
4296 4196 5
4296 4297 2
4296 4396 1
4296 4295 4
4297 4197 3
4297 4298 1
4297 4397 2
4297 4296 1
4298 4198 2
4298 4299 1
4298 4398 5
4298 4297 5
4299 4199 1
4299 4399 3
4299 4298 1
4300 4200 5
4300 4301 3
4300 4400 4
4301 4201 2
4301 4302 3
4301 4401 2
4301 4300 4
4302 4202 3
4302 4303 2
4302 4402 2
4302 4301 4
4303 4203 3
4303 4304 2
4303 4403 5
4303 4302 1
4304 4204 2
4304 4305 1
4304 4404 5
4304 4303 1
4305 4205 5
4305 4306 2
4305 4405 3
4305 4304 5
4306 4206 4
4306 4307 4
4306 4406 2
4306 4305 2
4307 4207 1
4307 4308 2
4307 4407 5
4307 4306 1
4308 4208 1
4308 4309 1
4308 4408 3
4308 4307 2
4309 4209 5
4309 4310 1
4309 4409 4
4309 4308 5
4310 4210 3
4310 4311 2
4310 4410 2
4310 4309 5
4311 4211 2
4311 4312 2
4311 4411 1
4311 4310 3
4312 4212 2
4312 4313 3
4312 4412 5
4312 4311 1
4313 4213 5
4313 4314 5
4313 4413 1
4313 4312 4
4314 4214 2
4314 4315 2
4314 4414 1
4314 4313 4
4315 4215 2
4315 4316 2
4315 4415 2
4315 4314 5
4316 4216 3
4316 4317 5
4316 4416 3
4316 4315 4
4317 4217 2
4317 4318 4
4317 4417 2
4317 4316 1
4318 4218 2
4318 4319 2
4318 4418 5
4318 4317 1
4319 4219 1
4319 4320 4
4319 4419 2
4319 4318 1
4320 4220 3
4320 4321 4
4320 4420 5
4320 4319 4
4321 4221 4
4321 4322 5
4321 4421 5
4321 4320 4
4322 4222 5
4322 4323 4
4322 4422 5
4322 4321 3
4323 4223 5
4323 4324 5
4323 4423 4
4323 4322 3
4324 4224 5
4324 4325 4
4324 4424 2
4324 4323 5
4325 4225 4
4325 4326 2
4325 4425 1
4325 4324 2
4326 4226 1
4326 4327 5
4326 4426 3
4326 4325 3
4327 4227 1
4327 4328 5
4327 4427 4
4327 4326 4
4328 4228 4
4328 4329 3
4328 4428 3
4328 4327 1
4329 4229 3
4329 4330 4
4329 4429 2
4329 4328 1
4330 4230 2
4330 4331 4
4330 4430 2
4330 4329 4
4331 4231 5
4331 4332 2
4331 4431 3
4331 4330 4
4332 4232 2
4332 4333 2
4332 4432 1
4332 4331 2
4333 4233 4
4333 4334 3
4333 4433 4
4333 4332 4
4334 4234 4
4334 4335 4
4334 4434 3
4334 4333 2
4335 4235 4
4335 4336 2
4335 4435 4
4335 4334 1
4336 4236 2
4336 4337 2
4336 4436 1
4336 4335 3
4337 4237 3
4337 4338 1
4337 4437 3
4337 4336 4
4338 4238 4
4338 4339 4
4338 4438 1
4338 4337 5
4339 4239 3
4339 4340 3
4339 4439 5
4339 4338 5
4340 4240 4
4340 4341 1
4340 4440 4
4340 4339 1
4341 4241 3
4341 4342 3
4341 4441 2
4341 4340 3
4342 4242 5
4342 4343 2
4342 4442 1
4342 4341 1
4343 4243 2
4343 4344 5
4343 4443 3
4343 4342 1
4344 4244 1
4344 4345 5
4344 4444 2
4344 4343 5
4345 4245 3
4345 4346 1
4345 4445 4
4345 4344 4
4346 4246 3
4346 4347 5
4346 4446 4
4346 4345 3
4347 4247 5
4347 4348 3
4347 4447 3
4347 4346 3
4348 4248 1
4348 4349 5
4348 4448 5
4348 4347 1
4349 4249 4
4349 4350 4
4349 4449 4
4349 4348 5
4350 4250 1
4350 4351 5
4350 4450 5
4350 4349 5
4351 4251 1
4351 4352 2
4351 4451 4
4351 4350 3
4352 4252 4
4352 4353 3
4352 4452 2
4352 4351 2
4353 4253 2
4353 4354 1
4353 4453 5
4353 4352 4
4354 4254 3
4354 4355 4
4354 4454 2
4354 4353 1
4355 4255 1
4355 4356 3
4355 4455 1
4355 4354 2
4356 4256 2
4356 4357 4
4356 4456 5
4356 4355 2
4357 4257 4
4357 4358 2
4357 4457 4
4357 4356 5
4358 4258 5
4358 4359 3
4358 4458 2
4358 4357 1
4359 4259 1
4359 4360 2
4359 4459 1
4359 4358 3
4360 4260 4
4360 4361 1
4360 4460 2
4360 4359 4
4361 4261 2
4361 4362 4
4361 4461 1
4361 4360 1
4362 4262 4
4362 4363 3
4362 4462 5
4362 4361 3
4363 4263 4
4363 4364 3
4363 4463 5
4363 4362 5
4364 4264 5
4364 4365 3
4364 4464 3
4364 4363 5
4365 4265 2
4365 4366 5
4365 4465 5
4365 4364 3
4366 4266 5
4366 4367 2
4366 4466 2
4366 4365 1
4367 4267 4
4367 4368 4
4367 4467 3
4367 4366 3
4368 4268 5
4368 4369 3
4368 4468 4
4368 4367 4
4369 4269 1
4369 4370 5
4369 4469 3
4369 4368 3
4370 4270 1
4370 4371 2
4370 4470 5
4370 4369 2
4371 4271 2
4371 4372 2
4371 4471 4
4371 4370 2
4372 4272 1
4372 4373 5
4372 4472 5
4372 4371 3
4373 4273 4
4373 4374 4
4373 4473 4
4373 4372 5
4374 4274 3
4374 4375 3
4374 4474 1
4374 4373 2
4375 4275 2
4375 4376 5
4375 4475 4
4375 4374 1
4376 4276 3
4376 4377 1
4376 4476 4
4376 4375 4
4377 4277 4
4377 4378 2
4377 4477 4
4377 4376 4
4378 4278 1
4378 4379 3
4378 4478 3
4378 4377 1
4379 4279 3
4379 4380 2
4379 4479 4
4379 4378 4
4380 4280 4
4380 4381 5
4380 4480 2
4380 4379 4
4381 4281 4
4381 4382 2
4381 4481 3
4381 4380 2
4382 4282 5
4382 4383 2
4382 4482 3
4382 4381 2
4383 4283 5
4383 4384 3
4383 4483 5
4383 4382 4
4384 4284 1
4384 4385 1
4384 4484 1
4384 4383 1
4385 4285 1
4385 4386 2
4385 4485 5
4385 4384 4
4386 4286 4
4386 4387 1
4386 4486 2
4386 4385 1
4387 4287 1
4387 4388 4
4387 4487 2
4387 4386 1
4388 4288 2
4388 4389 3
4388 4488 3
4388 4387 3
4389 4289 5
4389 4390 1
4389 4489 1
4389 4388 2
4390 4290 3
4390 4391 3
4390 4490 1
4390 4389 1
4391 4291 5
4391 4392 1
4391 4491 1
4391 4390 5
4392 4292 1
4392 4393 2
4392 4492 2
4392 4391 4
4393 4293 4
4393 4394 1
4393 4493 3
4393 4392 5
4394 4294 3
4394 4395 5
4394 4494 5
4394 4393 1
4395 4295 5
4395 4396 3
4395 4495 2
4395 4394 1
4396 4296 4
4396 4397 5
4396 4496 3
4396 4395 2
4397 4297 5
4397 4398 1
4397 4497 4
4397 4396 5
4398 4298 2
4398 4399 3
4398 4498 1
4398 4397 4
4399 4299 3
4399 4499 2
4399 4398 4
4400 4300 4
4400 4401 3
4400 4500 5
4401 4301 3
4401 4402 3
4401 4501 4
4401 4400 4
4402 4302 2
4402 4403 3
4402 4502 3
4402 4401 2
4403 4303 2
4403 4404 4
4403 4503 2
4403 4402 2
4404 4304 1
4404 4405 1
4404 4504 1
4404 4403 5
4405 4305 1
4405 4406 2
4405 4505 1
4405 4404 4
4406 4306 2
4406 4407 2
4406 4506 1
4406 4405 3
4407 4307 3
4407 4408 3
4407 4507 5
4407 4406 2
4408 4308 4
4408 4409 4
4408 4508 4
4408 4407 1
4409 4309 5
4409 4410 5
4409 4509 3
4409 4408 2
4410 4310 4
4410 4411 1
4410 4510 3
4410 4409 2
4411 4311 4
4411 4412 2
4411 4511 3
4411 4410 1
4412 4312 1
4412 4413 1
4412 4512 3
4412 4411 4
4413 4313 2
4413 4414 4
4413 4513 4
4413 4412 4
4414 4314 3
4414 4415 4
4414 4514 2
4414 4413 3
4415 4315 4
4415 4416 3
4415 4515 5
4415 4414 2
4416 4316 1
4416 4417 2
4416 4516 3
4416 4415 4
4417 4317 1
4417 4418 4
4417 4517 3
4417 4416 2
4418 4318 1
4418 4419 2
4418 4518 2
4418 4417 5
4419 4319 5
4419 4420 4
4419 4519 3
4419 4418 2
4420 4320 2
4420 4421 4
4420 4520 1
4420 4419 1
4421 4321 3
4421 4422 3
4421 4521 5
4421 4420 3
4422 4322 3
4422 4423 1
4422 4522 1
4422 4421 4
4423 4323 5
4423 4424 2
4423 4523 2
4423 4422 2
4424 4324 3
4424 4425 5
4424 4524 3
4424 4423 5
4425 4325 4
4425 4426 5
4425 4525 5
4425 4424 5
4426 4326 5
4426 4427 2
4426 4526 4
4426 4425 1
4427 4327 4
4427 4428 5
4427 4527 5
4427 4426 3
4428 4328 5
4428 4429 4
4428 4528 1
4428 4427 3
4429 4329 3
4429 4430 1
4429 4529 4
4429 4428 5
4430 4330 1
4430 4431 4
4430 4530 4
4430 4429 4
4431 4331 5
4431 4432 5
4431 4531 2
4431 4430 3
4432 4332 5
4432 4433 2
4432 4532 4
4432 4431 3
4433 4333 3
4433 4434 1
4433 4533 2
4433 4432 5
4434 4334 3
4434 4435 4
4434 4534 3
4434 4433 1
4435 4335 5
4435 4436 2
4435 4535 1
4435 4434 2
4436 4336 4
4436 4437 2
4436 4536 4
4436 4435 1
4437 4337 4
4437 4438 1
4437 4537 1
4437 4436 3
4438 4338 5
4438 4439 5
4438 4538 4
4438 4437 1
4439 4339 5
4439 4440 3
4439 4539 5
4439 4438 1
4440 4340 4
4440 4441 5
4440 4540 2
4440 4439 5
4441 4341 5
4441 4442 3
4441 4541 1
4441 4440 2
4442 4342 4
4442 4443 5
4442 4542 3
4442 4441 2
4443 4343 5
4443 4444 2
4443 4543 1
4443 4442 4
4444 4344 1
4444 4445 3
4444 4544 2
4444 4443 4
4445 4345 1
4445 4446 1
4445 4545 2
4445 4444 3
4446 4346 2
4446 4447 3
4446 4546 3
4446 4445 4
4447 4347 2
4447 4448 4
4447 4547 2
4447 4446 2
4448 4348 3
4448 4449 1
4448 4548 3
4448 4447 3
4449 4349 5
4449 4450 5
4449 4549 1
4449 4448 1
4450 4350 2
4450 4451 1
4450 4550 1
4450 4449 2
4451 4351 1
4451 4452 3
4451 4551 2
4451 4450 1
4452 4352 4
4452 4453 3
4452 4552 1
4452 4451 5
4453 4353 5
4453 4454 4
4453 4553 5
4453 4452 1
4454 4354 4
4454 4455 5
4454 4554 3
4454 4453 1
4455 4355 3
4455 4456 1
4455 4555 3
4455 4454 2
4456 4356 4
4456 4457 2
4456 4556 5
4456 4455 3
4457 4357 1
4457 4458 5
4457 4557 1
4457 4456 1
4458 4358 2
4458 4459 2
4458 4558 3
4458 4457 2
4459 4359 5
4459 4460 5
4459 4559 2
4459 4458 4
4460 4360 3
4460 4461 1
4460 4560 3
4460 4459 4
4461 4361 4
4461 4462 1
4461 4561 5
4461 4460 4
4462 4362 2
4462 4463 2
4462 4562 2
4462 4461 5
4463 4363 4
4463 4464 5
4463 4563 1
4463 4462 2
4464 4364 4
4464 4465 5
4464 4564 4
4464 4463 4
4465 4365 3
4465 4466 3
4465 4565 2
4465 4464 1
4466 4366 1
4466 4467 4
4466 4566 2
4466 4465 1
4467 4367 5
4467 4468 3
4467 4567 1
4467 4466 3
4468 4368 3
4468 4469 4
4468 4568 1
4468 4467 3
4469 4369 4
4469 4470 1
4469 4569 2
4469 4468 1
4470 4370 5
4470 4471 5
4470 4570 5
4470 4469 1
4471 4371 5
4471 4472 2
4471 4571 4
4471 4470 4
4472 4372 5
4472 4473 5
4472 4572 3
4472 4471 1
4473 4373 5
4473 4474 1
4473 4573 3
4473 4472 2
4474 4374 3
4474 4475 5
4474 4574 4
4474 4473 3
4475 4375 1
4475 4476 1
4475 4575 1
4475 4474 3
4476 4376 2
4476 4477 3
4476 4576 4
4476 4475 2
4477 4377 3
4477 4478 3
4477 4577 4
4477 4476 1
4478 4378 5
4478 4479 3
4478 4578 1
4478 4477 4
4479 4379 3
4479 4480 3
4479 4579 4
4479 4478 1
4480 4380 1
4480 4481 3
4480 4580 3
4480 4479 2
4481 4381 1
4481 4482 2
4481 4581 5
4481 4480 5
4482 4382 5
4482 4483 1
4482 4582 3
4482 4481 1
4483 4383 1
4483 4484 3
4483 4583 3
4483 4482 3
4484 4384 1
4484 4485 2
4484 4584 5
4484 4483 2
4485 4385 5
4485 4486 1
4485 4585 2
4485 4484 1
4486 4386 3
4486 4487 3
4486 4586 5
4486 4485 5
4487 4387 1
4487 4488 5
4487 4587 5
4487 4486 5
4488 4388 3
4488 4489 5
4488 4588 3
4488 4487 1
4489 4389 4
4489 4490 1
4489 4589 3
4489 4488 4
4490 4390 1
4490 4491 3
4490 4590 3
4490 4489 1
4491 4391 2
4491 4492 1
4491 4591 1
4491 4490 5
4492 4392 1
4492 4493 1
4492 4592 4
4492 4491 1
4493 4393 4
4493 4494 3
4493 4593 4
4493 4492 5
4494 4394 1
4494 4495 3
4494 4594 2
4494 4493 5
4495 4395 5
4495 4496 2
4495 4595 1
4495 4494 3
4496 4396 2
4496 4497 2
4496 4596 5
4496 4495 1
4497 4397 1
4497 4498 4
4497 4597 2
4497 4496 2
4498 4398 2
4498 4499 5
4498 4598 2
4498 4497 4
4499 4399 1
4499 4599 5
4499 4498 3
4500 4400 5
4500 4501 2
4500 4600 4
4501 4401 5
4501 4502 2
4501 4601 1
4501 4500 4
4502 4402 2
4502 4503 5
4502 4602 4
4502 4501 2
4503 4403 5
4503 4504 3
4503 4603 3
4503 4502 2
4504 4404 4
4504 4505 5
4504 4604 4
4504 4503 5
4505 4405 3
4505 4506 3
4505 4605 2
4505 4504 5
4506 4406 1
4506 4507 4
4506 4606 3
4506 4505 5
4507 4407 4
4507 4508 1
4507 4607 1
4507 4506 4
4508 4408 5
4508 4509 2
4508 4608 3
4508 4507 2
4509 4409 5
4509 4510 2
4509 4609 5
4509 4508 1
4510 4410 2
4510 4511 2
4510 4610 1
4510 4509 2
4511 4411 2
4511 4512 1
4511 4611 1
4511 4510 4
4512 4412 2
4512 4513 2
4512 4612 3
4512 4511 1
4513 4413 5
4513 4514 1
4513 4613 2
4513 4512 1
4514 4414 1
4514 4515 4
4514 4614 1
4514 4513 3
4515 4415 2
4515 4516 4
4515 4615 2
4515 4514 2
4516 4416 1
4516 4517 3
4516 4616 3
4516 4515 4
4517 4417 4
4517 4518 5
4517 4617 3
4517 4516 4
4518 4418 2
4518 4519 2
4518 4618 2
4518 4517 4
4519 4419 3
4519 4520 2
4519 4619 2
4519 4518 4
4520 4420 4
4520 4521 3
4520 4620 4
4520 4519 1
4521 4421 3
4521 4522 1
4521 4621 4
4521 4520 4
4522 4422 2
4522 4523 1
4522 4622 1
4522 4521 4
4523 4423 5
4523 4524 3
4523 4623 2
4523 4522 4
4524 4424 1
4524 4525 3
4524 4624 2
4524 4523 3
4525 4425 3
4525 4526 2
4525 4625 4
4525 4524 1
4526 4426 4
4526 4527 5
4526 4626 1
4526 4525 5
4527 4427 4
4527 4528 3
4527 4627 3
4527 4526 2
4528 4428 4
4528 4529 2
4528 4628 3
4528 4527 4
4529 4429 4
4529 4530 3
4529 4629 2
4529 4528 4
4530 4430 2
4530 4531 4
4530 4630 2
4530 4529 1
4531 4431 2
4531 4532 4
4531 4631 4
4531 4530 2
4532 4432 5
4532 4533 5
4532 4632 2
4532 4531 1
4533 4433 3
4533 4534 3
4533 4633 5
4533 4532 3
4534 4434 1
4534 4535 3
4534 4634 5
4534 4533 3
4535 4435 4
4535 4536 1
4535 4635 1
4535 4534 5
4536 4436 1
4536 4537 2
4536 4636 3
4536 4535 3
4537 4437 2
4537 4538 5
4537 4637 5
4537 4536 5
4538 4438 5
4538 4539 2
4538 4638 4
4538 4537 5
4539 4439 1
4539 4540 2
4539 4639 1
4539 4538 3
4540 4440 5
4540 4541 4
4540 4640 5
4540 4539 3
4541 4441 1
4541 4542 4
4541 4641 2
4541 4540 2
4542 4442 1
4542 4543 3
4542 4642 4
4542 4541 3
4543 4443 3
4543 4544 5
4543 4643 2
4543 4542 4
4544 4444 5
4544 4545 5
4544 4644 5
4544 4543 3
4545 4445 1
4545 4546 4
4545 4645 4
4545 4544 5
4546 4446 2
4546 4547 2
4546 4646 3
4546 4545 1
4547 4447 3
4547 4548 3
4547 4647 4
4547 4546 2
4548 4448 5
4548 4549 3
4548 4648 4
4548 4547 2
4549 4449 4
4549 4550 5
4549 4649 1
4549 4548 1
4550 4450 1
4550 4551 5
4550 4650 2
4550 4549 2
4551 4451 4
4551 4552 1
4551 4651 2
4551 4550 4
4552 4452 4
4552 4553 5
4552 4652 1
4552 4551 1
4553 4453 5
4553 4554 4
4553 4653 2
4553 4552 2
4554 4454 2
4554 4555 2
4554 4654 3
4554 4553 1
4555 4455 1
4555 4556 3
4555 4655 1
4555 4554 5
4556 4456 4
4556 4557 1
4556 4656 3
4556 4555 5
4557 4457 4
4557 4558 2
4557 4657 1
4557 4556 3
4558 4458 2
4558 4559 5
4558 4658 1
4558 4557 1
4559 4459 3
4559 4560 5
4559 4659 5
4559 4558 2
4560 4460 1
4560 4561 4
4560 4660 3
4560 4559 5
4561 4461 2
4561 4562 1
4561 4661 4
4561 4560 2
4562 4462 4
4562 4563 3
4562 4662 1
4562 4561 1
4563 4463 5
4563 4564 5
4563 4663 2
4563 4562 5
4564 4464 3
4564 4565 1
4564 4664 4
4564 4563 3
4565 4465 3
4565 4566 4
4565 4665 5
4565 4564 2
4566 4466 1
4566 4567 1
4566 4666 5
4566 4565 1
4567 4467 3
4567 4568 2
4567 4667 2
4567 4566 2
4568 4468 2
4568 4569 1
4568 4668 2
4568 4567 2
4569 4469 2
4569 4570 2
4569 4669 2
4569 4568 3
4570 4470 4
4570 4571 1
4570 4670 4
4570 4569 2
4571 4471 5
4571 4572 2
4571 4671 1
4571 4570 1
4572 4472 2
4572 4573 3
4572 4672 3
4572 4571 4
4573 4473 2
4573 4574 1
4573 4673 2
4573 4572 4
4574 4474 4
4574 4575 1
4574 4674 2
4574 4573 3
4575 4475 1
4575 4576 5
4575 4675 2
4575 4574 4
4576 4476 1
4576 4577 1
4576 4676 2
4576 4575 2
4577 4477 1
4577 4578 2
4577 4677 4
4577 4576 1
4578 4478 4
4578 4579 2
4578 4678 2
4578 4577 3
4579 4479 5
4579 4580 5
4579 4679 5
4579 4578 5
4580 4480 5
4580 4581 3
4580 4680 4
4580 4579 2
4581 4481 5
4581 4582 5
4581 4681 5
4581 4580 2
4582 4482 4
4582 4583 4
4582 4682 2
4582 4581 5
4583 4483 4
4583 4584 3
4583 4683 3
4583 4582 3
4584 4484 5
4584 4585 2
4584 4684 1
4584 4583 2
4585 4485 4
4585 4586 3
4585 4685 4
4585 4584 5
4586 4486 4
4586 4587 1
4586 4686 5
4586 4585 1
4587 4487 2
4587 4588 1
4587 4687 2
4587 4586 5
4588 4488 1
4588 4589 5
4588 4688 4
4588 4587 4
4589 4489 5
4589 4590 2
4589 4689 1
4589 4588 5
4590 4490 2
4590 4591 5
4590 4690 2
4590 4589 2
4591 4491 2
4591 4592 1
4591 4691 5
4591 4590 5
4592 4492 5
4592 4593 1
4592 4692 2
4592 4591 5
4593 4493 5
4593 4594 1
4593 4693 3
4593 4592 5
4594 4494 5
4594 4595 1
4594 4694 3
4594 4593 3
4595 4495 3
4595 4596 5
4595 4695 2
4595 4594 2
4596 4496 1
4596 4597 4
4596 4696 4
4596 4595 2
4597 4497 2
4597 4598 2
4597 4697 1
4597 4596 5
4598 4498 2
4598 4599 5
4598 4698 4
4598 4597 1
4599 4499 4
4599 4699 5
4599 4598 1
4600 4500 3
4600 4601 4
4600 4700 2
4601 4501 3
4601 4602 3
4601 4701 1
4601 4600 1
4602 4502 1
4602 4603 1
4602 4702 1
4602 4601 1
4603 4503 1
4603 4604 3
4603 4703 2
4603 4602 5
4604 4504 1
4604 4605 1
4604 4704 2
4604 4603 4
4605 4505 1
4605 4606 4
4605 4705 5
4605 4604 3
4606 4506 1
4606 4607 5
4606 4706 1
4606 4605 2
4607 4507 3
4607 4608 3
4607 4707 4
4607 4606 1
4608 4508 5
4608 4609 3
4608 4708 3
4608 4607 3
4609 4509 2
4609 4610 1
4609 4709 5
4609 4608 2
4610 4510 5
4610 4611 5
4610 4710 5
4610 4609 4
4611 4511 3
4611 4612 4
4611 4711 5
4611 4610 1
4612 4512 2
4612 4613 2
4612 4712 3
4612 4611 5
4613 4513 5
4613 4614 1
4613 4713 3
4613 4612 4
4614 4514 4
4614 4615 1
4614 4714 5
4614 4613 4
4615 4515 4
4615 4616 1
4615 4715 1
4615 4614 5
4616 4516 1
4616 4617 1
4616 4716 3
4616 4615 2
4617 4517 4
4617 4618 3
4617 4717 3
4617 4616 1
4618 4518 3
4618 4619 5
4618 4718 3
4618 4617 5
4619 4519 2
4619 4620 4
4619 4719 4
4619 4618 5
4620 4520 1
4620 4621 2
4620 4720 4
4620 4619 2
4621 4521 3
4621 4622 5
4621 4721 2
4621 4620 3
4622 4522 3
4622 4623 1
4622 4722 3
4622 4621 3
4623 4523 2
4623 4624 5
4623 4723 4
4623 4622 1
4624 4524 5
4624 4625 1
4624 4724 4
4624 4623 1
4625 4525 4
4625 4626 2
4625 4725 2
4625 4624 4
4626 4526 5
4626 4627 5
4626 4726 5
4626 4625 4
4627 4527 5
4627 4628 3
4627 4727 1
4627 4626 5
4628 4528 5
4628 4629 2
4628 4728 2
4628 4627 1
4629 4529 1
4629 4630 3
4629 4729 1
4629 4628 1
4630 4530 4
4630 4631 3
4630 4730 5
4630 4629 1
4631 4531 5
4631 4632 5
4631 4731 1
4631 4630 3
4632 4532 3
4632 4633 2
4632 4732 5
4632 4631 4
4633 4533 4
4633 4634 2
4633 4733 5
4633 4632 2
4634 4534 4
4634 4635 2
4634 4734 5
4634 4633 1
4635 4535 4
4635 4636 3
4635 4735 2
4635 4634 2
4636 4536 1
4636 4637 2
4636 4736 4
4636 4635 5
4637 4537 3
4637 4638 2
4637 4737 5
4637 4636 5
4638 4538 3
4638 4639 4
4638 4738 3
4638 4637 2
4639 4539 1
4639 4640 2
4639 4739 4
4639 4638 2
4640 4540 3
4640 4641 5
4640 4740 4
4640 4639 2
4641 4541 1
4641 4642 3
4641 4741 3
4641 4640 1
4642 4542 4
4642 4643 1
4642 4742 4
4642 4641 3
4643 4543 4
4643 4644 2
4643 4743 3
4643 4642 3
4644 4544 3
4644 4645 1
4644 4744 2
4644 4643 4
4645 4545 2
4645 4646 3
4645 4745 3
4645 4644 5
4646 4546 2
4646 4647 3
4646 4746 2
4646 4645 1
4647 4547 1
4647 4648 4
4647 4747 4
4647 4646 3
4648 4548 4
4648 4649 3
4648 4748 3
4648 4647 5
4649 4549 5
4649 4650 5
4649 4749 5
4649 4648 1
4650 4550 2
4650 4651 1
4650 4750 3
4650 4649 2
4651 4551 5
4651 4652 5
4651 4751 5
4651 4650 2
4652 4552 3
4652 4653 3
4652 4752 2
4652 4651 4
4653 4553 5
4653 4654 1
4653 4753 3
4653 4652 1
4654 4554 3
4654 4655 1
4654 4754 3
4654 4653 2
4655 4555 2
4655 4656 2
4655 4755 2
4655 4654 3
4656 4556 2
4656 4657 5
4656 4756 3
4656 4655 5
4657 4557 3
4657 4658 1
4657 4757 4
4657 4656 2
4658 4558 2
4658 4659 1
4658 4758 1
4658 4657 1
4659 4559 5
4659 4660 4
4659 4759 5
4659 4658 4
4660 4560 1
4660 4661 5
4660 4760 1
4660 4659 5
4661 4561 2
4661 4662 2
4661 4761 5
4661 4660 1
4662 4562 2
4662 4663 4
4662 4762 2
4662 4661 2
4663 4563 4
4663 4664 3
4663 4763 2
4663 4662 1
4664 4564 4
4664 4665 1
4664 4764 1
4664 4663 1
4665 4565 5
4665 4666 5
4665 4765 4
4665 4664 3
4666 4566 4
4666 4667 1
4666 4766 4
4666 4665 5
4667 4567 4
4667 4668 5
4667 4767 5
4667 4666 1
4668 4568 1
4668 4669 2
4668 4768 2
4668 4667 1
4669 4569 1
4669 4670 5
4669 4769 1
4669 4668 3
4670 4570 4
4670 4671 1
4670 4770 5
4670 4669 2
4671 4571 5
4671 4672 5
4671 4771 1
4671 4670 2
4672 4572 4
4672 4673 3
4672 4772 4
4672 4671 4
4673 4573 3
4673 4674 3
4673 4773 5
4673 4672 1
4674 4574 4
4674 4675 1
4674 4774 5
4674 4673 2
4675 4575 4
4675 4676 3
4675 4775 5
4675 4674 3
4676 4576 2
4676 4677 1
4676 4776 1
4676 4675 3
4677 4577 5
4677 4678 1
4677 4777 1
4677 4676 5
4678 4578 5
4678 4679 3
4678 4778 1
4678 4677 5
4679 4579 3
4679 4680 2
4679 4779 2
4679 4678 4
4680 4580 5
4680 4681 4
4680 4780 3
4680 4679 1
4681 4581 5
4681 4682 2
4681 4781 4
4681 4680 2
4682 4582 2
4682 4683 2
4682 4782 2
4682 4681 5
4683 4583 5
4683 4684 5
4683 4783 2
4683 4682 1
4684 4584 2
4684 4685 4
4684 4784 3
4684 4683 3
4685 4585 3
4685 4686 4
4685 4785 1
4685 4684 1
4686 4586 3
4686 4687 1
4686 4786 3
4686 4685 2
4687 4587 5
4687 4688 5
4687 4787 4
4687 4686 1
4688 4588 3
4688 4689 1
4688 4788 3
4688 4687 2
4689 4589 4
4689 4690 4
4689 4789 4
4689 4688 4
4690 4590 1
4690 4691 5
4690 4790 1
4690 4689 1
4691 4591 2
4691 4692 4
4691 4791 1
4691 4690 1
4692 4592 2
4692 4693 1
4692 4792 5
4692 4691 2
4693 4593 3
4693 4694 4
4693 4793 4
4693 4692 5
4694 4594 1
4694 4695 1
4694 4794 4
4694 4693 2
4695 4595 4
4695 4696 1
4695 4795 3
4695 4694 2
4696 4596 1
4696 4697 2
4696 4796 2
4696 4695 3
4697 4597 3
4697 4698 3
4697 4797 1
4697 4696 4
4698 4598 5
4698 4699 5
4698 4798 2
4698 4697 4
4699 4599 5
4699 4799 1
4699 4698 4
4700 4600 4
4700 4701 4
4700 4800 5
4701 4601 2
4701 4702 5
4701 4801 2
4701 4700 5
4702 4602 3
4702 4703 3
4702 4802 1
4702 4701 1
4703 4603 2
4703 4704 3
4703 4803 5
4703 4702 1
4704 4604 5
4704 4705 4
4704 4804 2
4704 4703 3
4705 4605 3
4705 4706 2
4705 4805 4
4705 4704 5
4706 4606 5
4706 4707 2
4706 4806 4
4706 4705 1
4707 4607 2
4707 4708 2
4707 4807 3
4707 4706 5
4708 4608 1
4708 4709 1
4708 4808 1
4708 4707 3
4709 4609 4
4709 4710 1
4709 4809 5
4709 4708 1
4710 4610 5
4710 4711 3
4710 4810 5
4710 4709 5
4711 4611 1
4711 4712 3
4711 4811 3
4711 4710 5
4712 4612 2
4712 4713 1
4712 4812 4
4712 4711 3
4713 4613 5
4713 4714 2
4713 4813 4
4713 4712 5
4714 4614 5
4714 4715 5
4714 4814 4
4714 4713 5
4715 4615 5
4715 4716 4
4715 4815 3
4715 4714 5
4716 4616 5
4716 4717 5
4716 4816 4
4716 4715 1
4717 4617 5
4717 4718 3
4717 4817 2
4717 4716 5
4718 4618 3
4718 4719 5
4718 4818 4
4718 4717 5
4719 4619 2
4719 4720 2
4719 4819 3
4719 4718 5
4720 4620 1
4720 4721 3
4720 4820 1
4720 4719 5
4721 4621 3
4721 4722 5
4721 4821 5
4721 4720 2
4722 4622 2
4722 4723 2
4722 4822 1
4722 4721 2
4723 4623 2
4723 4724 3
4723 4823 2
4723 4722 4
4724 4624 4
4724 4725 5
4724 4824 5
4724 4723 1
4725 4625 4
4725 4726 5
4725 4825 1
4725 4724 5
4726 4626 4
4726 4727 2
4726 4826 4
4726 4725 1
4727 4627 4
4727 4728 4
4727 4827 1
4727 4726 4
4728 4628 2
4728 4729 2
4728 4828 3
4728 4727 5
4729 4629 2
4729 4730 5
4729 4829 5
4729 4728 2
4730 4630 3
4730 4731 5
4730 4830 3
4730 4729 2
4731 4631 5
4731 4732 2
4731 4831 5
4731 4730 1
4732 4632 3
4732 4733 1
4732 4832 3
4732 4731 4
4733 4633 1
4733 4734 2
4733 4833 5
4733 4732 5
4734 4634 4
4734 4735 3
4734 4834 1
4734 4733 5
4735 4635 2
4735 4736 4
4735 4835 5
4735 4734 3
4736 4636 5
4736 4737 2
4736 4836 4
4736 4735 3
4737 4637 1
4737 4738 5
4737 4837 4
4737 4736 5
4738 4638 4
4738 4739 3
4738 4838 4
4738 4737 1
4739 4639 2
4739 4740 1
4739 4839 5
4739 4738 4
4740 4640 4
4740 4741 1
4740 4840 2
4740 4739 2
4741 4641 5
4741 4742 3
4741 4841 5
4741 4740 3
4742 4642 1
4742 4743 3
4742 4842 2
4742 4741 3
4743 4643 4
4743 4744 5
4743 4843 2
4743 4742 2
4744 4644 5
4744 4745 3
4744 4844 5
4744 4743 3
4745 4645 1
4745 4746 1
4745 4845 2
4745 4744 4
4746 4646 2
4746 4747 1
4746 4846 1
4746 4745 5
4747 4647 4
4747 4748 5
4747 4847 4
4747 4746 4
4748 4648 1
4748 4749 1
4748 4848 1
4748 4747 4
4749 4649 5
4749 4750 2
4749 4849 1
4749 4748 1
4750 4650 2
4750 4751 5
4750 4850 3
4750 4749 1
4751 4651 1
4751 4752 1
4751 4851 4
4751 4750 5
4752 4652 1
4752 4753 5
4752 4852 3
4752 4751 1
4753 4653 3
4753 4754 5
4753 4853 1
4753 4752 3
4754 4654 1
4754 4755 4
4754 4854 4
4754 4753 2
4755 4655 5
4755 4756 2
4755 4855 5
4755 4754 4
4756 4656 4
4756 4757 2
4756 4856 1
4756 4755 3
4757 4657 2
4757 4758 3
4757 4857 3
4757 4756 1
4758 4658 4
4758 4759 4
4758 4858 4
4758 4757 5
4759 4659 3
4759 4760 4
4759 4859 2
4759 4758 1
4760 4660 4
4760 4761 2
4760 4860 4
4760 4759 4
4761 4661 2
4761 4762 5
4761 4861 2
4761 4760 3
4762 4662 1
4762 4763 5
4762 4862 1
4762 4761 4
4763 4663 4
4763 4764 4
4763 4863 1
4763 4762 2
4764 4664 5
4764 4765 5
4764 4864 1
4764 4763 3
4765 4665 1
4765 4766 4
4765 4865 5
4765 4764 5
4766 4666 3
4766 4767 1
4766 4866 2
4766 4765 2
4767 4667 2
4767 4768 4
4767 4867 2
4767 4766 1
4768 4668 2
4768 4769 3
4768 4868 3
4768 4767 2
4769 4669 2
4769 4770 3
4769 4869 4
4769 4768 1
4770 4670 4
4770 4771 5
4770 4870 1
4770 4769 4
4771 4671 1
4771 4772 2
4771 4871 2
4771 4770 1
4772 4672 1
4772 4773 5
4772 4872 2
4772 4771 1
4773 4673 4
4773 4774 1
4773 4873 2
4773 4772 4
4774 4674 2
4774 4775 5
4774 4874 3
4774 4773 2
4775 4675 4
4775 4776 4
4775 4875 5
4775 4774 5
4776 4676 3
4776 4777 4
4776 4876 1
4776 4775 2
4777 4677 2
4777 4778 4
4777 4877 1
4777 4776 5
4778 4678 3
4778 4779 3
4778 4878 3
4778 4777 5
4779 4679 1
4779 4780 2
4779 4879 5
4779 4778 3
4780 4680 1
4780 4781 2
4780 4880 4
4780 4779 3
4781 4681 5
4781 4782 1
4781 4881 1
4781 4780 4
4782 4682 3
4782 4783 3
4782 4882 1
4782 4781 2
4783 4683 4
4783 4784 2
4783 4883 3
4783 4782 1
4784 4684 4
4784 4785 4
4784 4884 5
4784 4783 1
4785 4685 2
4785 4786 4
4785 4885 4
4785 4784 5
4786 4686 2
4786 4787 2
4786 4886 1
4786 4785 1
4787 4687 2
4787 4788 1
4787 4887 4
4787 4786 5
4788 4688 5
4788 4789 2
4788 4888 1
4788 4787 2
4789 4689 3
4789 4790 5
4789 4889 4
4789 4788 2
4790 4690 5
4790 4791 5
4790 4890 3
4790 4789 4
4791 4691 5
4791 4792 4
4791 4891 2
4791 4790 4
4792 4692 2
4792 4793 5
4792 4892 2
4792 4791 1
4793 4693 5
4793 4794 2
4793 4893 5
4793 4792 3
4794 4694 4
4794 4795 1
4794 4894 3
4794 4793 2
4795 4695 5
4795 4796 4
4795 4895 1
4795 4794 4
4796 4696 5
4796 4797 5
4796 4896 4
4796 4795 4
4797 4697 1
4797 4798 4
4797 4897 4
4797 4796 1
4798 4698 4
4798 4799 4
4798 4898 2
4798 4797 4
4799 4699 5
4799 4899 2
4799 4798 1
4800 4700 3
4800 4801 1
4800 4900 4
4801 4701 5
4801 4802 2
4801 4901 1
4801 4800 2
4802 4702 2
4802 4803 2
4802 4902 3
4802 4801 3
4803 4703 2
4803 4804 1
4803 4903 4
4803 4802 3
4804 4704 1
4804 4805 3
4804 4904 5
4804 4803 4
4805 4705 1
4805 4806 3
4805 4905 4
4805 4804 5
4806 4706 2
4806 4807 1
4806 4906 5
4806 4805 2
4807 4707 1
4807 4808 5
4807 4907 2
4807 4806 3
4808 4708 5
4808 4809 4
4808 4908 4
4808 4807 5
4809 4709 1
4809 4810 5
4809 4909 5
4809 4808 5
4810 4710 3
4810 4811 2
4810 4910 4
4810 4809 5
4811 4711 5
4811 4812 5
4811 4911 3
4811 4810 5
4812 4712 1
4812 4813 2
4812 4912 2
4812 4811 1
4813 4713 3
4813 4814 1
4813 4913 5
4813 4812 2
4814 4714 5
4814 4815 4
4814 4914 5
4814 4813 3
4815 4715 5
4815 4816 3
4815 4915 2
4815 4814 3
4816 4716 5
4816 4817 3
4816 4916 5
4816 4815 5
4817 4717 5
4817 4818 1
4817 4917 1
4817 4816 3
4818 4718 3
4818 4819 4
4818 4918 5
4818 4817 5
4819 4719 4
4819 4820 1
4819 4919 4
4819 4818 1
4820 4720 3
4820 4821 2
4820 4920 2
4820 4819 5
4821 4721 4
4821 4822 4
4821 4921 4
4821 4820 4
4822 4722 2
4822 4823 5
4822 4922 2
4822 4821 1
4823 4723 5
4823 4824 4
4823 4923 3
4823 4822 4
4824 4724 1
4824 4825 5
4824 4924 1
4824 4823 4
4825 4725 4
4825 4826 5
4825 4925 5
4825 4824 4
4826 4726 4
4826 4827 5
4826 4926 2
4826 4825 5
4827 4727 5
4827 4828 4
4827 4927 5
4827 4826 4
4828 4728 2
4828 4829 2
4828 4928 3
4828 4827 5
4829 4729 5
4829 4830 2
4829 4929 4
4829 4828 1
4830 4730 5
4830 4831 3
4830 4930 5
4830 4829 1
4831 4731 4
4831 4832 2
4831 4931 2
4831 4830 3
4832 4732 1
4832 4833 3
4832 4932 1
4832 4831 3
4833 4733 4
4833 4834 4
4833 4933 5
4833 4832 3
4834 4734 4
4834 4835 5
4834 4934 1
4834 4833 1
4835 4735 1
4835 4836 2
4835 4935 3
4835 4834 5
4836 4736 2
4836 4837 3
4836 4936 3
4836 4835 3
4837 4737 3
4837 4838 2
4837 4937 5
4837 4836 4
4838 4738 4
4838 4839 5
4838 4938 4
4838 4837 2
4839 4739 2
4839 4840 3
4839 4939 5
4839 4838 3
4840 4740 2
4840 4841 2
4840 4940 2
4840 4839 5
4841 4741 5
4841 4842 3
4841 4941 4
4841 4840 2
4842 4742 2
4842 4843 5
4842 4942 5
4842 4841 1
4843 4743 3
4843 4844 4
4843 4943 2
4843 4842 3
4844 4744 1
4844 4845 3
4844 4944 2
4844 4843 5
4845 4745 3
4845 4846 4
4845 4945 2
4845 4844 3
4846 4746 4
4846 4847 2
4846 4946 5
4846 4845 2
4847 4747 4
4847 4848 5
4847 4947 2
4847 4846 2
4848 4748 3
4848 4849 5
4848 4948 5
4848 4847 3
4849 4749 1
4849 4850 2
4849 4949 5
4849 4848 1
4850 4750 5
4850 4851 4
4850 4950 3
4850 4849 3
4851 4751 1
4851 4852 4
4851 4951 5
4851 4850 3
4852 4752 4
4852 4853 5
4852 4952 3
4852 4851 1
4853 4753 5
4853 4854 3
4853 4953 4
4853 4852 3
4854 4754 3
4854 4855 2
4854 4954 1
4854 4853 2
4855 4755 3
4855 4856 5
4855 4955 1
4855 4854 5
4856 4756 5
4856 4857 1
4856 4956 1
4856 4855 4
4857 4757 5
4857 4858 4
4857 4957 2
4857 4856 1
4858 4758 2
4858 4859 5
4858 4958 3
4858 4857 5
4859 4759 2
4859 4860 3
4859 4959 1
4859 4858 1
4860 4760 3
4860 4861 2
4860 4960 4
4860 4859 3
4861 4761 1
4861 4862 3
4861 4961 3
4861 4860 4
4862 4762 1
4862 4863 3
4862 4962 3
4862 4861 2
4863 4763 1
4863 4864 2
4863 4963 2
4863 4862 3
4864 4764 5
4864 4865 2
4864 4964 4
4864 4863 4
4865 4765 5
4865 4866 1
4865 4965 2
4865 4864 4
4866 4766 4
4866 4867 3
4866 4966 1
4866 4865 1
4867 4767 5
4867 4868 3
4867 4967 2
4867 4866 1
4868 4768 3
4868 4869 1
4868 4968 1
4868 4867 3
4869 4769 2
4869 4870 4
4869 4969 4
4869 4868 5
4870 4770 5
4870 4871 1
4870 4970 5
4870 4869 5
4871 4771 4
4871 4872 5
4871 4971 1
4871 4870 5
4872 4772 2
4872 4873 4
4872 4972 1
4872 4871 3
4873 4773 3
4873 4874 2
4873 4973 2
4873 4872 5
4874 4774 5
4874 4875 5
4874 4974 3
4874 4873 4
4875 4775 2
4875 4876 2
4875 4975 3
4875 4874 5
4876 4776 4
4876 4877 4
4876 4976 1
4876 4875 3
4877 4777 5
4877 4878 5
4877 4977 4
4877 4876 4
4878 4778 5
4878 4879 4
4878 4978 3
4878 4877 3
4879 4779 2
4879 4880 2
4879 4979 4
4879 4878 3
4880 4780 5
4880 4881 3
4880 4980 3
4880 4879 5
4881 4781 3
4881 4882 5
4881 4981 4
4881 4880 3
4882 4782 3
4882 4883 5
4882 4982 3
4882 4881 2
4883 4783 5
4883 4884 2
4883 4983 3
4883 4882 5
4884 4784 1
4884 4885 1
4884 4984 4
4884 4883 3
4885 4785 1
4885 4886 2
4885 4985 1
4885 4884 1
4886 4786 1
4886 4887 2
4886 4986 3
4886 4885 3
4887 4787 2
4887 4888 5
4887 4987 2
4887 4886 1
4888 4788 2
4888 4889 2
4888 4988 1
4888 4887 3
4889 4789 3
4889 4890 1
4889 4989 2
4889 4888 1
4890 4790 3
4890 4891 3
4890 4990 4
4890 4889 1
4891 4791 5
4891 4892 2
4891 4991 4
4891 4890 5
4892 4792 2
4892 4893 1
4892 4992 3
4892 4891 3
4893 4793 3
4893 4894 5
4893 4993 5
4893 4892 5
4894 4794 4
4894 4895 4
4894 4994 5
4894 4893 5
4895 4795 4
4895 4896 2
4895 4995 4
4895 4894 2
4896 4796 4
4896 4897 4
4896 4996 4
4896 4895 3
4897 4797 4
4897 4898 2
4897 4997 1
4897 4896 2
4898 4798 3
4898 4899 5
4898 4998 2
4898 4897 3
4899 4799 3
4899 4999 2
4899 4898 1
4900 4800 5
4900 4901 2
4900 5000 2
4901 4801 5
4901 4902 1
4901 5001 2
4901 4900 2
4902 4802 1
4902 4903 2
4902 5002 2
4902 4901 5
4903 4803 2
4903 4904 1
4903 5003 3
4903 4902 5
4904 4804 1
4904 4905 1
4904 5004 4
4904 4903 1
4905 4805 1
4905 4906 5
4905 5005 2
4905 4904 4
4906 4806 3
4906 4907 4
4906 5006 2
4906 4905 2
4907 4807 5
4907 4908 4
4907 5007 3
4907 4906 1
4908 4808 5
4908 4909 2
4908 5008 4
4908 4907 4
4909 4809 5
4909 4910 1
4909 5009 4
4909 4908 2
4910 4810 2
4910 4911 3
4910 5010 4
4910 4909 4
4911 4811 3
4911 4912 3
4911 5011 3
4911 4910 5
4912 4812 3
4912 4913 4
4912 5012 2
4912 4911 4
4913 4813 2
4913 4914 5
4913 5013 1
4913 4912 3
4914 4814 2
4914 4915 5
4914 5014 1
4914 4913 5
4915 4815 4
4915 4916 4
4915 5015 5
4915 4914 2
4916 4816 1
4916 4917 4
4916 5016 1
4916 4915 5
4917 4817 2
4917 4918 4
4917 5017 1
4917 4916 4
4918 4818 2
4918 4919 1
4918 5018 4
4918 4917 2
4919 4819 2
4919 4920 4
4919 5019 2
4919 4918 5
4920 4820 5
4920 4921 2
4920 5020 1
4920 4919 3
4921 4821 2
4921 4922 2
4921 5021 2
4921 4920 5
4922 4822 5
4922 4923 5
4922 5022 2
4922 4921 4
4923 4823 2
4923 4924 1
4923 5023 4
4923 4922 3
4924 4824 5
4924 4925 1
4924 5024 3
4924 4923 2
4925 4825 5
4925 4926 5
4925 5025 2
4925 4924 2
4926 4826 2
4926 4927 3
4926 5026 3
4926 4925 2
4927 4827 5
4927 4928 5
4927 5027 2
4927 4926 3
4928 4828 5
4928 4929 3
4928 5028 3
4928 4927 4
4929 4829 1
4929 4930 4
4929 5029 4
4929 4928 4
4930 4830 2
4930 4931 2
4930 5030 4
4930 4929 3
4931 4831 2
4931 4932 1
4931 5031 5
4931 4930 3
4932 4832 3
4932 4933 3
4932 5032 5
4932 4931 4
4933 4833 5
4933 4934 1
4933 5033 2
4933 4932 4
4934 4834 5
4934 4935 5
4934 5034 4
4934 4933 1
4935 4835 2
4935 4936 5
4935 5035 2
4935 4934 4
4936 4836 1
4936 4937 2
4936 5036 1
4936 4935 3
4937 4837 2
4937 4938 5
4937 5037 4
4937 4936 5
4938 4838 4
4938 4939 1
4938 5038 2
4938 4937 4
4939 4839 3
4939 4940 2
4939 5039 5
4939 4938 5
4940 4840 5
4940 4941 2
4940 5040 2
4940 4939 2
4941 4841 1
4941 4942 1
4941 5041 2
4941 4940 3
4942 4842 4
4942 4943 1
4942 5042 5
4942 4941 2
4943 4843 2
4943 4944 1
4943 5043 1
4943 4942 3
4944 4844 5
4944 4945 4
4944 5044 5
4944 4943 4
4945 4845 5
4945 4946 5
4945 5045 5
4945 4944 5
4946 4846 4
4946 4947 3
4946 5046 2
4946 4945 3
4947 4847 5
4947 4948 3
4947 5047 2
4947 4946 2
4948 4848 5
4948 4949 4
4948 5048 1
4948 4947 1
4949 4849 2
4949 4950 1
4949 5049 3
4949 4948 3
4950 4850 2
4950 4951 4
4950 5050 1
4950 4949 5
4951 4851 5
4951 4952 3
4951 5051 1
4951 4950 4
4952 4852 1
4952 4953 3
4952 5052 2
4952 4951 2
4953 4853 5
4953 4954 1
4953 5053 1
4953 4952 2
4954 4854 5
4954 4955 2
4954 5054 5
4954 4953 3
4955 4855 1
4955 4956 1
4955 5055 3
4955 4954 2
4956 4856 4
4956 4957 3
4956 5056 5
4956 4955 2
4957 4857 1
4957 4958 5
4957 5057 2
4957 4956 1
4958 4858 5
4958 4959 4
4958 5058 4
4958 4957 1
4959 4859 2
4959 4960 5
4959 5059 4
4959 4958 1
4960 4860 5
4960 4961 1
4960 5060 2
4960 4959 4
4961 4861 1
4961 4962 2
4961 5061 2
4961 4960 1
4962 4862 2
4962 4963 2
4962 5062 1
4962 4961 4
4963 4863 4
4963 4964 4
4963 5063 2
4963 4962 1
4964 4864 1
4964 4965 5
4964 5064 1
4964 4963 1
4965 4865 1
4965 4966 4
4965 5065 4
4965 4964 1
4966 4866 2
4966 4967 2
4966 5066 1
4966 4965 1
4967 4867 5
4967 4968 1
4967 5067 4
4967 4966 2
4968 4868 3
4968 4969 5
4968 5068 4
4968 4967 2
4969 4869 2
4969 4970 5
4969 5069 2
4969 4968 1
4970 4870 3
4970 4971 5
4970 5070 2
4970 4969 4
4971 4871 4
4971 4972 3
4971 5071 2
4971 4970 5
4972 4872 1
4972 4973 2
4972 5072 4
4972 4971 3
4973 4873 5
4973 4974 1
4973 5073 2
4973 4972 3
4974 4874 2
4974 4975 1
4974 5074 1
4974 4973 3
4975 4875 1
4975 4976 5
4975 5075 4
4975 4974 5
4976 4876 2
4976 4977 3
4976 5076 1
4976 4975 5
4977 4877 3
4977 4978 2
4977 5077 2
4977 4976 5
4978 4878 3
4978 4979 4
4978 5078 2
4978 4977 1
4979 4879 5
4979 4980 2
4979 5079 3
4979 4978 3
4980 4880 4
4980 4981 1
4980 5080 1
4980 4979 2
4981 4881 5
4981 4982 5
4981 5081 3
4981 4980 2
4982 4882 5
4982 4983 4
4982 5082 1
4982 4981 1
4983 4883 2
4983 4984 4
4983 5083 1
4983 4982 2
4984 4884 3
4984 4985 2
4984 5084 4
4984 4983 3
4985 4885 5
4985 4986 3
4985 5085 5
4985 4984 3
4986 4886 4
4986 4987 3
4986 5086 2
4986 4985 2
4987 4887 1
4987 4988 3
4987 5087 1
4987 4986 2
4988 4888 1
4988 4989 2
4988 5088 4
4988 4987 1
4989 4889 4
4989 4990 1
4989 5089 3
4989 4988 5
4990 4890 2
4990 4991 4
4990 5090 2
4990 4989 5
4991 4891 4
4991 4992 3
4991 5091 1
4991 4990 2
4992 4892 5
4992 4993 5
4992 5092 1
4992 4991 4
4993 4893 1
4993 4994 4
4993 5093 4
4993 4992 5
4994 4894 1
4994 4995 4
4994 5094 2
4994 4993 2
4995 4895 2
4995 4996 3
4995 5095 5
4995 4994 1
4996 4896 3
4996 4997 3
4996 5096 3
4996 4995 2
4997 4897 1
4997 4998 2
4997 5097 3
4997 4996 1
4998 4898 2
4998 4999 1
4998 5098 1
4998 4997 1
4999 4899 5
4999 5099 3
4999 4998 4
5000 4900 4
5000 5001 5
5000 5100 4
5001 4901 3
5001 5002 4
5001 5101 3
5001 5000 5
5002 4902 1
5002 5003 3
5002 5102 4
5002 5001 5
5003 4903 3
5003 5004 3
5003 5103 3
5003 5002 4
5004 4904 2
5004 5005 2
5004 5104 3
5004 5003 4
5005 4905 1
5005 5006 2
5005 5105 3
5005 5004 4
5006 4906 4
5006 5007 1
5006 5106 1
5006 5005 1
5007 4907 5
5007 5008 1
5007 5107 1
5007 5006 5
5008 4908 1
5008 5009 1
5008 5108 2
5008 5007 1
5009 4909 4
5009 5010 5
5009 5109 2
5009 5008 1
5010 4910 4
5010 5011 4
5010 5110 3
5010 5009 1
5011 4911 4
5011 5012 2
5011 5111 4
5011 5010 5
5012 4912 1
5012 5013 5
5012 5112 1
5012 5011 5
5013 4913 1
5013 5014 3
5013 5113 4
5013 5012 1
5014 4914 2
5014 5015 5
5014 5114 1
5014 5013 1
5015 4915 3
5015 5016 1
5015 5115 4
5015 5014 1
5016 4916 2
5016 5017 5
5016 5116 1
5016 5015 4
5017 4917 4
5017 5018 1
5017 5117 2
5017 5016 1
5018 4918 4
5018 5019 2
5018 5118 3
5018 5017 1
5019 4919 1
5019 5020 3
5019 5119 3
5019 5018 5
5020 4920 3
5020 5021 4
5020 5120 3
5020 5019 2
5021 4921 4
5021 5022 2
5021 5121 1
5021 5020 2
5022 4922 1
5022 5023 1
5022 5122 5
5022 5021 4
5023 4923 2
5023 5024 3
5023 5123 5
5023 5022 5
5024 4924 3
5024 5025 4
5024 5124 4
5024 5023 4
5025 4925 5
5025 5026 3
5025 5125 4
5025 5024 1
5026 4926 2
5026 5027 1
5026 5126 5
5026 5025 1
5027 4927 3
5027 5028 2
5027 5127 2
5027 5026 5
5028 4928 4
5028 5029 2
5028 5128 4
5028 5027 3
5029 4929 4
5029 5030 4
5029 5129 4
5029 5028 2
5030 4930 1
5030 5031 3
5030 5130 5
5030 5029 1
5031 4931 5
5031 5032 2
5031 5131 2
5031 5030 4
5032 4932 1
5032 5033 1
5032 5132 1
5032 5031 3
5033 4933 4
5033 5034 4
5033 5133 4
5033 5032 1
5034 4934 3
5034 5035 3
5034 5134 5
5034 5033 1
5035 4935 1
5035 5036 1
5035 5135 1
5035 5034 4
5036 4936 5
5036 5037 4
5036 5136 4
5036 5035 1
5037 4937 3
5037 5038 1
5037 5137 1
5037 5036 3
5038 4938 5
5038 5039 2
5038 5138 5
5038 5037 5
5039 4939 1
5039 5040 5
5039 5139 3
5039 5038 5
5040 4940 1
5040 5041 3
5040 5140 2
5040 5039 1
5041 4941 3
5041 5042 2
5041 5141 1
5041 5040 3
5042 4942 5
5042 5043 5
5042 5142 5
5042 5041 1
5043 4943 5
5043 5044 3
5043 5143 5
5043 5042 4
5044 4944 4
5044 5045 5
5044 5144 5
5044 5043 4
5045 4945 2
5045 5046 1
5045 5145 2
5045 5044 4
5046 4946 5
5046 5047 4
5046 5146 1
5046 5045 4
5047 4947 4
5047 5048 5
5047 5147 5
5047 5046 3
5048 4948 1
5048 5049 4
5048 5148 4
5048 5047 1
5049 4949 2
5049 5050 2
5049 5149 4
5049 5048 3
5050 4950 1
5050 5051 4
5050 5150 4
5050 5049 5
5051 4951 3
5051 5052 2
5051 5151 2
5051 5050 2
5052 4952 3
5052 5053 4
5052 5152 2
5052 5051 2
5053 4953 5
5053 5054 5
5053 5153 5
5053 5052 3
5054 4954 5
5054 5055 5
5054 5154 1
5054 5053 5
5055 4955 4
5055 5056 1
5055 5155 1
5055 5054 3
5056 4956 2
5056 5057 4
5056 5156 2
5056 5055 1
5057 4957 2
5057 5058 4
5057 5157 1
5057 5056 5
5058 4958 4
5058 5059 5
5058 5158 2
5058 5057 1
5059 4959 1
5059 5060 4
5059 5159 1
5059 5058 2
5060 4960 1
5060 5061 3
5060 5160 1
5060 5059 5
5061 4961 1
5061 5062 2
5061 5161 3
5061 5060 5
5062 4962 5
5062 5063 5
5062 5162 5
5062 5061 5
5063 4963 5
5063 5064 4
5063 5163 2
5063 5062 1
5064 4964 1
5064 5065 4
5064 5164 1
5064 5063 5
5065 4965 5
5065 5066 5
5065 5165 3
5065 5064 5
5066 4966 1
5066 5067 1
5066 5166 5
5066 5065 4
5067 4967 3
5067 5068 3
5067 5167 5
5067 5066 2
5068 4968 2
5068 5069 1
5068 5168 4
5068 5067 3
5069 4969 5
5069 5070 5
5069 5169 2
5069 5068 5
5070 4970 4
5070 5071 5
5070 5170 3
5070 5069 4
5071 4971 1
5071 5072 5
5071 5171 2
5071 5070 1
5072 4972 1
5072 5073 3
5072 5172 5
5072 5071 1
5073 4973 4
5073 5074 4
5073 5173 3
5073 5072 4
5074 4974 1
5074 5075 2
5074 5174 2
5074 5073 4
5075 4975 5
5075 5076 1
5075 5175 3
5075 5074 5
5076 4976 4
5076 5077 1
5076 5176 1
5076 5075 2
5077 4977 5
5077 5078 4
5077 5177 5
5077 5076 3
5078 4978 2
5078 5079 5
5078 5178 4
5078 5077 5
5079 4979 5
5079 5080 2
5079 5179 4
5079 5078 4
5080 4980 5
5080 5081 4
5080 5180 1
5080 5079 3
5081 4981 1
5081 5082 5
5081 5181 3
5081 5080 2
5082 4982 1
5082 5083 3
5082 5182 1
5082 5081 5
5083 4983 4
5083 5084 1
5083 5183 3
5083 5082 4
5084 4984 1
5084 5085 4
5084 5184 5
5084 5083 2
5085 4985 2
5085 5086 4
5085 5185 3
5085 5084 5
5086 4986 5
5086 5087 2
5086 5186 3
5086 5085 4
5087 4987 3
5087 5088 1
5087 5187 4
5087 5086 5
5088 4988 4
5088 5089 2
5088 5188 3
5088 5087 1
5089 4989 5
5089 5090 4
5089 5189 3
5089 5088 5
5090 4990 4
5090 5091 4
5090 5190 5
5090 5089 2
5091 4991 3
5091 5092 5
5091 5191 4
5091 5090 1
5092 4992 3
5092 5093 4
5092 5192 5
5092 5091 3
5093 4993 2
5093 5094 1
5093 5193 4
5093 5092 1
5094 4994 2
5094 5095 5
5094 5194 3
5094 5093 1
5095 4995 4
5095 5096 2
5095 5195 2
5095 5094 3
5096 4996 5
5096 5097 2
5096 5196 4
5096 5095 3
5097 4997 5
5097 5098 5
5097 5197 2
5097 5096 1
5098 4998 5
5098 5099 5
5098 5198 2
5098 5097 3
5099 4999 5
5099 5199 4
5099 5098 5
5100 5000 5
5100 5101 2
5100 5200 5
5101 5001 1
5101 5102 4
5101 5201 2
5101 5100 3
5102 5002 4
5102 5103 4
5102 5202 2
5102 5101 5
5103 5003 4
5103 5104 5
5103 5203 5
5103 5102 1
5104 5004 4
5104 5105 1
5104 5204 5
5104 5103 1
5105 5005 1
5105 5106 3
5105 5205 1
5105 5104 2
5106 5006 1
5106 5107 5
5106 5206 2
5106 5105 3
5107 5007 5
5107 5108 2
5107 5207 2
5107 5106 4
5108 5008 1
5108 5109 2
5108 5208 2
5108 5107 4
5109 5009 4
5109 5110 1
5109 5209 3
5109 5108 2
5110 5010 2
5110 5111 1
5110 5210 3
5110 5109 3
5111 5011 5
5111 5112 5
5111 5211 1
5111 5110 4
5112 5012 3
5112 5113 1
5112 5212 2
5112 5111 3
5113 5013 3
5113 5114 3
5113 5213 4
5113 5112 2
5114 5014 3
5114 5115 1
5114 5214 5
5114 5113 1
5115 5015 4
5115 5116 3
5115 5215 1
5115 5114 2
5116 5016 3
5116 5117 3
5116 5216 1
5116 5115 5
5117 5017 4
5117 5118 4
5117 5217 1
5117 5116 4
5118 5018 4
5118 5119 1
5118 5218 5
5118 5117 2
5119 5019 3
5119 5120 5
5119 5219 5
5119 5118 5
5120 5020 5
5120 5121 1
5120 5220 5
5120 5119 5
5121 5021 1
5121 5122 4
5121 5221 4
5121 5120 5
5122 5022 2
5122 5123 1
5122 5222 3
5122 5121 1
5123 5023 4
5123 5124 3
5123 5223 4
5123 5122 5
5124 5024 1
5124 5125 2
5124 5224 3
5124 5123 5
5125 5025 2
5125 5126 4
5125 5225 4
5125 5124 3
5126 5026 5
5126 5127 4
5126 5226 5
5126 5125 5
5127 5027 5
5127 5128 2
5127 5227 5
5127 5126 4
5128 5028 5
5128 5129 5
5128 5228 4
5128 5127 3
5129 5029 5
5129 5130 4
5129 5229 5
5129 5128 3
5130 5030 1
5130 5131 3
5130 5230 3
5130 5129 5
5131 5031 3
5131 5132 3
5131 5231 1
5131 5130 1
5132 5032 1
5132 5133 5
5132 5232 2
5132 5131 5
5133 5033 2
5133 5134 1
5133 5233 4
5133 5132 3
5134 5034 2
5134 5135 4
5134 5234 1
5134 5133 3
5135 5035 1
5135 5136 1
5135 5235 4
5135 5134 1
5136 5036 4
5136 5137 1
5136 5236 2
5136 5135 5
5137 5037 5
5137 5138 5
5137 5237 4
5137 5136 2
5138 5038 4
5138 5139 3
5138 5238 2
5138 5137 4
5139 5039 2
5139 5140 1
5139 5239 5
5139 5138 5
5140 5040 3
5140 5141 3
5140 5240 3
5140 5139 5
5141 5041 1
5141 5142 4
5141 5241 4
5141 5140 1
5142 5042 1
5142 5143 1
5142 5242 5
5142 5141 5
5143 5043 3
5143 5144 2
5143 5243 3
5143 5142 5
5144 5044 5
5144 5145 3
5144 5244 2
5144 5143 1
5145 5045 3
5145 5146 4
5145 5245 4
5145 5144 3
5146 5046 5
5146 5147 5
5146 5246 4
5146 5145 4
5147 5047 4
5147 5148 4
5147 5247 1
5147 5146 3
5148 5048 4
5148 5149 3
5148 5248 2
5148 5147 1
5149 5049 3
5149 5150 3
5149 5249 4
5149 5148 3
5150 5050 4
5150 5151 4
5150 5250 3
5150 5149 5
5151 5051 1
5151 5152 5
5151 5251 4
5151 5150 3
5152 5052 3
5152 5153 2
5152 5252 2
5152 5151 5
5153 5053 5
5153 5154 1
5153 5253 4
5153 5152 2
5154 5054 2
5154 5155 3
5154 5254 3
5154 5153 4
5155 5055 4
5155 5156 2
5155 5255 2
5155 5154 4
5156 5056 3
5156 5157 3
5156 5256 1
5156 5155 1
5157 5057 4
5157 5158 3
5157 5257 5
5157 5156 5
5158 5058 3
5158 5159 2
5158 5258 1
5158 5157 1
5159 5059 4
5159 5160 2
5159 5259 2
5159 5158 1
5160 5060 2
5160 5161 2
5160 5260 3
5160 5159 2
5161 5061 4
5161 5162 4
5161 5261 4
5161 5160 4
5162 5062 3
5162 5163 4
5162 5262 2
5162 5161 3
5163 5063 5
5163 5164 1
5163 5263 4
5163 5162 1
5164 5064 1
5164 5165 1
5164 5264 2
5164 5163 3
5165 5065 1
5165 5166 1
5165 5265 3
5165 5164 5
5166 5066 3
5166 5167 5
5166 5266 5
5166 5165 4
5167 5067 1
5167 5168 1
5167 5267 5
5167 5166 1
5168 5068 1
5168 5169 4
5168 5268 5
5168 5167 5
5169 5069 4
5169 5170 4
5169 5269 4
5169 5168 5
5170 5070 2
5170 5171 2
5170 5270 1
5170 5169 2
5171 5071 5
5171 5172 5
5171 5271 3
5171 5170 4
5172 5072 1
5172 5173 3
5172 5272 4
5172 5171 2
5173 5073 4
5173 5174 3
5173 5273 2
5173 5172 4
5174 5074 1
5174 5175 2
5174 5274 1
5174 5173 2
5175 5075 1
5175 5176 2
5175 5275 5
5175 5174 3
5176 5076 2
5176 5177 4
5176 5276 3
5176 5175 2
5177 5077 4
5177 5178 3
5177 5277 5
5177 5176 4
5178 5078 5
5178 5179 1
5178 5278 4
5178 5177 5
5179 5079 3
5179 5180 2
5179 5279 3
5179 5178 3
5180 5080 5
5180 5181 2
5180 5280 3
5180 5179 2
5181 5081 1
5181 5182 5
5181 5281 2
5181 5180 5
5182 5082 3
5182 5183 3
5182 5282 3
5182 5181 3
5183 5083 1
5183 5184 1
5183 5283 4
5183 5182 3
5184 5084 3
5184 5185 3
5184 5284 3
5184 5183 4
5185 5085 3
5185 5186 2
5185 5285 2
5185 5184 1
5186 5086 1
5186 5187 2
5186 5286 2
5186 5185 2
5187 5087 4
5187 5188 3
5187 5287 5
5187 5186 5
5188 5088 4
5188 5189 5
5188 5288 1
5188 5187 4
5189 5089 4
5189 5190 4
5189 5289 2
5189 5188 2
5190 5090 3
5190 5191 2
5190 5290 4
5190 5189 2
5191 5091 1
5191 5192 2
5191 5291 5
5191 5190 5
5192 5092 4
5192 5193 2
5192 5292 1
5192 5191 4
5193 5093 3
5193 5194 1
5193 5293 5
5193 5192 1
5194 5094 1
5194 5195 5
5194 5294 4
5194 5193 2
5195 5095 1
5195 5196 3
5195 5295 3
5195 5194 2
5196 5096 1
5196 5197 4
5196 5296 5
5196 5195 2
5197 5097 3
5197 5198 5
5197 5297 5
5197 5196 2
5198 5098 3
5198 5199 5
5198 5298 2
5198 5197 3
5199 5099 2
5199 5299 3
5199 5198 1
5200 5100 1
5200 5201 1
5200 5300 5
5201 5101 1
5201 5202 4
5201 5301 4
5201 5200 4
5202 5102 5
5202 5203 3
5202 5302 5
5202 5201 1
5203 5103 4
5203 5204 3
5203 5303 2
5203 5202 3
5204 5104 3
5204 5205 3
5204 5304 3
5204 5203 3
5205 5105 3
5205 5206 4
5205 5305 1
5205 5204 5
5206 5106 2
5206 5207 5
5206 5306 3
5206 5205 1
5207 5107 4
5207 5208 5
5207 5307 5
5207 5206 2
5208 5108 4
5208 5209 5
5208 5308 1
5208 5207 1
5209 5109 3
5209 5210 2
5209 5309 5
5209 5208 1
5210 5110 2
5210 5211 5
5210 5310 4
5210 5209 5
5211 5111 5
5211 5212 3
5211 5311 5
5211 5210 4
5212 5112 5
5212 5213 5
5212 5312 5
5212 5211 4
5213 5113 5
5213 5214 5
5213 5313 5
5213 5212 2
5214 5114 5
5214 5215 1
5214 5314 3
5214 5213 3
5215 5115 4
5215 5216 5
5215 5315 2
5215 5214 4
5216 5116 1
5216 5217 3
5216 5316 4
5216 5215 2
5217 5117 3
5217 5218 4
5217 5317 2
5217 5216 1
5218 5118 1
5218 5219 5
5218 5318 5
5218 5217 4
5219 5119 3
5219 5220 2
5219 5319 3
5219 5218 2
5220 5120 2
5220 5221 5
5220 5320 2
5220 5219 5
5221 5121 4
5221 5222 2
5221 5321 5
5221 5220 2
5222 5122 2
5222 5223 5
5222 5322 1
5222 5221 2
5223 5123 1
5223 5224 5
5223 5323 4
5223 5222 1
5224 5124 4
5224 5225 2
5224 5324 5
5224 5223 2
5225 5125 2
5225 5226 5
5225 5325 5
5225 5224 1
5226 5126 5
5226 5227 5
5226 5326 2
5226 5225 2
5227 5127 2
5227 5228 1
5227 5327 1
5227 5226 1
5228 5128 1
5228 5229 2
5228 5328 2
5228 5227 2
5229 5129 1
5229 5230 1
5229 5329 1
5229 5228 5
5230 5130 4
5230 5231 4
5230 5330 4
5230 5229 4
5231 5131 1
5231 5232 1
5231 5331 1
5231 5230 5
5232 5132 5
5232 5233 5
5232 5332 4
5232 5231 4
5233 5133 1
5233 5234 1
5233 5333 5
5233 5232 1
5234 5134 3
5234 5235 2
5234 5334 3
5234 5233 4
5235 5135 1
5235 5236 3
5235 5335 1
5235 5234 2
5236 5136 5
5236 5237 3
5236 5336 3
5236 5235 2
5237 5137 1
5237 5238 5
5237 5337 5
5237 5236 1
5238 5138 4
5238 5239 3
5238 5338 4
5238 5237 5
5239 5139 2
5239 5240 2
5239 5339 3
5239 5238 3
5240 5140 4
5240 5241 5
5240 5340 3
5240 5239 1
5241 5141 1
5241 5242 1
5241 5341 2
5241 5240 1
5242 5142 4
5242 5243 4
5242 5342 2
5242 5241 1
5243 5143 3
5243 5244 3
5243 5343 3
5243 5242 5
5244 5144 4
5244 5245 4
5244 5344 1
5244 5243 3
5245 5145 1
5245 5246 1
5245 5345 4
5245 5244 4
5246 5146 4
5246 5247 4
5246 5346 3
5246 5245 1
5247 5147 1
5247 5248 1
5247 5347 4
5247 5246 3
5248 5148 3
5248 5249 1
5248 5348 1
5248 5247 2
5249 5149 3
5249 5250 1
5249 5349 4
5249 5248 5
5250 5150 3
5250 5251 1
5250 5350 4
5250 5249 5
5251 5151 5
5251 5252 3
5251 5351 5
5251 5250 4
5252 5152 1
5252 5253 5
5252 5352 5
5252 5251 1
5253 5153 3
5253 5254 5
5253 5353 2
5253 5252 4
5254 5154 4
5254 5255 5
5254 5354 2
5254 5253 3
5255 5155 5
5255 5256 2
5255 5355 4
5255 5254 5
5256 5156 5
5256 5257 5
5256 5356 5
5256 5255 4
5257 5157 2
5257 5258 4
5257 5357 5
5257 5256 4
5258 5158 1
5258 5259 5
5258 5358 2
5258 5257 5
5259 5159 4
5259 5260 5
5259 5359 5
5259 5258 5
5260 5160 5
5260 5261 1
5260 5360 4
5260 5259 5
5261 5161 4
5261 5262 5
5261 5361 1
5261 5260 3
5262 5162 1
5262 5263 3
5262 5362 5
5262 5261 4
5263 5163 2
5263 5264 3
5263 5363 4
5263 5262 1
5264 5164 5
5264 5265 4
5264 5364 4
5264 5263 1
5265 5165 5
5265 5266 2
5265 5365 2
5265 5264 1
5266 5166 1
5266 5267 2
5266 5366 4
5266 5265 3
5267 5167 4
5267 5268 5
5267 5367 5
5267 5266 5
5268 5168 2
5268 5269 4
5268 5368 1
5268 5267 3
5269 5169 1
5269 5270 5
5269 5369 1
5269 5268 5
5270 5170 3
5270 5271 2
5270 5370 1
5270 5269 4
5271 5171 3
5271 5272 3
5271 5371 5
5271 5270 3
5272 5172 1
5272 5273 4
5272 5372 4
5272 5271 4
5273 5173 3
5273 5274 1
5273 5373 2
5273 5272 4
5274 5174 3
5274 5275 4
5274 5374 5
5274 5273 2
5275 5175 1
5275 5276 1
5275 5375 5
5275 5274 5
5276 5176 2
5276 5277 3
5276 5376 1
5276 5275 5
5277 5177 5
5277 5278 4
5277 5377 2
5277 5276 4
5278 5178 3
5278 5279 2
5278 5378 2
5278 5277 2
5279 5179 5
5279 5280 4
5279 5379 3
5279 5278 5
5280 5180 5
5280 5281 1
5280 5380 4
5280 5279 1
5281 5181 3
5281 5282 3
5281 5381 3
5281 5280 2
5282 5182 1
5282 5283 5
5282 5382 3
5282 5281 3
5283 5183 3
5283 5284 4
5283 5383 1
5283 5282 3
5284 5184 4
5284 5285 5
5284 5384 2
5284 5283 1
5285 5185 5
5285 5286 2
5285 5385 2
5285 5284 3
5286 5186 4
5286 5287 1
5286 5386 5
5286 5285 1
5287 5187 1
5287 5288 1
5287 5387 4
5287 5286 2
5288 5188 3
5288 5289 4
5288 5388 3
5288 5287 1
5289 5189 4
5289 5290 2
5289 5389 2
5289 5288 2
5290 5190 3
5290 5291 4
5290 5390 2
5290 5289 5
5291 5191 2
5291 5292 5
5291 5391 5
5291 5290 3
5292 5192 3
5292 5293 1
5292 5392 1
5292 5291 1
5293 5193 4
5293 5294 5
5293 5393 5
5293 5292 2
5294 5194 2
5294 5295 3
5294 5394 4
5294 5293 2
5295 5195 1
5295 5296 2
5295 5395 4
5295 5294 1
5296 5196 4
5296 5297 5
5296 5396 3
5296 5295 1
5297 5197 4
5297 5298 1
5297 5397 1
5297 5296 3
5298 5198 5
5298 5299 1
5298 5398 1
5298 5297 1
5299 5199 5
5299 5399 3
5299 5298 1
5300 5200 5
5300 5301 2
5300 5400 4
5301 5201 1
5301 5302 1
5301 5401 3
5301 5300 2
5302 5202 4
5302 5303 1
5302 5402 1
5302 5301 3
5303 5203 2
5303 5304 4
5303 5403 1
5303 5302 5
5304 5204 2
5304 5305 2
5304 5404 1
5304 5303 1
5305 5205 4
5305 5306 1
5305 5405 4
5305 5304 5
5306 5206 3
5306 5307 1
5306 5406 1
5306 5305 4
5307 5207 3
5307 5308 1
5307 5407 5
5307 5306 5
5308 5208 3
5308 5309 5
5308 5408 3
5308 5307 3
5309 5209 2
5309 5310 2
5309 5409 5
5309 5308 5
5310 5210 4
5310 5311 4
5310 5410 5
5310 5309 5
5311 5211 5
5311 5312 2
5311 5411 4
5311 5310 3
5312 5212 2
5312 5313 5
5312 5412 3
5312 5311 3
5313 5213 4
5313 5314 1
5313 5413 4
5313 5312 1
5314 5214 5
5314 5315 5
5314 5414 2
5314 5313 4
5315 5215 2
5315 5316 3
5315 5415 5
5315 5314 1
5316 5216 2
5316 5317 1
5316 5416 1
5316 5315 3
5317 5217 3
5317 5318 1
5317 5417 2
5317 5316 3
5318 5218 5
5318 5319 5
5318 5418 4
5318 5317 2
5319 5219 2
5319 5320 1
5319 5419 4
5319 5318 3
5320 5220 2
5320 5321 3
5320 5420 4
5320 5319 3
5321 5221 5
5321 5322 2
5321 5421 3
5321 5320 2
5322 5222 4
5322 5323 5
5322 5422 1
5322 5321 4
5323 5223 3
5323 5324 5
5323 5423 4
5323 5322 1
5324 5224 4
5324 5325 4
5324 5424 2
5324 5323 5
5325 5225 5
5325 5326 2
5325 5425 3
5325 5324 3
5326 5226 5
5326 5327 5
5326 5426 2
5326 5325 5
5327 5227 3
5327 5328 2
5327 5427 3
5327 5326 2
5328 5228 4
5328 5329 3
5328 5428 4
5328 5327 2
5329 5229 5
5329 5330 1
5329 5429 3
5329 5328 3
5330 5230 1
5330 5331 4
5330 5430 4
5330 5329 3
5331 5231 1
5331 5332 4
5331 5431 3
5331 5330 4
5332 5232 5
5332 5333 3
5332 5432 3
5332 5331 1
5333 5233 3
5333 5334 4
5333 5433 2
5333 5332 2
5334 5234 5
5334 5335 2
5334 5434 1
5334 5333 5
5335 5235 1
5335 5336 5
5335 5435 3
5335 5334 3
5336 5236 1
5336 5337 1
5336 5436 4
5336 5335 3
5337 5237 1
5337 5338 5
5337 5437 1
5337 5336 2
5338 5238 1
5338 5339 1
5338 5438 1
5338 5337 4
5339 5239 5
5339 5340 4
5339 5439 1
5339 5338 5
5340 5240 1
5340 5341 2
5340 5440 3
5340 5339 3
5341 5241 4
5341 5342 4
5341 5441 1
5341 5340 2
5342 5242 2
5342 5343 1
5342 5442 4
5342 5341 5
5343 5243 3
5343 5344 2
5343 5443 3
5343 5342 3
5344 5244 1
5344 5345 2
5344 5444 1
5344 5343 1
5345 5245 2
5345 5346 2
5345 5445 4
5345 5344 3
5346 5246 5
5346 5347 3
5346 5446 1
5346 5345 1
5347 5247 2
5347 5348 4
5347 5447 1
5347 5346 1
5348 5248 3
5348 5349 1
5348 5448 3
5348 5347 2
5349 5249 2
5349 5350 3
5349 5449 5
5349 5348 3
5350 5250 4
5350 5351 5
5350 5450 3
5350 5349 1
5351 5251 4
5351 5352 3
5351 5451 1
5351 5350 4
5352 5252 1
5352 5353 4
5352 5452 2
5352 5351 2
5353 5253 4
5353 5354 5
5353 5453 5
5353 5352 1
5354 5254 3
5354 5355 5
5354 5454 3
5354 5353 1
5355 5255 2
5355 5356 1
5355 5455 1
5355 5354 1
5356 5256 4
5356 5357 3
5356 5456 5
5356 5355 2
5357 5257 3
5357 5358 1
5357 5457 2
5357 5356 5
5358 5258 1
5358 5359 1
5358 5458 3
5358 5357 3
5359 5259 2
5359 5360 1
5359 5459 2
5359 5358 4
5360 5260 1
5360 5361 5
5360 5460 5
5360 5359 3
5361 5261 1
5361 5362 1
5361 5461 5
5361 5360 3
5362 5262 5
5362 5363 1
5362 5462 2
5362 5361 3
5363 5263 5
5363 5364 5
5363 5463 2
5363 5362 5
5364 5264 3
5364 5365 3
5364 5464 2
5364 5363 3
5365 5265 5
5365 5366 3
5365 5465 2
5365 5364 1
5366 5266 3
5366 5367 4
5366 5466 1
5366 5365 1
5367 5267 1
5367 5368 4
5367 5467 4
5367 5366 5
5368 5268 5
5368 5369 1
5368 5468 1
5368 5367 4
5369 5269 5
5369 5370 4
5369 5469 5
5369 5368 1
5370 5270 1
5370 5371 5
5370 5470 4
5370 5369 4
5371 5271 4
5371 5372 3
5371 5471 1
5371 5370 2
5372 5272 4
5372 5373 5
5372 5472 3
5372 5371 2
5373 5273 2
5373 5374 2
5373 5473 5
5373 5372 3
5374 5274 3
5374 5375 5
5374 5474 3
5374 5373 2
5375 5275 1
5375 5376 1
5375 5475 4
5375 5374 4
5376 5276 4
5376 5377 4
5376 5476 2
5376 5375 3
5377 5277 3
5377 5378 1
5377 5477 2
5377 5376 2
5378 5278 3
5378 5379 1
5378 5478 1
5378 5377 4
5379 5279 2
5379 5380 4
5379 5479 3
5379 5378 3
5380 5280 2
5380 5381 4
5380 5480 2
5380 5379 3
5381 5281 1
5381 5382 4
5381 5481 5
5381 5380 3
5382 5282 2
5382 5383 5
5382 5482 1
5382 5381 2
5383 5283 5
5383 5384 2
5383 5483 2
5383 5382 2
5384 5284 3
5384 5385 3
5384 5484 1
5384 5383 1
5385 5285 1
5385 5386 1
5385 5485 5
5385 5384 1
5386 5286 4
5386 5387 1
5386 5486 3
5386 5385 2
5387 5287 1
5387 5388 5
5387 5487 5
5387 5386 4
5388 5288 5
5388 5389 3
5388 5488 2
5388 5387 1
5389 5289 2
5389 5390 1
5389 5489 1
5389 5388 4
5390 5290 4
5390 5391 4
5390 5490 2
5390 5389 2
5391 5291 5
5391 5392 1
5391 5491 3
5391 5390 3
5392 5292 4
5392 5393 3
5392 5492 5
5392 5391 5
5393 5293 5
5393 5394 4
5393 5493 3
5393 5392 5
5394 5294 2
5394 5395 1
5394 5494 2
5394 5393 5
5395 5295 5
5395 5396 4
5395 5495 3
5395 5394 2
5396 5296 4
5396 5397 1
5396 5496 2
5396 5395 2
5397 5297 4
5397 5398 2
5397 5497 1
5397 5396 2
5398 5298 4
5398 5399 3
5398 5498 3
5398 5397 5
5399 5299 2
5399 5499 1
5399 5398 3
5400 5300 4
5400 5401 4
5400 5500 1
5401 5301 5
5401 5402 2
5401 5501 1
5401 5400 4
5402 5302 1
5402 5403 1
5402 5502 3
5402 5401 2
5403 5303 2
5403 5404 5
5403 5503 1
5403 5402 2
5404 5304 2
5404 5405 4
5404 5504 2
5404 5403 1
5405 5305 5
5405 5406 2
5405 5505 1
5405 5404 3
5406 5306 5
5406 5407 1
5406 5506 5
5406 5405 5
5407 5307 4
5407 5408 1
5407 5507 3
5407 5406 5
5408 5308 1
5408 5409 4
5408 5508 1
5408 5407 1
5409 5309 5
5409 5410 4
5409 5509 2
5409 5408 5
5410 5310 3
5410 5411 3
5410 5510 5
5410 5409 5
5411 5311 1
5411 5412 5
5411 5511 3
5411 5410 5
5412 5312 4
5412 5413 4
5412 5512 2
5412 5411 1
5413 5313 4
5413 5414 5
5413 5513 5
5413 5412 1
5414 5314 1
5414 5415 3
5414 5514 2
5414 5413 4
5415 5315 5
5415 5416 5
5415 5515 2
5415 5414 1
5416 5316 5
5416 5417 4
5416 5516 5
5416 5415 2
5417 5317 5
5417 5418 5
5417 5517 4
5417 5416 2
5418 5318 5
5418 5419 3
5418 5518 3
5418 5417 3
5419 5319 1
5419 5420 1
5419 5519 5
5419 5418 2
5420 5320 2
5420 5421 4
5420 5520 2
5420 5419 1
5421 5321 1
5421 5422 2
5421 5521 5
5421 5420 2
5422 5322 5
5422 5423 3
5422 5522 5
5422 5421 2
5423 5323 2
5423 5424 2
5423 5523 2
5423 5422 1
5424 5324 3
5424 5425 1
5424 5524 3
5424 5423 3
5425 5325 4
5425 5426 3
5425 5525 2
5425 5424 2
5426 5326 5
5426 5427 1
5426 5526 1
5426 5425 4
5427 5327 3
5427 5428 5
5427 5527 5
5427 5426 2
5428 5328 1
5428 5429 2
5428 5528 1
5428 5427 2
5429 5329 1
5429 5430 2
5429 5529 1
5429 5428 3
5430 5330 2
5430 5431 2
5430 5530 2
5430 5429 2
5431 5331 4
5431 5432 4
5431 5531 3
5431 5430 2
5432 5332 1
5432 5433 2
5432 5532 3
5432 5431 2
5433 5333 1
5433 5434 2
5433 5533 5
5433 5432 1
5434 5334 4
5434 5435 3
5434 5534 1
5434 5433 4
5435 5335 3
5435 5436 4
5435 5535 2
5435 5434 1
5436 5336 1
5436 5437 3
5436 5536 5
5436 5435 2
5437 5337 4
5437 5438 4
5437 5537 4
5437 5436 3
5438 5338 4
5438 5439 5
5438 5538 1
5438 5437 5
5439 5339 5
5439 5440 2
5439 5539 2
5439 5438 1
5440 5340 1
5440 5441 2
5440 5540 5
5440 5439 1
5441 5341 4
5441 5442 1
5441 5541 4
5441 5440 3
5442 5342 4
5442 5443 5
5442 5542 1
5442 5441 2
5443 5343 5
5443 5444 5
5443 5543 2
5443 5442 1
5444 5344 1
5444 5445 3
5444 5544 2
5444 5443 5
5445 5345 3
5445 5446 1
5445 5545 5
5445 5444 4
5446 5346 4
5446 5447 2
5446 5546 2
5446 5445 5
5447 5347 1
5447 5448 2
5447 5547 1
5447 5446 4
5448 5348 4
5448 5449 1
5448 5548 5
5448 5447 1
5449 5349 3
5449 5450 4
5449 5549 5
5449 5448 3
5450 5350 4
5450 5451 4
5450 5550 4
5450 5449 1
5451 5351 4
5451 5452 2
5451 5551 4
5451 5450 2
5452 5352 1
5452 5453 5
5452 5552 5
5452 5451 4
5453 5353 3
5453 5454 3
5453 5553 1
5453 5452 3
5454 5354 5
5454 5455 3
5454 5554 3
5454 5453 3
5455 5355 1
5455 5456 4
5455 5555 4
5455 5454 4
5456 5356 2
5456 5457 3
5456 5556 5
5456 5455 2
5457 5357 2
5457 5458 5
5457 5557 4
5457 5456 3
5458 5358 1
5458 5459 3
5458 5558 5
5458 5457 4
5459 5359 2
5459 5460 4
5459 5559 2
5459 5458 2
5460 5360 2
5460 5461 4
5460 5560 2
5460 5459 4
5461 5361 1
5461 5462 1
5461 5561 3
5461 5460 2
5462 5362 3
5462 5463 2
5462 5562 4
5462 5461 2
5463 5363 3
5463 5464 5
5463 5563 3
5463 5462 3
5464 5364 2
5464 5465 1
5464 5564 5
5464 5463 5
5465 5365 1
5465 5466 5
5465 5565 4
5465 5464 5
5466 5366 5
5466 5467 1
5466 5566 5
5466 5465 4
5467 5367 2
5467 5468 2
5467 5567 3
5467 5466 1
5468 5368 5
5468 5469 5
5468 5568 4
5468 5467 3
5469 5369 2
5469 5470 2
5469 5569 5
5469 5468 3
5470 5370 2
5470 5471 2
5470 5570 3
5470 5469 4
5471 5371 2
5471 5472 3
5471 5571 1
5471 5470 3
5472 5372 5
5472 5473 2
5472 5572 2
5472 5471 2
5473 5373 3
5473 5474 2
5473 5573 1
5473 5472 2
5474 5374 1
5474 5475 1
5474 5574 3
5474 5473 5
5475 5375 4
5475 5476 4
5475 5575 1
5475 5474 3
5476 5376 3
5476 5477 3
5476 5576 4
5476 5475 4
5477 5377 5
5477 5478 3
5477 5577 4
5477 5476 3
5478 5378 4
5478 5479 4
5478 5578 5
5478 5477 3
5479 5379 3
5479 5480 2
5479 5579 3
5479 5478 2
5480 5380 4
5480 5481 3
5480 5580 5
5480 5479 4
5481 5381 3
5481 5482 4
5481 5581 4
5481 5480 5
5482 5382 5
5482 5483 4
5482 5582 1
5482 5481 4
5483 5383 2
5483 5484 3
5483 5583 2
5483 5482 1
5484 5384 2
5484 5485 3
5484 5584 3
5484 5483 3
5485 5385 1
5485 5486 5
5485 5585 1
5485 5484 5
5486 5386 3
5486 5487 5
5486 5586 3
5486 5485 5
5487 5387 1
5487 5488 3
5487 5587 2
5487 5486 4
5488 5388 5
5488 5489 2
5488 5588 3
5488 5487 3
5489 5389 5
5489 5490 4
5489 5589 4
5489 5488 3
5490 5390 4
5490 5491 2
5490 5590 1
5490 5489 2
5491 5391 1
5491 5492 4
5491 5591 3
5491 5490 2
5492 5392 2
5492 5493 3
5492 5592 5
5492 5491 1
5493 5393 3
5493 5494 2
5493 5593 4
5493 5492 1
5494 5394 3
5494 5495 1
5494 5594 3
5494 5493 5
5495 5395 5
5495 5496 2
5495 5595 2
5495 5494 2
5496 5396 4
5496 5497 1
5496 5596 3
5496 5495 3
5497 5397 3
5497 5498 2
5497 5597 1
5497 5496 4
5498 5398 5
5498 5499 4
5498 5598 2
5498 5497 4
5499 5399 2
5499 5599 1
5499 5498 1
5500 5400 1
5500 5501 5
5500 5600 1
5501 5401 4
5501 5502 5
5501 5601 3
5501 5500 2
5502 5402 2
5502 5503 1
5502 5602 1
5502 5501 3
5503 5403 5
5503 5504 4
5503 5603 1
5503 5502 5
5504 5404 3
5504 5505 3
5504 5604 2
5504 5503 2
5505 5405 3
5505 5506 3
5505 5605 2
5505 5504 4
5506 5406 5
5506 5507 4
5506 5606 3
5506 5505 3
5507 5407 4
5507 5508 1
5507 5607 1
5507 5506 4
5508 5408 2
5508 5509 2
5508 5608 1
5508 5507 5
5509 5409 4
5509 5510 3
5509 5609 2
5509 5508 2
5510 5410 4
5510 5511 4
5510 5610 4
5510 5509 2
5511 5411 5
5511 5512 4
5511 5611 4
5511 5510 3
5512 5412 4
5512 5513 2
5512 5612 2
5512 5511 4
5513 5413 1
5513 5514 1
5513 5613 3
5513 5512 1
5514 5414 1
5514 5515 3
5514 5614 2
5514 5513 4
5515 5415 5
5515 5516 1
5515 5615 1
5515 5514 3
5516 5416 3
5516 5517 5
5516 5616 1
5516 5515 1
5517 5417 1
5517 5518 2
5517 5617 4
5517 5516 2
5518 5418 2
5518 5519 1
5518 5618 3
5518 5517 2
5519 5419 3
5519 5520 4
5519 5619 2
5519 5518 1
5520 5420 4
5520 5521 1
5520 5620 5
5520 5519 3
5521 5421 2
5521 5522 5
5521 5621 1
5521 5520 2
5522 5422 4
5522 5523 5
5522 5622 1
5522 5521 4
5523 5423 2
5523 5524 1
5523 5623 2
5523 5522 1
5524 5424 2
5524 5525 4
5524 5624 5
5524 5523 3
5525 5425 3
5525 5526 2
5525 5625 5
5525 5524 4
5526 5426 2
5526 5527 1
5526 5626 5
5526 5525 2
5527 5427 5
5527 5528 4
5527 5627 2
5527 5526 3
5528 5428 2
5528 5529 3
5528 5628 5
5528 5527 3
5529 5429 2
5529 5530 2
5529 5629 2
5529 5528 2
5530 5430 2
5530 5531 4
5530 5630 2
5530 5529 5
5531 5431 2
5531 5532 5
5531 5631 5
5531 5530 5
5532 5432 2
5532 5533 1
5532 5632 3
5532 5531 3
5533 5433 4
5533 5534 2
5533 5633 3
5533 5532 2
5534 5434 2
5534 5535 2
5534 5634 4
5534 5533 4
5535 5435 1
5535 5536 5
5535 5635 3
5535 5534 1
5536 5436 4
5536 5537 4
5536 5636 1
5536 5535 1
5537 5437 5
5537 5538 4
5537 5637 1
5537 5536 5
5538 5438 2
5538 5539 4
5538 5638 5
5538 5537 4
5539 5439 1
5539 5540 5
5539 5639 2
5539 5538 2
5540 5440 4
5540 5541 1
5540 5640 1
5540 5539 1
5541 5441 4
5541 5542 1
5541 5641 2
5541 5540 4
5542 5442 1
5542 5543 3
5542 5642 5
5542 5541 2
5543 5443 5
5543 5544 5
5543 5643 2
5543 5542 1
5544 5444 4
5544 5545 4
5544 5644 3
5544 5543 5
5545 5445 3
5545 5546 4
5545 5645 4
5545 5544 2
5546 5446 3
5546 5547 4
5546 5646 3
5546 5545 2
5547 5447 2
5547 5548 2
5547 5647 2
5547 5546 2
5548 5448 2
5548 5549 2
5548 5648 5
5548 5547 1
5549 5449 1
5549 5550 5
5549 5649 3
5549 5548 3
5550 5450 2
5550 5551 3
5550 5650 5
5550 5549 5
5551 5451 2
5551 5552 2
5551 5651 2
5551 5550 3
5552 5452 4
5552 5553 1
5552 5652 4
5552 5551 2
5553 5453 5
5553 5554 3
5553 5653 2
5553 5552 3
5554 5454 1
5554 5555 4
5554 5654 2
5554 5553 4
5555 5455 2
5555 5556 1
5555 5655 1
5555 5554 5
5556 5456 1
5556 5557 3
5556 5656 4
5556 5555 4
5557 5457 3
5557 5558 1
5557 5657 2
5557 5556 1
5558 5458 4
5558 5559 3
5558 5658 2
5558 5557 5
5559 5459 3
5559 5560 1
5559 5659 5
5559 5558 3
5560 5460 2
5560 5561 1
5560 5660 1
5560 5559 2
5561 5461 4
5561 5562 2
5561 5661 4
5561 5560 1
5562 5462 5
5562 5563 3
5562 5662 4
5562 5561 2
5563 5463 5
5563 5564 4
5563 5663 3
5563 5562 4
5564 5464 1
5564 5565 3
5564 5664 3
5564 5563 4
5565 5465 1
5565 5566 3
5565 5665 3
5565 5564 3
5566 5466 5
5566 5567 1
5566 5666 2
5566 5565 1
5567 5467 3
5567 5568 1
5567 5667 4
5567 5566 3
5568 5468 1
5568 5569 1
5568 5668 5
5568 5567 3
5569 5469 3
5569 5570 4
5569 5669 3
5569 5568 1
5570 5470 5
5570 5571 1
5570 5670 5
5570 5569 4
5571 5471 5
5571 5572 2
5571 5671 5
5571 5570 3
5572 5472 4
5572 5573 5
5572 5672 4
5572 5571 3
5573 5473 2
5573 5574 1
5573 5673 4
5573 5572 1
5574 5474 2
5574 5575 1
5574 5674 3
5574 5573 2
5575 5475 4
5575 5576 2
5575 5675 1
5575 5574 1
5576 5476 5
5576 5577 4
5576 5676 1
5576 5575 2
5577 5477 1
5577 5578 2
5577 5677 3
5577 5576 1
5578 5478 2
5578 5579 5
5578 5678 2
5578 5577 4
5579 5479 5
5579 5580 4
5579 5679 4
5579 5578 5
5580 5480 5
5580 5581 4
5580 5680 4
5580 5579 1
5581 5481 5
5581 5582 5
5581 5681 4
5581 5580 2
5582 5482 1
5582 5583 2
5582 5682 4
5582 5581 4
5583 5483 4
5583 5584 2
5583 5683 1
5583 5582 5
5584 5484 2
5584 5585 2
5584 5684 4
5584 5583 4
5585 5485 1
5585 5586 4
5585 5685 3
5585 5584 5
5586 5486 5
5586 5587 5
5586 5686 5
5586 5585 4
5587 5487 5
5587 5588 4
5587 5687 3
5587 5586 2
5588 5488 2
5588 5589 5
5588 5688 3
5588 5587 2
5589 5489 1
5589 5590 5
5589 5689 1
5589 5588 4
5590 5490 3
5590 5591 3
5590 5690 2
5590 5589 1
5591 5491 5
5591 5592 5
5591 5691 3
5591 5590 2
5592 5492 2
5592 5593 1
5592 5692 2
5592 5591 1
5593 5493 2
5593 5594 1
5593 5693 5
5593 5592 1
5594 5494 3
5594 5595 1
5594 5694 3
5594 5593 4
5595 5495 4
5595 5596 3
5595 5695 3
5595 5594 5
5596 5496 4
5596 5597 3
5596 5696 4
5596 5595 1
5597 5497 1
5597 5598 1
5597 5697 2
5597 5596 4
5598 5498 5
5598 5599 4
5598 5698 4
5598 5597 3
5599 5499 3
5599 5699 5
5599 5598 4
5600 5500 4
5600 5601 4
5600 5700 3
5601 5501 5
5601 5602 4
5601 5701 5
5601 5600 4
5602 5502 3
5602 5603 1
5602 5702 4
5602 5601 2
5603 5503 4
5603 5604 3
5603 5703 4
5603 5602 1
5604 5504 3
5604 5605 3
5604 5704 1
5604 5603 1
5605 5505 4
5605 5606 2
5605 5705 3
5605 5604 3
5606 5506 2
5606 5607 4
5606 5706 2
5606 5605 1
5607 5507 5
5607 5608 4
5607 5707 3
5607 5606 5
5608 5508 4
5608 5609 5
5608 5708 2
5608 5607 4
5609 5509 4
5609 5610 1
5609 5709 1
5609 5608 5
5610 5510 3
5610 5611 2
5610 5710 5
5610 5609 4
5611 5511 2
5611 5612 3
5611 5711 2
5611 5610 1
5612 5512 3
5612 5613 5
5612 5712 4
5612 5611 1
5613 5513 2
5613 5614 3
5613 5713 3
5613 5612 1
5614 5514 2
5614 5615 5
5614 5714 2
5614 5613 4
5615 5515 4
5615 5616 2
5615 5715 4
5615 5614 3
5616 5516 2
5616 5617 1
5616 5716 3
5616 5615 5
5617 5517 3
5617 5618 5
5617 5717 5
5617 5616 5
5618 5518 5
5618 5619 3
5618 5718 5
5618 5617 4
5619 5519 3
5619 5620 3
5619 5719 4
5619 5618 4
5620 5520 2
5620 5621 3
5620 5720 3
5620 5619 3
5621 5521 3
5621 5622 2
5621 5721 3
5621 5620 3
5622 5522 1
5622 5623 3
5622 5722 5
5622 5621 1
5623 5523 4
5623 5624 5
5623 5723 5
5623 5622 5
5624 5524 2
5624 5625 5
5624 5724 2
5624 5623 3
5625 5525 3
5625 5626 5
5625 5725 4
5625 5624 3
5626 5526 2
5626 5627 5
5626 5726 3
5626 5625 4
5627 5527 3
5627 5628 1
5627 5727 5
5627 5626 5
5628 5528 2
5628 5629 2
5628 5728 2
5628 5627 1
5629 5529 5
5629 5630 3
5629 5729 5
5629 5628 4
5630 5530 2
5630 5631 5
5630 5730 4
5630 5629 2
5631 5531 5
5631 5632 5
5631 5731 5
5631 5630 5
5632 5532 3
5632 5633 1
5632 5732 2
5632 5631 2
5633 5533 1
5633 5634 1
5633 5733 5
5633 5632 4
5634 5534 2
5634 5635 1
5634 5734 2
5634 5633 1
5635 5535 4
5635 5636 1
5635 5735 4
5635 5634 3
5636 5536 3
5636 5637 5
5636 5736 3
5636 5635 2
5637 5537 3
5637 5638 4
5637 5737 3
5637 5636 3
5638 5538 4
5638 5639 5
5638 5738 2
5638 5637 2
5639 5539 1
5639 5640 2
5639 5739 1
5639 5638 1
5640 5540 3
5640 5641 3
5640 5740 5
5640 5639 4
5641 5541 3
5641 5642 4
5641 5741 1
5641 5640 2
5642 5542 5
5642 5643 2
5642 5742 5
5642 5641 1
5643 5543 1
5643 5644 2
5643 5743 3
5643 5642 1
5644 5544 2
5644 5645 1
5644 5744 2
5644 5643 4
5645 5545 3
5645 5646 4
5645 5745 3
5645 5644 5
5646 5546 5
5646 5647 4
5646 5746 2
5646 5645 3
5647 5547 5
5647 5648 3
5647 5747 4
5647 5646 1
5648 5548 5
5648 5649 4
5648 5748 1
5648 5647 5
5649 5549 5
5649 5650 2
5649 5749 1
5649 5648 3
5650 5550 3
5650 5651 5
5650 5750 3
5650 5649 2
5651 5551 3
5651 5652 3
5651 5751 4
5651 5650 4
5652 5552 2
5652 5653 1
5652 5752 1
5652 5651 2
5653 5553 5
5653 5654 5
5653 5753 3
5653 5652 1
5654 5554 2
5654 5655 3
5654 5754 2
5654 5653 2
5655 5555 4
5655 5656 2
5655 5755 2
5655 5654 1
5656 5556 2
5656 5657 2
5656 5756 3
5656 5655 4
5657 5557 3
5657 5658 2
5657 5757 3
5657 5656 4
5658 5558 2
5658 5659 1
5658 5758 1
5658 5657 3
5659 5559 2
5659 5660 4
5659 5759 5
5659 5658 4
5660 5560 5
5660 5661 4
5660 5760 5
5660 5659 1
5661 5561 1
5661 5662 5
5661 5761 3
5661 5660 2
5662 5562 5
5662 5663 3
5662 5762 4
5662 5661 5
5663 5563 1
5663 5664 2
5663 5763 1
5663 5662 4
5664 5564 4
5664 5665 3
5664 5764 1
5664 5663 4
5665 5565 3
5665 5666 2
5665 5765 1
5665 5664 3
5666 5566 2
5666 5667 3
5666 5766 1
5666 5665 2
5667 5567 2
5667 5668 5
5667 5767 3
5667 5666 1
5668 5568 2
5668 5669 2
5668 5768 5
5668 5667 5
5669 5569 3
5669 5670 4
5669 5769 4
5669 5668 3
5670 5570 2
5670 5671 4
5670 5770 3
5670 5669 2
5671 5571 2
5671 5672 2
5671 5771 2
5671 5670 5
5672 5572 2
5672 5673 5
5672 5772 2
5672 5671 1
5673 5573 2
5673 5674 1
5673 5773 2
5673 5672 3
5674 5574 4
5674 5675 5
5674 5774 1
5674 5673 2
5675 5575 2
5675 5676 1
5675 5775 2
5675 5674 1
5676 5576 2
5676 5677 2
5676 5776 3
5676 5675 4
5677 5577 4
5677 5678 4
5677 5777 1
5677 5676 1
5678 5578 4
5678 5679 4
5678 5778 3
5678 5677 1
5679 5579 4
5679 5680 4
5679 5779 2
5679 5678 4
5680 5580 5
5680 5681 5
5680 5780 3
5680 5679 3
5681 5581 2
5681 5682 1
5681 5781 2
5681 5680 3
5682 5582 3
5682 5683 2
5682 5782 1
5682 5681 1
5683 5583 2
5683 5684 2
5683 5783 5
5683 5682 5
5684 5584 3
5684 5685 4
5684 5784 2
5684 5683 2
5685 5585 1
5685 5686 2
5685 5785 3
5685 5684 2
5686 5586 1
5686 5687 2
5686 5786 5
5686 5685 3
5687 5587 4
5687 5688 1
5687 5787 5
5687 5686 1
5688 5588 1
5688 5689 4
5688 5788 2
5688 5687 2
5689 5589 2
5689 5690 3
5689 5789 1
5689 5688 3
5690 5590 1
5690 5691 4
5690 5790 4
5690 5689 3
5691 5591 5
5691 5692 4
5691 5791 1
5691 5690 4
5692 5592 4
5692 5693 3
5692 5792 3
5692 5691 4
5693 5593 1
5693 5694 5
5693 5793 5
5693 5692 2
5694 5594 3
5694 5695 1
5694 5794 4
5694 5693 3
5695 5595 5
5695 5696 2
5695 5795 5
5695 5694 4
5696 5596 2
5696 5697 4
5696 5796 2
5696 5695 3
5697 5597 5
5697 5698 1
5697 5797 2
5697 5696 2
5698 5598 3
5698 5699 5
5698 5798 1
5698 5697 5
5699 5599 3
5699 5799 4
5699 5698 4
5700 5600 5
5700 5701 3
5700 5800 3
5701 5601 5
5701 5702 2
5701 5801 2
5701 5700 4
5702 5602 2
5702 5703 2
5702 5802 4
5702 5701 5
5703 5603 1
5703 5704 2
5703 5803 1
5703 5702 2
5704 5604 1
5704 5705 1
5704 5804 1
5704 5703 1
5705 5605 5
5705 5706 4
5705 5805 5
5705 5704 1
5706 5606 2
5706 5707 3
5706 5806 5
5706 5705 4
5707 5607 5
5707 5708 1
5707 5807 1
5707 5706 4
5708 5608 1
5708 5709 4
5708 5808 3
5708 5707 1
5709 5609 2
5709 5710 5
5709 5809 2
5709 5708 3
5710 5610 1
5710 5711 5
5710 5810 5
5710 5709 5
5711 5611 3
5711 5712 3
5711 5811 2
5711 5710 5
5712 5612 3
5712 5713 1
5712 5812 4
5712 5711 1
5713 5613 2
5713 5714 2
5713 5813 2
5713 5712 4
5714 5614 4
5714 5715 3
5714 5814 2
5714 5713 2
5715 5615 5
5715 5716 4
5715 5815 2
5715 5714 2
5716 5616 1
5716 5717 3
5716 5816 3
5716 5715 2
5717 5617 2
5717 5718 1
5717 5817 4
5717 5716 2
5718 5618 4
5718 5719 3
5718 5818 3
5718 5717 5
5719 5619 4
5719 5720 2
5719 5819 2
5719 5718 1
5720 5620 5
5720 5721 2
5720 5820 2
5720 5719 3
5721 5621 3
5721 5722 3
5721 5821 4
5721 5720 1
5722 5622 3
5722 5723 5
5722 5822 5
5722 5721 4
5723 5623 5
5723 5724 5
5723 5823 5
5723 5722 3
5724 5624 1
5724 5725 3
5724 5824 4
5724 5723 1
5725 5625 2
5725 5726 1
5725 5825 3
5725 5724 5
5726 5626 4
5726 5727 5
5726 5826 3
5726 5725 1
5727 5627 5
5727 5728 3
5727 5827 2
5727 5726 4
5728 5628 4
5728 5729 3
5728 5828 5
5728 5727 2
5729 5629 4
5729 5730 4
5729 5829 2
5729 5728 2
5730 5630 5
5730 5731 3
5730 5830 4
5730 5729 2
5731 5631 3
5731 5732 2
5731 5831 4
5731 5730 4
5732 5632 4
5732 5733 3
5732 5832 2
5732 5731 2
5733 5633 3
5733 5734 5
5733 5833 2
5733 5732 1
5734 5634 4
5734 5735 1
5734 5834 4
5734 5733 3
5735 5635 5
5735 5736 1
5735 5835 2
5735 5734 5
5736 5636 2
5736 5737 1
5736 5836 3
5736 5735 5
5737 5637 2
5737 5738 2
5737 5837 5
5737 5736 3
5738 5638 1
5738 5739 1
5738 5838 3
5738 5737 4
5739 5639 2
5739 5740 1
5739 5839 2
5739 5738 5
5740 5640 3
5740 5741 3
5740 5840 5
5740 5739 4
5741 5641 2
5741 5742 4
5741 5841 2
5741 5740 4
5742 5642 2
5742 5743 4
5742 5842 2
5742 5741 5
5743 5643 3
5743 5744 2
5743 5843 1
5743 5742 4
5744 5644 4
5744 5745 1
5744 5844 3
5744 5743 3
5745 5645 5
5745 5746 5
5745 5845 1
5745 5744 5
5746 5646 3
5746 5747 1
5746 5846 2
5746 5745 2
5747 5647 1
5747 5748 2
5747 5847 5
5747 5746 1
5748 5648 1
5748 5749 3
5748 5848 5
5748 5747 5
5749 5649 2
5749 5750 2
5749 5849 1
5749 5748 1
5750 5650 2
5750 5751 2
5750 5850 1
5750 5749 2
5751 5651 1
5751 5752 3
5751 5851 3
5751 5750 5
5752 5652 1
5752 5753 3
5752 5852 5
5752 5751 2
5753 5653 4
5753 5754 5
5753 5853 4
5753 5752 5
5754 5654 4
5754 5755 4
5754 5854 3
5754 5753 1
5755 5655 1
5755 5756 5
5755 5855 1
5755 5754 5
5756 5656 3
5756 5757 3
5756 5856 5
5756 5755 5
5757 5657 1
5757 5758 4
5757 5857 3
5757 5756 3
5758 5658 2
5758 5759 1
5758 5858 1
5758 5757 4
5759 5659 2
5759 5760 5
5759 5859 5
5759 5758 4
5760 5660 4
5760 5761 5
5760 5860 4
5760 5759 2
5761 5661 3
5761 5762 5
5761 5861 3
5761 5760 4
5762 5662 4
5762 5763 3
5762 5862 4
5762 5761 3
5763 5663 1
5763 5764 5
5763 5863 4
5763 5762 2
5764 5664 2
5764 5765 3
5764 5864 2
5764 5763 1
5765 5665 5
5765 5766 2
5765 5865 4
5765 5764 2
5766 5666 2
5766 5767 1
5766 5866 2
5766 5765 2
5767 5667 1
5767 5768 3
5767 5867 1
5767 5766 1
5768 5668 3
5768 5769 2
5768 5868 5
5768 5767 3
5769 5669 5
5769 5770 2
5769 5869 1
5769 5768 3
5770 5670 4
5770 5771 5
5770 5870 5
5770 5769 1
5771 5671 1
5771 5772 4
5771 5871 5
5771 5770 4
5772 5672 2
5772 5773 4
5772 5872 5
5772 5771 5
5773 5673 5
5773 5774 5
5773 5873 3
5773 5772 5
5774 5674 5
5774 5775 1
5774 5874 2
5774 5773 5
5775 5675 2
5775 5776 1
5775 5875 5
5775 5774 1
5776 5676 1
5776 5777 2
5776 5876 4
5776 5775 4
5777 5677 4
5777 5778 1
5777 5877 2
5777 5776 1
5778 5678 1
5778 5779 1
5778 5878 3
5778 5777 2
5779 5679 2
5779 5780 5
5779 5879 3
5779 5778 2
5780 5680 5
5780 5781 4
5780 5880 2
5780 5779 1
5781 5681 1
5781 5782 3
5781 5881 1
5781 5780 3
5782 5682 2
5782 5783 3
5782 5882 2
5782 5781 5
5783 5683 2
5783 5784 5
5783 5883 1
5783 5782 3
5784 5684 5
5784 5785 2
5784 5884 4
5784 5783 5
5785 5685 2
5785 5786 5
5785 5885 5
5785 5784 1
5786 5686 1
5786 5787 4
5786 5886 4
5786 5785 5
5787 5687 4
5787 5788 2
5787 5887 4
5787 5786 4
5788 5688 2
5788 5789 2
5788 5888 2
5788 5787 5
5789 5689 2
5789 5790 5
5789 5889 5
5789 5788 4
5790 5690 2
5790 5791 2
5790 5890 4
5790 5789 4
5791 5691 1
5791 5792 5
5791 5891 3
5791 5790 1
5792 5692 5
5792 5793 4
5792 5892 2
5792 5791 4
5793 5693 4
5793 5794 1
5793 5893 2
5793 5792 4
5794 5694 5
5794 5795 3
5794 5894 1
5794 5793 1
5795 5695 1
5795 5796 2
5795 5895 2
5795 5794 5
5796 5696 2
5796 5797 2
5796 5896 2
5796 5795 5
5797 5697 2
5797 5798 1
5797 5897 5
5797 5796 5
5798 5698 2
5798 5799 3
5798 5898 2
5798 5797 4
5799 5699 5
5799 5899 1
5799 5798 5
5800 5700 4
5800 5801 3
5800 5900 1
5801 5701 4
5801 5802 4
5801 5901 4
5801 5800 4
5802 5702 1
5802 5803 1
5802 5902 4
5802 5801 3
5803 5703 5
5803 5804 2
5803 5903 1
5803 5802 5
5804 5704 5
5804 5805 1
5804 5904 3
5804 5803 2
5805 5705 1
5805 5806 5
5805 5905 2
5805 5804 4
5806 5706 5
5806 5807 4
5806 5906 4
5806 5805 1
5807 5707 4
5807 5808 5
5807 5907 1
5807 5806 3
5808 5708 5
5808 5809 4
5808 5908 5
5808 5807 5
5809 5709 2
5809 5810 5
5809 5909 3
5809 5808 3
5810 5710 4
5810 5811 2
5810 5910 1
5810 5809 2
5811 5711 4
5811 5812 4
5811 5911 3
5811 5810 4
5812 5712 5
5812 5813 4
5812 5912 2
5812 5811 5
5813 5713 3
5813 5814 5
5813 5913 1
5813 5812 2
5814 5714 3
5814 5815 4
5814 5914 2
5814 5813 3
5815 5715 5
5815 5816 5
5815 5915 5
5815 5814 5
5816 5716 2
5816 5817 3
5816 5916 3
5816 5815 2
5817 5717 5
5817 5818 3
5817 5917 4
5817 5816 1
5818 5718 4
5818 5819 3
5818 5918 2
5818 5817 5
5819 5719 5
5819 5820 1
5819 5919 4
5819 5818 3
5820 5720 4
5820 5821 2
5820 5920 5
5820 5819 4
5821 5721 4
5821 5822 5
5821 5921 3
5821 5820 1
5822 5722 4
5822 5823 5
5822 5922 5
5822 5821 4
5823 5723 4
5823 5824 1
5823 5923 5
5823 5822 1
5824 5724 5
5824 5825 5
5824 5924 4
5824 5823 3
5825 5725 4
5825 5826 3
5825 5925 5
5825 5824 3
5826 5726 5
5826 5827 5
5826 5926 3
5826 5825 4
5827 5727 3
5827 5828 1
5827 5927 5
5827 5826 2
5828 5728 5
5828 5829 5
5828 5928 3
5828 5827 1
5829 5729 4
5829 5830 4
5829 5929 2
5829 5828 3
5830 5730 4
5830 5831 5
5830 5930 3
5830 5829 2
5831 5731 4
5831 5832 5
5831 5931 5
5831 5830 5
5832 5732 1
5832 5833 4
5832 5932 3
5832 5831 5
5833 5733 5
5833 5834 1
5833 5933 3
5833 5832 3
5834 5734 3
5834 5835 1
5834 5934 5
5834 5833 2
5835 5735 5
5835 5836 4
5835 5935 1
5835 5834 3
5836 5736 2
5836 5837 1
5836 5936 1
5836 5835 2
5837 5737 4
5837 5838 2
5837 5937 4
5837 5836 1
5838 5738 4
5838 5839 4
5838 5938 3
5838 5837 5
5839 5739 5
5839 5840 1
5839 5939 1
5839 5838 5
5840 5740 2
5840 5841 3
5840 5940 5
5840 5839 3
5841 5741 3
5841 5842 5
5841 5941 1
5841 5840 2
5842 5742 1
5842 5843 5
5842 5942 5
5842 5841 5
5843 5743 5
5843 5844 2
5843 5943 1
5843 5842 3
5844 5744 4
5844 5845 3
5844 5944 5
5844 5843 5
5845 5745 2
5845 5846 5
5845 5945 5
5845 5844 4
5846 5746 3
5846 5847 1
5846 5946 5
5846 5845 3
5847 5747 4
5847 5848 2
5847 5947 1
5847 5846 2
5848 5748 4
5848 5849 3
5848 5948 1
5848 5847 1
5849 5749 1
5849 5850 2
5849 5949 1
5849 5848 3
5850 5750 4
5850 5851 4
5850 5950 1
5850 5849 5
5851 5751 5
5851 5852 3
5851 5951 2
5851 5850 1
5852 5752 3
5852 5853 4
5852 5952 3
5852 5851 1
5853 5753 5
5853 5854 3
5853 5953 5
5853 5852 2
5854 5754 4
5854 5855 5
5854 5954 3
5854 5853 4
5855 5755 4
5855 5856 5
5855 5955 1
5855 5854 5
5856 5756 4
5856 5857 1
5856 5956 1
5856 5855 5
5857 5757 4
5857 5858 2
5857 5957 4
5857 5856 1
5858 5758 1
5858 5859 1
5858 5958 2
5858 5857 4
5859 5759 3
5859 5860 1
5859 5959 1
5859 5858 2
5860 5760 3
5860 5861 3
5860 5960 3
5860 5859 3
5861 5761 2
5861 5862 5
5861 5961 5
5861 5860 1
5862 5762 4
5862 5863 4
5862 5962 3
5862 5861 3
5863 5763 4
5863 5864 5
5863 5963 4
5863 5862 3
5864 5764 2
5864 5865 3
5864 5964 1
5864 5863 4
5865 5765 2
5865 5866 2
5865 5965 1
5865 5864 3
5866 5766 3
5866 5867 5
5866 5966 5
5866 5865 4
5867 5767 4
5867 5868 2
5867 5967 3
5867 5866 4
5868 5768 2
5868 5869 2
5868 5968 2
5868 5867 1
5869 5769 5
5869 5870 1
5869 5969 3
5869 5868 2
5870 5770 2
5870 5871 3
5870 5970 4
5870 5869 1
5871 5771 3
5871 5872 4
5871 5971 3
5871 5870 4
5872 5772 4
5872 5873 3
5872 5972 5
5872 5871 3
5873 5773 3
5873 5874 3
5873 5973 5
5873 5872 2
5874 5774 5
5874 5875 4
5874 5974 3
5874 5873 2
5875 5775 1
5875 5876 2
5875 5975 5
5875 5874 2
5876 5776 3
5876 5877 1
5876 5976 4
5876 5875 1
5877 5777 2
5877 5878 3
5877 5977 3
5877 5876 3
5878 5778 2
5878 5879 1
5878 5978 2
5878 5877 5
5879 5779 1
5879 5880 1
5879 5979 2
5879 5878 4
5880 5780 2
5880 5881 2
5880 5980 1
5880 5879 1
5881 5781 4
5881 5882 2
5881 5981 2
5881 5880 4
5882 5782 4
5882 5883 2
5882 5982 4
5882 5881 3
5883 5783 5
5883 5884 5
5883 5983 2
5883 5882 5
5884 5784 3
5884 5885 5
5884 5984 3
5884 5883 3
5885 5785 5
5885 5886 3
5885 5985 2
5885 5884 2
5886 5786 5
5886 5887 3
5886 5986 2
5886 5885 3
5887 5787 2
5887 5888 3
5887 5987 1
5887 5886 4
5888 5788 1
5888 5889 5
5888 5988 3
5888 5887 4
5889 5789 3
5889 5890 5
5889 5989 1
5889 5888 4
5890 5790 1
5890 5891 1
5890 5990 3
5890 5889 1
5891 5791 5
5891 5892 1
5891 5991 3
5891 5890 3
5892 5792 5
5892 5893 1
5892 5992 3
5892 5891 4
5893 5793 4
5893 5894 3
5893 5993 3
5893 5892 4
5894 5794 2
5894 5895 3
5894 5994 2
5894 5893 3
5895 5795 2
5895 5896 3
5895 5995 4
5895 5894 5
5896 5796 3
5896 5897 1
5896 5996 4
5896 5895 1
5897 5797 3
5897 5898 5
5897 5997 3
5897 5896 5
5898 5798 4
5898 5899 2
5898 5998 3
5898 5897 3
5899 5799 5
5899 5999 2
5899 5898 1
5900 5800 3
5900 5901 2
5900 6000 4
5901 5801 5
5901 5902 5
5901 6001 1
5901 5900 2
5902 5802 2
5902 5903 1
5902 6002 5
5902 5901 2
5903 5803 4
5903 5904 1
5903 6003 1
5903 5902 2
5904 5804 2
5904 5905 5
5904 6004 5
5904 5903 2
5905 5805 4
5905 5906 1
5905 6005 5
5905 5904 4
5906 5806 5
5906 5907 5
5906 6006 2
5906 5905 5
5907 5807 1
5907 5908 3
5907 6007 2
5907 5906 4
5908 5808 5
5908 5909 4
5908 6008 2
5908 5907 1
5909 5809 3
5909 5910 5
5909 6009 4
5909 5908 2
5910 5810 3
5910 5911 1
5910 6010 3
5910 5909 2
5911 5811 1
5911 5912 4
5911 6011 3
5911 5910 4
5912 5812 3
5912 5913 2
5912 6012 3
5912 5911 2
5913 5813 4
5913 5914 5
5913 6013 1
5913 5912 1
5914 5814 5
5914 5915 5
5914 6014 1
5914 5913 3
5915 5815 4
5915 5916 4
5915 6015 2
5915 5914 3
5916 5816 3
5916 5917 4
5916 6016 4
5916 5915 1
5917 5817 4
5917 5918 4
5917 6017 4
5917 5916 2
5918 5818 5
5918 5919 4
5918 6018 5
5918 5917 1
5919 5819 3
5919 5920 2
5919 6019 2
5919 5918 4
5920 5820 2
5920 5921 5
5920 6020 5
5920 5919 5
5921 5821 3
5921 5922 4
5921 6021 4
5921 5920 3
5922 5822 3
5922 5923 1
5922 6022 5
5922 5921 5
5923 5823 5
5923 5924 5
5923 6023 1
5923 5922 1
5924 5824 1
5924 5925 1
5924 6024 5
5924 5923 5
5925 5825 5
5925 5926 3
5925 6025 4
5925 5924 2
5926 5826 5
5926 5927 1
5926 6026 5
5926 5925 2
5927 5827 3
5927 5928 2
5927 6027 1
5927 5926 1
5928 5828 5
5928 5929 5
5928 6028 4
5928 5927 5
5929 5829 3
5929 5930 3
5929 6029 2
5929 5928 3
5930 5830 4
5930 5931 3
5930 6030 5
5930 5929 5
5931 5831 3
5931 5932 5
5931 6031 5
5931 5930 4
5932 5832 5
5932 5933 3
5932 6032 4
5932 5931 2
5933 5833 5
5933 5934 3
5933 6033 4
5933 5932 3
5934 5834 5
5934 5935 3
5934 6034 5
5934 5933 2
5935 5835 5
5935 5936 1
5935 6035 5
5935 5934 1
5936 5836 2
5936 5937 2
5936 6036 1
5936 5935 4
5937 5837 5
5937 5938 4
5937 6037 5
5937 5936 5
5938 5838 1
5938 5939 2
5938 6038 3
5938 5937 5
5939 5839 5
5939 5940 2
5939 6039 5
5939 5938 4
5940 5840 1
5940 5941 4
5940 6040 1
5940 5939 3
5941 5841 5
5941 5942 5
5941 6041 3
5941 5940 3
5942 5842 3
5942 5943 1
5942 6042 3
5942 5941 2
5943 5843 4
5943 5944 4
5943 6043 2
5943 5942 5
5944 5844 4
5944 5945 5
5944 6044 1
5944 5943 1
5945 5845 2
5945 5946 2
5945 6045 1
5945 5944 2
5946 5846 5
5946 5947 5
5946 6046 3
5946 5945 4
5947 5847 5
5947 5948 1
5947 6047 1
5947 5946 5
5948 5848 2
5948 5949 5
5948 6048 4
5948 5947 5
5949 5849 1
5949 5950 3
5949 6049 3
5949 5948 5
5950 5850 1
5950 5951 1
5950 6050 5
5950 5949 5
5951 5851 2
5951 5952 1
5951 6051 4
5951 5950 4
5952 5852 5
5952 5953 1
5952 6052 3
5952 5951 3
5953 5853 2
5953 5954 5
5953 6053 4
5953 5952 4
5954 5854 5
5954 5955 2
5954 6054 2
5954 5953 3
5955 5855 1
5955 5956 3
5955 6055 5
5955 5954 5
5956 5856 1
5956 5957 4
5956 6056 1
5956 5955 3
5957 5857 2
5957 5958 2
5957 6057 4
5957 5956 1
5958 5858 1
5958 5959 1
5958 6058 5
5958 5957 2
5959 5859 5
5959 5960 1
5959 6059 1
5959 5958 2
5960 5860 5
5960 5961 2
5960 6060 5
5960 5959 4
5961 5861 3
5961 5962 2
5961 6061 3
5961 5960 3
5962 5862 1
5962 5963 2
5962 6062 4
5962 5961 1
5963 5863 5
5963 5964 1
5963 6063 5
5963 5962 3
5964 5864 5
5964 5965 1
5964 6064 5
5964 5963 1
5965 5865 1
5965 5966 3
5965 6065 3
5965 5964 1
5966 5866 2
5966 5967 3
5966 6066 2
5966 5965 4
5967 5867 2
5967 5968 4
5967 6067 1
5967 5966 3
5968 5868 5
5968 5969 4
5968 6068 2
5968 5967 4
5969 5869 4
5969 5970 2
5969 6069 4
5969 5968 1
5970 5870 2
5970 5971 3
5970 6070 5
5970 5969 5
5971 5871 4
5971 5972 5
5971 6071 2
5971 5970 2
5972 5872 3
5972 5973 2
5972 6072 5
5972 5971 1
5973 5873 1
5973 5974 3
5973 6073 5
5973 5972 3
5974 5874 4
5974 5975 1
5974 6074 3
5974 5973 3
5975 5875 4
5975 5976 2
5975 6075 1
5975 5974 3
5976 5876 4
5976 5977 4
5976 6076 2
5976 5975 5
5977 5877 4
5977 5978 5
5977 6077 2
5977 5976 3
5978 5878 3
5978 5979 1
5978 6078 1
5978 5977 4
5979 5879 3
5979 5980 2
5979 6079 4
5979 5978 5
5980 5880 1
5980 5981 2
5980 6080 5
5980 5979 2
5981 5881 4
5981 5982 4
5981 6081 2
5981 5980 4
5982 5882 1
5982 5983 2
5982 6082 5
5982 5981 5
5983 5883 4
5983 5984 4
5983 6083 4
5983 5982 1
5984 5884 3
5984 5985 2
5984 6084 3
5984 5983 2
5985 5885 5
5985 5986 1
5985 6085 4
5985 5984 3
5986 5886 3
5986 5987 1
5986 6086 4
5986 5985 1
5987 5887 1
5987 5988 1
5987 6087 5
5987 5986 4
5988 5888 3
5988 5989 2
5988 6088 3
5988 5987 5
5989 5889 3
5989 5990 4
5989 6089 3
5989 5988 1
5990 5890 3
5990 5991 1
5990 6090 1
5990 5989 2
5991 5891 5
5991 5992 5
5991 6091 1
5991 5990 2
5992 5892 4
5992 5993 2
5992 6092 1
5992 5991 3
5993 5893 2
5993 5994 4
5993 6093 4
5993 5992 2
5994 5894 4
5994 5995 2
5994 6094 5
5994 5993 1
5995 5895 3
5995 5996 3
5995 6095 3
5995 5994 4
5996 5896 1
5996 5997 5
5996 6096 5
5996 5995 2
5997 5897 5
5997 5998 3
5997 6097 2
5997 5996 1
5998 5898 5
5998 5999 4
5998 6098 5
5998 5997 1
5999 5899 4
5999 6099 4
5999 5998 4
6000 5900 3
6000 6001 5
6000 6100 1
6001 5901 5
6001 6002 2
6001 6101 2
6001 6000 5
6002 5902 5
6002 6003 3
6002 6102 5
6002 6001 5
6003 5903 4
6003 6004 3
6003 6103 3
6003 6002 3
6004 5904 1
6004 6005 2
6004 6104 3
6004 6003 5
6005 5905 4
6005 6006 2
6005 6105 4
6005 6004 1
6006 5906 4
6006 6007 3
6006 6106 2
6006 6005 1
6007 5907 4
6007 6008 5
6007 6107 5
6007 6006 1
6008 5908 1
6008 6009 4
6008 6108 3
6008 6007 1
6009 5909 2
6009 6010 3
6009 6109 2
6009 6008 5
6010 5910 5
6010 6011 5
6010 6110 1
6010 6009 5
6011 5911 4
6011 6012 2
6011 6111 5
6011 6010 4
6012 5912 4
6012 6013 3
6012 6112 5
6012 6011 2
6013 5913 2
6013 6014 2
6013 6113 4
6013 6012 3
6014 5914 4
6014 6015 4
6014 6114 1
6014 6013 3
6015 5915 1
6015 6016 2
6015 6115 1
6015 6014 5
6016 5916 1
6016 6017 5
6016 6116 1
6016 6015 3
6017 5917 2
6017 6018 5
6017 6117 4
6017 6016 1
6018 5918 2
6018 6019 5
6018 6118 2
6018 6017 4
6019 5919 2
6019 6020 3
6019 6119 3
6019 6018 2
6020 5920 1
6020 6021 3
6020 6120 1
6020 6019 2
6021 5921 2
6021 6022 1
6021 6121 5
6021 6020 1
6022 5922 3
6022 6023 4
6022 6122 4
6022 6021 2
6023 5923 1
6023 6024 3
6023 6123 3
6023 6022 1
6024 5924 1
6024 6025 1
6024 6124 4
6024 6023 5
6025 5925 3
6025 6026 1
6025 6125 5
6025 6024 2
6026 5926 2
6026 6027 3
6026 6126 3
6026 6025 2
6027 5927 5
6027 6028 1
6027 6127 1
6027 6026 5
6028 5928 4
6028 6029 5
6028 6128 3
6028 6027 1
6029 5929 2
6029 6030 2
6029 6129 3
6029 6028 5
6030 5930 4
6030 6031 1
6030 6130 5
6030 6029 5
6031 5931 4
6031 6032 2
6031 6131 4
6031 6030 3
6032 5932 5
6032 6033 4
6032 6132 2
6032 6031 2
6033 5933 2
6033 6034 3
6033 6133 1
6033 6032 4
6034 5934 3
6034 6035 2
6034 6134 2
6034 6033 3
6035 5935 1
6035 6036 3
6035 6135 2
6035 6034 2
6036 5936 4
6036 6037 1
6036 6136 1
6036 6035 5
6037 5937 5
6037 6038 1
6037 6137 1
6037 6036 2
6038 5938 3
6038 6039 4
6038 6138 5
6038 6037 4
6039 5939 1
6039 6040 4
6039 6139 2
6039 6038 1
6040 5940 4
6040 6041 1
6040 6140 2
6040 6039 5
6041 5941 4
6041 6042 4
6041 6141 2
6041 6040 1
6042 5942 2
6042 6043 1
6042 6142 1
6042 6041 5
6043 5943 3
6043 6044 2
6043 6143 4
6043 6042 4
6044 5944 2
6044 6045 1
6044 6144 5
6044 6043 3
6045 5945 2
6045 6046 4
6045 6145 5
6045 6044 5
6046 5946 1
6046 6047 1
6046 6146 3
6046 6045 4
6047 5947 4
6047 6048 5
6047 6147 3
6047 6046 1
6048 5948 1
6048 6049 1
6048 6148 4
6048 6047 2
6049 5949 2
6049 6050 3
6049 6149 5
6049 6048 1
6050 5950 1
6050 6051 4
6050 6150 2
6050 6049 5
6051 5951 4
6051 6052 1
6051 6151 2
6051 6050 1
6052 5952 4
6052 6053 2
6052 6152 2
6052 6051 1
6053 5953 1
6053 6054 2
6053 6153 5
6053 6052 4
6054 5954 5
6054 6055 1
6054 6154 5
6054 6053 4
6055 5955 1
6055 6056 4
6055 6155 4
6055 6054 2
6056 5956 2
6056 6057 1
6056 6156 1
6056 6055 3
6057 5957 3
6057 6058 3
6057 6157 4
6057 6056 1
6058 5958 4
6058 6059 1
6058 6158 5
6058 6057 2
6059 5959 5
6059 6060 1
6059 6159 4
6059 6058 1
6060 5960 4
6060 6061 3
6060 6160 3
6060 6059 2
6061 5961 4
6061 6062 1
6061 6161 2
6061 6060 2
6062 5962 3
6062 6063 3
6062 6162 2
6062 6061 2
6063 5963 3
6063 6064 2
6063 6163 1
6063 6062 4
6064 5964 1
6064 6065 2
6064 6164 3
6064 6063 2
6065 5965 2
6065 6066 5
6065 6165 3
6065 6064 1
6066 5966 2
6066 6067 1
6066 6166 5
6066 6065 3
6067 5967 3
6067 6068 4
6067 6167 4
6067 6066 2
6068 5968 4
6068 6069 5
6068 6168 1
6068 6067 2
6069 5969 2
6069 6070 4
6069 6169 3
6069 6068 3
6070 5970 1
6070 6071 2
6070 6170 2
6070 6069 4
6071 5971 4
6071 6072 1
6071 6171 4
6071 6070 5
6072 5972 3
6072 6073 5
6072 6172 1
6072 6071 2
6073 5973 3
6073 6074 3
6073 6173 3
6073 6072 5
6074 5974 5
6074 6075 3
6074 6174 1
6074 6073 4
6075 5975 1
6075 6076 2
6075 6175 1
6075 6074 1
6076 5976 5
6076 6077 1
6076 6176 3
6076 6075 5
6077 5977 5
6077 6078 1
6077 6177 2
6077 6076 4
6078 5978 5
6078 6079 4
6078 6178 3
6078 6077 5
6079 5979 5
6079 6080 4
6079 6179 3
6079 6078 4
6080 5980 5
6080 6081 4
6080 6180 5
6080 6079 4
6081 5981 2
6081 6082 2
6081 6181 4
6081 6080 4
6082 5982 1
6082 6083 1
6082 6182 5
6082 6081 5
6083 5983 3
6083 6084 3
6083 6183 4
6083 6082 3
6084 5984 1
6084 6085 5
6084 6184 2
6084 6083 4
6085 5985 5
6085 6086 1
6085 6185 5
6085 6084 1
6086 5986 5
6086 6087 1
6086 6186 4
6086 6085 3
6087 5987 5
6087 6088 5
6087 6187 2
6087 6086 1
6088 5988 4
6088 6089 3
6088 6188 1
6088 6087 1
6089 5989 4
6089 6090 5
6089 6189 5
6089 6088 2
6090 5990 4
6090 6091 5
6090 6190 2
6090 6089 2
6091 5991 3
6091 6092 2
6091 6191 3
6091 6090 5
6092 5992 3
6092 6093 5
6092 6192 4
6092 6091 3
6093 5993 4
6093 6094 1
6093 6193 5
6093 6092 2
6094 5994 1
6094 6095 2
6094 6194 5
6094 6093 5
6095 5995 4
6095 6096 3
6095 6195 3
6095 6094 4
6096 5996 2
6096 6097 2
6096 6196 1
6096 6095 2
6097 5997 1
6097 6098 2
6097 6197 2
6097 6096 4
6098 5998 2
6098 6099 1
6098 6198 3
6098 6097 3
6099 5999 1
6099 6199 2
6099 6098 2
6100 6000 1
6100 6101 1
6100 6200 1
6101 6001 1
6101 6102 5
6101 6201 5
6101 6100 4
6102 6002 2
6102 6103 3
6102 6202 4
6102 6101 4
6103 6003 2
6103 6104 5
6103 6203 1
6103 6102 5
6104 6004 1
6104 6105 1
6104 6204 5
6104 6103 5
6105 6005 5
6105 6106 5
6105 6205 1
6105 6104 1
6106 6006 3
6106 6107 1
6106 6206 4
6106 6105 1
6107 6007 1
6107 6108 5
6107 6207 1
6107 6106 4
6108 6008 5
6108 6109 2
6108 6208 2
6108 6107 2
6109 6009 4
6109 6110 2
6109 6209 4
6109 6108 5
6110 6010 5
6110 6111 5
6110 6210 4
6110 6109 5
6111 6011 1
6111 6112 4
6111 6211 1
6111 6110 5
6112 6012 3
6112 6113 3
6112 6212 5
6112 6111 1
6113 6013 5
6113 6114 4
6113 6213 4
6113 6112 3
6114 6014 4
6114 6115 2
6114 6214 1
6114 6113 1
6115 6015 1
6115 6116 5
6115 6215 5
6115 6114 5
6116 6016 3
6116 6117 2
6116 6216 2
6116 6115 4
6117 6017 1
6117 6118 1
6117 6217 2
6117 6116 4
6118 6018 1
6118 6119 1
6118 6218 5
6118 6117 1
6119 6019 3
6119 6120 1
6119 6219 5
6119 6118 5
6120 6020 3
6120 6121 3
6120 6220 3
6120 6119 5
6121 6021 2
6121 6122 5
6121 6221 3
6121 6120 2
6122 6022 1
6122 6123 2
6122 6222 3
6122 6121 1
6123 6023 1
6123 6124 3
6123 6223 2
6123 6122 3
6124 6024 2
6124 6125 3
6124 6224 4
6124 6123 4
6125 6025 1
6125 6126 4
6125 6225 3
6125 6124 4
6126 6026 5
6126 6127 5
6126 6226 5
6126 6125 3
6127 6027 3
6127 6128 5
6127 6227 3
6127 6126 4
6128 6028 4
6128 6129 4
6128 6228 2
6128 6127 1
6129 6029 1
6129 6130 1
6129 6229 5
6129 6128 2
6130 6030 3
6130 6131 1
6130 6230 2
6130 6129 5
6131 6031 1
6131 6132 5
6131 6231 2
6131 6130 2
6132 6032 2
6132 6133 5
6132 6232 4
6132 6131 5
6133 6033 3
6133 6134 1
6133 6233 2
6133 6132 4
6134 6034 2
6134 6135 1
6134 6234 5
6134 6133 3
6135 6035 5
6135 6136 1
6135 6235 4
6135 6134 3
6136 6036 3
6136 6137 2
6136 6236 4
6136 6135 2
6137 6037 3
6137 6138 2
6137 6237 4
6137 6136 3
6138 6038 2
6138 6139 2
6138 6238 3
6138 6137 4
6139 6039 1
6139 6140 1
6139 6239 3
6139 6138 1
6140 6040 2
6140 6141 5
6140 6240 1
6140 6139 5
6141 6041 2
6141 6142 5
6141 6241 3
6141 6140 1
6142 6042 5
6142 6143 1
6142 6242 4
6142 6141 1
6143 6043 2
6143 6144 3
6143 6243 3
6143 6142 5
6144 6044 1
6144 6145 3
6144 6244 4
6144 6143 1
6145 6045 1
6145 6146 1
6145 6245 4
6145 6144 5
6146 6046 2
6146 6147 2
6146 6246 1
6146 6145 3
6147 6047 4
6147 6148 4
6147 6247 1
6147 6146 1
6148 6048 1
6148 6149 2
6148 6248 5
6148 6147 2
6149 6049 5
6149 6150 2
6149 6249 4
6149 6148 1
6150 6050 1
6150 6151 1
6150 6250 2
6150 6149 2
6151 6051 2
6151 6152 5
6151 6251 4
6151 6150 1
6152 6052 3
6152 6153 1
6152 6252 2
6152 6151 1
6153 6053 3
6153 6154 5
6153 6253 3
6153 6152 1
6154 6054 4
6154 6155 4
6154 6254 4
6154 6153 3
6155 6055 2
6155 6156 3
6155 6255 3
6155 6154 4
6156 6056 1
6156 6157 3
6156 6256 2
6156 6155 2
6157 6057 4
6157 6158 4
6157 6257 2
6157 6156 3
6158 6058 4
6158 6159 1
6158 6258 1
6158 6157 5
6159 6059 1
6159 6160 3
6159 6259 2
6159 6158 1
6160 6060 3
6160 6161 4
6160 6260 2
6160 6159 3
6161 6061 4
6161 6162 2
6161 6261 3
6161 6160 2
6162 6062 3
6162 6163 5
6162 6262 4
6162 6161 1
6163 6063 4
6163 6164 4
6163 6263 5
6163 6162 2
6164 6064 2
6164 6165 3
6164 6264 1
6164 6163 2
6165 6065 4
6165 6166 2
6165 6265 4
6165 6164 4
6166 6066 1
6166 6167 5
6166 6266 4
6166 6165 4
6167 6067 4
6167 6168 3
6167 6267 4
6167 6166 2
6168 6068 2
6168 6169 3
6168 6268 1
6168 6167 5
6169 6069 4
6169 6170 4
6169 6269 5
6169 6168 4
6170 6070 5
6170 6171 3
6170 6270 5
6170 6169 3
6171 6071 4
6171 6172 4
6171 6271 1
6171 6170 2
6172 6072 5
6172 6173 1
6172 6272 2
6172 6171 3
6173 6073 1
6173 6174 1
6173 6273 4
6173 6172 1
6174 6074 5
6174 6175 3
6174 6274 5
6174 6173 5
6175 6075 4
6175 6176 3
6175 6275 2
6175 6174 2
6176 6076 2
6176 6177 3
6176 6276 3
6176 6175 2
6177 6077 3
6177 6178 1
6177 6277 3
6177 6176 4
6178 6078 4
6178 6179 5
6178 6278 2
6178 6177 1
6179 6079 2
6179 6180 1
6179 6279 3
6179 6178 4
6180 6080 3
6180 6181 5
6180 6280 3
6180 6179 2
6181 6081 3
6181 6182 3
6181 6281 5
6181 6180 2
6182 6082 1
6182 6183 4
6182 6282 3
6182 6181 3
6183 6083 1
6183 6184 1
6183 6283 1
6183 6182 5
6184 6084 4
6184 6185 2
6184 6284 5
6184 6183 5
6185 6085 1
6185 6186 5
6185 6285 2
6185 6184 4
6186 6086 2
6186 6187 1
6186 6286 4
6186 6185 2
6187 6087 3
6187 6188 2
6187 6287 3
6187 6186 5
6188 6088 3
6188 6189 5
6188 6288 5
6188 6187 2
6189 6089 1
6189 6190 5
6189 6289 5
6189 6188 3
6190 6090 5
6190 6191 4
6190 6290 5
6190 6189 1
6191 6091 4
6191 6192 4
6191 6291 3
6191 6190 1
6192 6092 3
6192 6193 1
6192 6292 1
6192 6191 1
6193 6093 2
6193 6194 1
6193 6293 2
6193 6192 3
6194 6094 3
6194 6195 2
6194 6294 3
6194 6193 1
6195 6095 2
6195 6196 2
6195 6295 1
6195 6194 1
6196 6096 4
6196 6197 1
6196 6296 3
6196 6195 5
6197 6097 5
6197 6198 4
6197 6297 1
6197 6196 2
6198 6098 4
6198 6199 2
6198 6298 1
6198 6197 5
6199 6099 4
6199 6299 1
6199 6198 1
6200 6100 2
6200 6201 2
6200 6300 1
6201 6101 2
6201 6202 1
6201 6301 5
6201 6200 4
6202 6102 5
6202 6203 5
6202 6302 5
6202 6201 5
6203 6103 1
6203 6204 1
6203 6303 1
6203 6202 3
6204 6104 1
6204 6205 1
6204 6304 2
6204 6203 3
6205 6105 4
6205 6206 1
6205 6305 2
6205 6204 1
6206 6106 4
6206 6207 1
6206 6306 5
6206 6205 4
6207 6107 5
6207 6208 4
6207 6307 1
6207 6206 1
6208 6108 4
6208 6209 2
6208 6308 3
6208 6207 5
6209 6109 1
6209 6210 5
6209 6309 3
6209 6208 1
6210 6110 5
6210 6211 3
6210 6310 4
6210 6209 5
6211 6111 3
6211 6212 3
6211 6311 1
6211 6210 1
6212 6112 1
6212 6213 2
6212 6312 4
6212 6211 3
6213 6113 2
6213 6214 3
6213 6313 5
6213 6212 2
6214 6114 1
6214 6215 1
6214 6314 4
6214 6213 2
6215 6115 5
6215 6216 5
6215 6315 4
6215 6214 5
6216 6116 1
6216 6217 4
6216 6316 2
6216 6215 4
6217 6117 5
6217 6218 1
6217 6317 2
6217 6216 4
6218 6118 1
6218 6219 4
6218 6318 1
6218 6217 4
6219 6119 1
6219 6220 5
6219 6319 5
6219 6218 1
6220 6120 5
6220 6221 4
6220 6320 2
6220 6219 2
6221 6121 2
6221 6222 5
6221 6321 5
6221 6220 4
6222 6122 3
6222 6223 4
6222 6322 4
6222 6221 1
6223 6123 5
6223 6224 2
6223 6323 4
6223 6222 3
6224 6124 2
6224 6225 1
6224 6324 4
6224 6223 4
6225 6125 5
6225 6226 1
6225 6325 1
6225 6224 2
6226 6126 3
6226 6227 5
6226 6326 1
6226 6225 5
6227 6127 3
6227 6228 3
6227 6327 4
6227 6226 5
6228 6128 1
6228 6229 1
6228 6328 2
6228 6227 3
6229 6129 3
6229 6230 2
6229 6329 2
6229 6228 2
6230 6130 4
6230 6231 2
6230 6330 2
6230 6229 1
6231 6131 4
6231 6232 5
6231 6331 1
6231 6230 4
6232 6132 5
6232 6233 4
6232 6332 5
6232 6231 3
6233 6133 4
6233 6234 3
6233 6333 4
6233 6232 4
6234 6134 1
6234 6235 4
6234 6334 4
6234 6233 3
6235 6135 1
6235 6236 4
6235 6335 5
6235 6234 1
6236 6136 2
6236 6237 5
6236 6336 3
6236 6235 2
6237 6137 1
6237 6238 3
6237 6337 1
6237 6236 1
6238 6138 4
6238 6239 3
6238 6338 2
6238 6237 4
6239 6139 1
6239 6240 1
6239 6339 4
6239 6238 1
6240 6140 2
6240 6241 2
6240 6340 3
6240 6239 1
6241 6141 5
6241 6242 3
6241 6341 2
6241 6240 3
6242 6142 2
6242 6243 1
6242 6342 5
6242 6241 5
6243 6143 2
6243 6244 5
6243 6343 2
6243 6242 3
6244 6144 5
6244 6245 3
6244 6344 5
6244 6243 1
6245 6145 2
6245 6246 1
6245 6345 1
6245 6244 3
6246 6146 1
6246 6247 4
6246 6346 5
6246 6245 1
6247 6147 1
6247 6248 3
6247 6347 2
6247 6246 1
6248 6148 2
6248 6249 1
6248 6348 3
6248 6247 1
6249 6149 4
6249 6250 4
6249 6349 3
6249 6248 5
6250 6150 4
6250 6251 3
6250 6350 4
6250 6249 2
6251 6151 2
6251 6252 5
6251 6351 3
6251 6250 2
6252 6152 3
6252 6253 5
6252 6352 1
6252 6251 1
6253 6153 1
6253 6254 3
6253 6353 1
6253 6252 1
6254 6154 3
6254 6255 4
6254 6354 4
6254 6253 3
6255 6155 2
6255 6256 4
6255 6355 5
6255 6254 5
6256 6156 4
6256 6257 1
6256 6356 3
6256 6255 4
6257 6157 2
6257 6258 5
6257 6357 3
6257 6256 3
6258 6158 1
6258 6259 2
6258 6358 5
6258 6257 1
6259 6159 4
6259 6260 4
6259 6359 3
6259 6258 1
6260 6160 2
6260 6261 2
6260 6360 5
6260 6259 3
6261 6161 5
6261 6262 4
6261 6361 5
6261 6260 1
6262 6162 3
6262 6263 3
6262 6362 3
6262 6261 2
6263 6163 4
6263 6264 1
6263 6363 5
6263 6262 4
6264 6164 2
6264 6265 2
6264 6364 4
6264 6263 1
6265 6165 2
6265 6266 3
6265 6365 3
6265 6264 4
6266 6166 3
6266 6267 3
6266 6366 4
6266 6265 4
6267 6167 4
6267 6268 2
6267 6367 1
6267 6266 3
6268 6168 1
6268 6269 4
6268 6368 1
6268 6267 1
6269 6169 4
6269 6270 2
6269 6369 1
6269 6268 5
6270 6170 4
6270 6271 1
6270 6370 3
6270 6269 4
6271 6171 3
6271 6272 4
6271 6371 5
6271 6270 2
6272 6172 4
6272 6273 1
6272 6372 2
6272 6271 1
6273 6173 4
6273 6274 3
6273 6373 3
6273 6272 2
6274 6174 5
6274 6275 1
6274 6374 2
6274 6273 4
6275 6175 3
6275 6276 1
6275 6375 3
6275 6274 5
6276 6176 3
6276 6277 4
6276 6376 2
6276 6275 4
6277 6177 1
6277 6278 2
6277 6377 5
6277 6276 2
6278 6178 3
6278 6279 3
6278 6378 4
6278 6277 5
6279 6179 4
6279 6280 2
6279 6379 4
6279 6278 2
6280 6180 5
6280 6281 5
6280 6380 3
6280 6279 1
6281 6181 4
6281 6282 4
6281 6381 4
6281 6280 3
6282 6182 2
6282 6283 1
6282 6382 4
6282 6281 4
6283 6183 2
6283 6284 2
6283 6383 4
6283 6282 1
6284 6184 2
6284 6285 3
6284 6384 2
6284 6283 5
6285 6185 4
6285 6286 4
6285 6385 4
6285 6284 2
6286 6186 3
6286 6287 5
6286 6386 2
6286 6285 2
6287 6187 5
6287 6288 4
6287 6387 5
6287 6286 4
6288 6188 5
6288 6289 1
6288 6388 4
6288 6287 1
6289 6189 3
6289 6290 5
6289 6389 5
6289 6288 4
6290 6190 5
6290 6291 2
6290 6390 2
6290 6289 1
6291 6191 3
6291 6292 3
6291 6391 2
6291 6290 3
6292 6192 1
6292 6293 3
6292 6392 1
6292 6291 5
6293 6193 5
6293 6294 2
6293 6393 4
6293 6292 2
6294 6194 5
6294 6295 4
6294 6394 1
6294 6293 3
6295 6195 5
6295 6296 4
6295 6395 4
6295 6294 3
6296 6196 1
6296 6297 3
6296 6396 2
6296 6295 3
6297 6197 4
6297 6298 4
6297 6397 1
6297 6296 4
6298 6198 5
6298 6299 5
6298 6398 4
6298 6297 4
6299 6199 3
6299 6399 3
6299 6298 3
6300 6200 2
6300 6301 4
6300 6400 1
6301 6201 5
6301 6302 1
6301 6401 2
6301 6300 5
6302 6202 3
6302 6303 2
6302 6402 2
6302 6301 4
6303 6203 2
6303 6304 4
6303 6403 2
6303 6302 4
6304 6204 2
6304 6305 2
6304 6404 1
6304 6303 2
6305 6205 2
6305 6306 2
6305 6405 4
6305 6304 1
6306 6206 1
6306 6307 1
6306 6406 4
6306 6305 3
6307 6207 4
6307 6308 4
6307 6407 5
6307 6306 1
6308 6208 4
6308 6309 1
6308 6408 4
6308 6307 2
6309 6209 1
6309 6310 3
6309 6409 2
6309 6308 5
6310 6210 5
6310 6311 3
6310 6410 1
6310 6309 3
6311 6211 3
6311 6312 5
6311 6411 4
6311 6310 5
6312 6212 5
6312 6313 2
6312 6412 1
6312 6311 3
6313 6213 2
6313 6314 1
6313 6413 4
6313 6312 5
6314 6214 1
6314 6315 2
6314 6414 5
6314 6313 2
6315 6215 2
6315 6316 1
6315 6415 2
6315 6314 4
6316 6216 5
6316 6317 5
6316 6416 1
6316 6315 1
6317 6217 3
6317 6318 2
6317 6417 4
6317 6316 3
6318 6218 4
6318 6319 1
6318 6418 1
6318 6317 4
6319 6219 5
6319 6320 1
6319 6419 1
6319 6318 4
6320 6220 4
6320 6321 1
6320 6420 2
6320 6319 1
6321 6221 4
6321 6322 2
6321 6421 4
6321 6320 1
6322 6222 3
6322 6323 1
6322 6422 1
6322 6321 3
6323 6223 5
6323 6324 2
6323 6423 2
6323 6322 2
6324 6224 4
6324 6325 4
6324 6424 2
6324 6323 3
6325 6225 3
6325 6326 4
6325 6425 5
6325 6324 2
6326 6226 1
6326 6327 4
6326 6426 2
6326 6325 5
6327 6227 3
6327 6328 4
6327 6427 4
6327 6326 2
6328 6228 5
6328 6329 1
6328 6428 5
6328 6327 2
6329 6229 5
6329 6330 1
6329 6429 4
6329 6328 3
6330 6230 3
6330 6331 1
6330 6430 2
6330 6329 3
6331 6231 5
6331 6332 5
6331 6431 5
6331 6330 3
6332 6232 1
6332 6333 5
6332 6432 2
6332 6331 5
6333 6233 2
6333 6334 2
6333 6433 4
6333 6332 2
6334 6234 4
6334 6335 2
6334 6434 5
6334 6333 1
6335 6235 2
6335 6336 5
6335 6435 1
6335 6334 4
6336 6236 2
6336 6337 3
6336 6436 1
6336 6335 3
6337 6237 5
6337 6338 4
6337 6437 1
6337 6336 2
6338 6238 4
6338 6339 4
6338 6438 4
6338 6337 4
6339 6239 3
6339 6340 2
6339 6439 4
6339 6338 2
6340 6240 5
6340 6341 3
6340 6440 3
6340 6339 2
6341 6241 5
6341 6342 4
6341 6441 3
6341 6340 5
6342 6242 5
6342 6343 3
6342 6442 1
6342 6341 4
6343 6243 1
6343 6344 5
6343 6443 5
6343 6342 4
6344 6244 3
6344 6345 1
6344 6444 4
6344 6343 4
6345 6245 3
6345 6346 4
6345 6445 1
6345 6344 2
6346 6246 1
6346 6347 5
6346 6446 1
6346 6345 1
6347 6247 5
6347 6348 2
6347 6447 5
6347 6346 1
6348 6248 2
6348 6349 2
6348 6448 1
6348 6347 3
6349 6249 3
6349 6350 2
6349 6449 5
6349 6348 1
6350 6250 3
6350 6351 3
6350 6450 5
6350 6349 5
6351 6251 1
6351 6352 5
6351 6451 2
6351 6350 2
6352 6252 2
6352 6353 3
6352 6452 2
6352 6351 2
6353 6253 2
6353 6354 2
6353 6453 1
6353 6352 2
6354 6254 2
6354 6355 3
6354 6454 1
6354 6353 1
6355 6255 2
6355 6356 3
6355 6455 3
6355 6354 3
6356 6256 1
6356 6357 1
6356 6456 5
6356 6355 2
6357 6257 3
6357 6358 3
6357 6457 3
6357 6356 1
6358 6258 2
6358 6359 4
6358 6458 5
6358 6357 5
6359 6259 5
6359 6360 5
6359 6459 3
6359 6358 2
6360 6260 5
6360 6361 2
6360 6460 2
6360 6359 2
6361 6261 2
6361 6362 3
6361 6461 2
6361 6360 4
6362 6262 2
6362 6363 5
6362 6462 4
6362 6361 2
6363 6263 1
6363 6364 5
6363 6463 1
6363 6362 3
6364 6264 5
6364 6365 5
6364 6464 2
6364 6363 1
6365 6265 2
6365 6366 3
6365 6465 3
6365 6364 1
6366 6266 2
6366 6367 5
6366 6466 1
6366 6365 4
6367 6267 3
6367 6368 5
6367 6467 4
6367 6366 3
6368 6268 5
6368 6369 5
6368 6468 5
6368 6367 2
6369 6269 1
6369 6370 1
6369 6469 2
6369 6368 2
6370 6270 4
6370 6371 4
6370 6470 2
6370 6369 1
6371 6271 4
6371 6372 4
6371 6471 3
6371 6370 5
6372 6272 3
6372 6373 3
6372 6472 2
6372 6371 1
6373 6273 1
6373 6374 4
6373 6473 2
6373 6372 5
6374 6274 3
6374 6375 1
6374 6474 5
6374 6373 2
6375 6275 4
6375 6376 3
6375 6475 5
6375 6374 1
6376 6276 5
6376 6377 2
6376 6476 2
6376 6375 4
6377 6277 4
6377 6378 1
6377 6477 2
6377 6376 1
6378 6278 4
6378 6379 3
6378 6478 2
6378 6377 4
6379 6279 2
6379 6380 4
6379 6479 3
6379 6378 4
6380 6280 3
6380 6381 2
6380 6480 5
6380 6379 4
6381 6281 3
6381 6382 4
6381 6481 1
6381 6380 2
6382 6282 1
6382 6383 5
6382 6482 4
6382 6381 1
6383 6283 4
6383 6384 2
6383 6483 1
6383 6382 1
6384 6284 5
6384 6385 5
6384 6484 2
6384 6383 5
6385 6285 3
6385 6386 3
6385 6485 2
6385 6384 3
6386 6286 1
6386 6387 2
6386 6486 2
6386 6385 1
6387 6287 1
6387 6388 3
6387 6487 2
6387 6386 3
6388 6288 3
6388 6389 1
6388 6488 3
6388 6387 1
6389 6289 3
6389 6390 2
6389 6489 2
6389 6388 1
6390 6290 5
6390 6391 1
6390 6490 3
6390 6389 2
6391 6291 1
6391 6392 5
6391 6491 4
6391 6390 4
6392 6292 5
6392 6393 4
6392 6492 2
6392 6391 3
6393 6293 4
6393 6394 5
6393 6493 2
6393 6392 3
6394 6294 3
6394 6395 2
6394 6494 2
6394 6393 1
6395 6295 5
6395 6396 5
6395 6495 2
6395 6394 3
6396 6296 3
6396 6397 5
6396 6496 1
6396 6395 5
6397 6297 2
6397 6398 1
6397 6497 3
6397 6396 5
6398 6298 4
6398 6399 4
6398 6498 1
6398 6397 4
6399 6299 4
6399 6499 4
6399 6398 5
6400 6300 2
6400 6401 2
6400 6500 2
6401 6301 2
6401 6402 5
6401 6501 5
6401 6400 5
6402 6302 4
6402 6403 3
6402 6502 1
6402 6401 3
6403 6303 5
6403 6404 1
6403 6503 2
6403 6402 3
6404 6304 4
6404 6405 5
6404 6504 3
6404 6403 4
6405 6305 3
6405 6406 1
6405 6505 5
6405 6404 3
6406 6306 5
6406 6407 3
6406 6506 5
6406 6405 5
6407 6307 2
6407 6408 5
6407 6507 2
6407 6406 3
6408 6308 4
6408 6409 4
6408 6508 2
6408 6407 4
6409 6309 2
6409 6410 1
6409 6509 5
6409 6408 3
6410 6310 4
6410 6411 4
6410 6510 2
6410 6409 5
6411 6311 2
6411 6412 3
6411 6511 3
6411 6410 2
6412 6312 3
6412 6413 3
6412 6512 1
6412 6411 5
6413 6313 4
6413 6414 2
6413 6513 5
6413 6412 2
6414 6314 2
6414 6415 2
6414 6514 3
6414 6413 1
6415 6315 1
6415 6416 5
6415 6515 2
6415 6414 3
6416 6316 4
6416 6417 2
6416 6516 3
6416 6415 4
6417 6317 2
6417 6418 5
6417 6517 4
6417 6416 2
6418 6318 5
6418 6419 3
6418 6518 2
6418 6417 1
6419 6319 1
6419 6420 2
6419 6519 2
6419 6418 2
6420 6320 3
6420 6421 1
6420 6520 3
6420 6419 5
6421 6321 5
6421 6422 2
6421 6521 5
6421 6420 1
6422 6322 1
6422 6423 5
6422 6522 4
6422 6421 4
6423 6323 2
6423 6424 4
6423 6523 1
6423 6422 2
6424 6324 4
6424 6425 4
6424 6524 1
6424 6423 3
6425 6325 3
6425 6426 1
6425 6525 5
6425 6424 3
6426 6326 4
6426 6427 2
6426 6526 2
6426 6425 1
6427 6327 4
6427 6428 3
6427 6527 1
6427 6426 1
6428 6328 2
6428 6429 5
6428 6528 1
6428 6427 1
6429 6329 1
6429 6430 5
6429 6529 2
6429 6428 2
6430 6330 3
6430 6431 2
6430 6530 5
6430 6429 5
6431 6331 2
6431 6432 2
6431 6531 2
6431 6430 3
6432 6332 4
6432 6433 1
6432 6532 1
6432 6431 5
6433 6333 2
6433 6434 4
6433 6533 1
6433 6432 1
6434 6334 4
6434 6435 1
6434 6534 5
6434 6433 2
6435 6335 4
6435 6436 4
6435 6535 1
6435 6434 3
6436 6336 4
6436 6437 3
6436 6536 4
6436 6435 1
6437 6337 4
6437 6438 1
6437 6537 4
6437 6436 4
6438 6338 2
6438 6439 4
6438 6538 3
6438 6437 2
6439 6339 5
6439 6440 3
6439 6539 1
6439 6438 1
6440 6340 5
6440 6441 3
6440 6540 2
6440 6439 4
6441 6341 2
6441 6442 2
6441 6541 3
6441 6440 4
6442 6342 1
6442 6443 4
6442 6542 4
6442 6441 2
6443 6343 2
6443 6444 1
6443 6543 2
6443 6442 2
6444 6344 4
6444 6445 1
6444 6544 1
6444 6443 5
6445 6345 3
6445 6446 3
6445 6545 1
6445 6444 4
6446 6346 3
6446 6447 2
6446 6546 2
6446 6445 1
6447 6347 4
6447 6448 3
6447 6547 3
6447 6446 3
6448 6348 1
6448 6449 2
6448 6548 4
6448 6447 2
6449 6349 4
6449 6450 4
6449 6549 4
6449 6448 5
6450 6350 3
6450 6451 4
6450 6550 4
6450 6449 1
6451 6351 4
6451 6452 2
6451 6551 3
6451 6450 5
6452 6352 3
6452 6453 2
6452 6552 5
6452 6451 1
6453 6353 3
6453 6454 4
6453 6553 1
6453 6452 4
6454 6354 3
6454 6455 3
6454 6554 1
6454 6453 5
6455 6355 5
6455 6456 4
6455 6555 1
6455 6454 1
6456 6356 4
6456 6457 5
6456 6556 5
6456 6455 5
6457 6357 2
6457 6458 2
6457 6557 3
6457 6456 2
6458 6358 1
6458 6459 2
6458 6558 3
6458 6457 5
6459 6359 2
6459 6460 4
6459 6559 3
6459 6458 3
6460 6360 3
6460 6461 1
6460 6560 4
6460 6459 2
6461 6361 2
6461 6462 3
6461 6561 3
6461 6460 4
6462 6362 3
6462 6463 2
6462 6562 5
6462 6461 4
6463 6363 5
6463 6464 3
6463 6563 4
6463 6462 5
6464 6364 1
6464 6465 2
6464 6564 3
6464 6463 3
6465 6365 5
6465 6466 3
6465 6565 2
6465 6464 4
6466 6366 2
6466 6467 4
6466 6566 5
6466 6465 5
6467 6367 1
6467 6468 3
6467 6567 4
6467 6466 2
6468 6368 2
6468 6469 5
6468 6568 4
6468 6467 3
6469 6369 1
6469 6470 1
6469 6569 1
6469 6468 5
6470 6370 3
6470 6471 2
6470 6570 5
6470 6469 3
6471 6371 3
6471 6472 4
6471 6571 3
6471 6470 2
6472 6372 1
6472 6473 4
6472 6572 3
6472 6471 2
6473 6373 3
6473 6474 5
6473 6573 5
6473 6472 1
6474 6374 1
6474 6475 5
6474 6574 2
6474 6473 4
6475 6375 5
6475 6476 1
6475 6575 3
6475 6474 4
6476 6376 1
6476 6477 3
6476 6576 4
6476 6475 4
6477 6377 1
6477 6478 3
6477 6577 2
6477 6476 4
6478 6378 5
6478 6479 5
6478 6578 3
6478 6477 3
6479 6379 2
6479 6480 4
6479 6579 1
6479 6478 4
6480 6380 4
6480 6481 1
6480 6580 5
6480 6479 4
6481 6381 3
6481 6482 4
6481 6581 3
6481 6480 4
6482 6382 4
6482 6483 2
6482 6582 4
6482 6481 2
6483 6383 4
6483 6484 5
6483 6583 1
6483 6482 3
6484 6384 3
6484 6485 1
6484 6584 5
6484 6483 3
6485 6385 5
6485 6486 5
6485 6585 5
6485 6484 1
6486 6386 1
6486 6487 2
6486 6586 4
6486 6485 4
6487 6387 2
6487 6488 5
6487 6587 1
6487 6486 1
6488 6388 5
6488 6489 3
6488 6588 3
6488 6487 1
6489 6389 4
6489 6490 5
6489 6589 4
6489 6488 1
6490 6390 3
6490 6491 2
6490 6590 3
6490 6489 4
6491 6391 4
6491 6492 1
6491 6591 3
6491 6490 1
6492 6392 2
6492 6493 2
6492 6592 4
6492 6491 3
6493 6393 4
6493 6494 5
6493 6593 5
6493 6492 2
6494 6394 2
6494 6495 1
6494 6594 4
6494 6493 4
6495 6395 4
6495 6496 2
6495 6595 1
6495 6494 4
6496 6396 4
6496 6497 1
6496 6596 5
6496 6495 2
6497 6397 2
6497 6498 2
6497 6597 4
6497 6496 4
6498 6398 4
6498 6499 5
6498 6598 3
6498 6497 1
6499 6399 5
6499 6599 1
6499 6498 5
6500 6400 4
6500 6501 5
6500 6600 5
6501 6401 4
6501 6502 3
6501 6601 2
6501 6500 5
6502 6402 3
6502 6503 5
6502 6602 1
6502 6501 4
6503 6403 4
6503 6504 2
6503 6603 5
6503 6502 4
6504 6404 2
6504 6505 3
6504 6604 2
6504 6503 5
6505 6405 5
6505 6506 5
6505 6605 4
6505 6504 4
6506 6406 1
6506 6507 3
6506 6606 3
6506 6505 1
6507 6407 3
6507 6508 5
6507 6607 2
6507 6506 2
6508 6408 1
6508 6509 4
6508 6608 1
6508 6507 3
6509 6409 5
6509 6510 4
6509 6609 1
6509 6508 5
6510 6410 4
6510 6511 4
6510 6610 1
6510 6509 4
6511 6411 4
6511 6512 2
6511 6611 2
6511 6510 1
6512 6412 1
6512 6513 4
6512 6612 2
6512 6511 5
6513 6413 1
6513 6514 4
6513 6613 2
6513 6512 5
6514 6414 5
6514 6515 2
6514 6614 5
6514 6513 5
6515 6415 1
6515 6516 5
6515 6615 5
6515 6514 2
6516 6416 4
6516 6517 1
6516 6616 5
6516 6515 2
6517 6417 4
6517 6518 3
6517 6617 2
6517 6516 2
6518 6418 4
6518 6519 1
6518 6618 4
6518 6517 1
6519 6419 5
6519 6520 4
6519 6619 3
6519 6518 5
6520 6420 3
6520 6521 2
6520 6620 4
6520 6519 5
6521 6421 3
6521 6522 2
6521 6621 1
6521 6520 2
6522 6422 5
6522 6523 5
6522 6622 2
6522 6521 1
6523 6423 2
6523 6524 3
6523 6623 3
6523 6522 5
6524 6424 1
6524 6525 1
6524 6624 3
6524 6523 3
6525 6425 5
6525 6526 5
6525 6625 4
6525 6524 4
6526 6426 1
6526 6527 4
6526 6626 5
6526 6525 2
6527 6427 1
6527 6528 5
6527 6627 3
6527 6526 5
6528 6428 4
6528 6529 2
6528 6628 1
6528 6527 3
6529 6429 3
6529 6530 5
6529 6629 5
6529 6528 2
6530 6430 3
6530 6531 2
6530 6630 5
6530 6529 5
6531 6431 3
6531 6532 2
6531 6631 1
6531 6530 2
6532 6432 1
6532 6533 4
6532 6632 5
6532 6531 1
6533 6433 4
6533 6534 4
6533 6633 5
6533 6532 1
6534 6434 4
6534 6535 4
6534 6634 3
6534 6533 2
6535 6435 1
6535 6536 3
6535 6635 5
6535 6534 5
6536 6436 1
6536 6537 1
6536 6636 4
6536 6535 3
6537 6437 5
6537 6538 2
6537 6637 5
6537 6536 1
6538 6438 3
6538 6539 1
6538 6638 2
6538 6537 4
6539 6439 1
6539 6540 1
6539 6639 4
6539 6538 1
6540 6440 5
6540 6541 2
6540 6640 4
6540 6539 3
6541 6441 1
6541 6542 4
6541 6641 1
6541 6540 2
6542 6442 1
6542 6543 5
6542 6642 5
6542 6541 1
6543 6443 5
6543 6544 1
6543 6643 4
6543 6542 2
6544 6444 4
6544 6545 2
6544 6644 5
6544 6543 2
6545 6445 5
6545 6546 4
6545 6645 5
6545 6544 2
6546 6446 3
6546 6547 3
6546 6646 5
6546 6545 3
6547 6447 1
6547 6548 1
6547 6647 4
6547 6546 2
6548 6448 5
6548 6549 5
6548 6648 5
6548 6547 3
6549 6449 5
6549 6550 2
6549 6649 4
6549 6548 3
6550 6450 1
6550 6551 1
6550 6650 4
6550 6549 5
6551 6451 1
6551 6552 4
6551 6651 5
6551 6550 1
6552 6452 5
6552 6553 4
6552 6652 1
6552 6551 2
6553 6453 4
6553 6554 4
6553 6653 4
6553 6552 2
6554 6454 1
6554 6555 5
6554 6654 1
6554 6553 5
6555 6455 2
6555 6556 1
6555 6655 2
6555 6554 5
6556 6456 1
6556 6557 4
6556 6656 1
6556 6555 2
6557 6457 4
6557 6558 2
6557 6657 3
6557 6556 3
6558 6458 3
6558 6559 2
6558 6658 3
6558 6557 5
6559 6459 4
6559 6560 2
6559 6659 3
6559 6558 3
6560 6460 5
6560 6561 4
6560 6660 1
6560 6559 1
6561 6461 2
6561 6562 1
6561 6661 3
6561 6560 2
6562 6462 3
6562 6563 2
6562 6662 3
6562 6561 2
6563 6463 4
6563 6564 5
6563 6663 1
6563 6562 5
6564 6464 1
6564 6565 2
6564 6664 2
6564 6563 4
6565 6465 3
6565 6566 2
6565 6665 1
6565 6564 2
6566 6466 5
6566 6567 3
6566 6666 5
6566 6565 4
6567 6467 4
6567 6568 1
6567 6667 2
6567 6566 5
6568 6468 4
6568 6569 4
6568 6668 1
6568 6567 2
6569 6469 3
6569 6570 2
6569 6669 4
6569 6568 3
6570 6470 2
6570 6571 3
6570 6670 1
6570 6569 3
6571 6471 3
6571 6572 2
6571 6671 4
6571 6570 3
6572 6472 5
6572 6573 1
6572 6672 5
6572 6571 4
6573 6473 3
6573 6574 3
6573 6673 1
6573 6572 2
6574 6474 4
6574 6575 3
6574 6674 5
6574 6573 5
6575 6475 2
6575 6576 1
6575 6675 3
6575 6574 5
6576 6476 4
6576 6577 4
6576 6676 2
6576 6575 5
6577 6477 3
6577 6578 3
6577 6677 4
6577 6576 4
6578 6478 2
6578 6579 2
6578 6678 2
6578 6577 2
6579 6479 4
6579 6580 1
6579 6679 4
6579 6578 4
6580 6480 4
6580 6581 5
6580 6680 5
6580 6579 5
6581 6481 4
6581 6582 3
6581 6681 5
6581 6580 1
6582 6482 2
6582 6583 3
6582 6682 5
6582 6581 3
6583 6483 5
6583 6584 4
6583 6683 2
6583 6582 2
6584 6484 1
6584 6585 3
6584 6684 2
6584 6583 5
6585 6485 5
6585 6586 4
6585 6685 2
6585 6584 2
6586 6486 4
6586 6587 5
6586 6686 5
6586 6585 2
6587 6487 1
6587 6588 4
6587 6687 4
6587 6586 4
6588 6488 1
6588 6589 4
6588 6688 5
6588 6587 5
6589 6489 4
6589 6590 2
6589 6689 2
6589 6588 3
6590 6490 4
6590 6591 5
6590 6690 5
6590 6589 5
6591 6491 2
6591 6592 5
6591 6691 5
6591 6590 5
6592 6492 2
6592 6593 2
6592 6692 3
6592 6591 5
6593 6493 4
6593 6594 4
6593 6693 5
6593 6592 5
6594 6494 4
6594 6595 4
6594 6694 4
6594 6593 5
6595 6495 2
6595 6596 3
6595 6695 4
6595 6594 1
6596 6496 3
6596 6597 1
6596 6696 2
6596 6595 3
6597 6497 5
6597 6598 2
6597 6697 1
6597 6596 5
6598 6498 3
6598 6599 5
6598 6698 2
6598 6597 1
6599 6499 3
6599 6699 2
6599 6598 5
6600 6500 5
6600 6601 2
6600 6700 5
6601 6501 1
6601 6602 2
6601 6701 2
6601 6600 4
6602 6502 1
6602 6603 1
6602 6702 1
6602 6601 1
6603 6503 3
6603 6604 3
6603 6703 1
6603 6602 4
6604 6504 4
6604 6605 2
6604 6704 5
6604 6603 1
6605 6505 3
6605 6606 2
6605 6705 1
6605 6604 3
6606 6506 5
6606 6607 1
6606 6706 2
6606 6605 3
6607 6507 1
6607 6608 1
6607 6707 2
6607 6606 5
6608 6508 5
6608 6609 4
6608 6708 3
6608 6607 2
6609 6509 5
6609 6610 4
6609 6709 2
6609 6608 1
6610 6510 5
6610 6611 5
6610 6710 5
6610 6609 4
6611 6511 3
6611 6612 4
6611 6711 3
6611 6610 2
6612 6512 2
6612 6613 3
6612 6712 1
6612 6611 3
6613 6513 5
6613 6614 2
6613 6713 1
6613 6612 5
6614 6514 2
6614 6615 2
6614 6714 3
6614 6613 2
6615 6515 1
6615 6616 5
6615 6715 4
6615 6614 4
6616 6516 4
6616 6617 5
6616 6716 1
6616 6615 5
6617 6517 3
6617 6618 5
6617 6717 5
6617 6616 4
6618 6518 2
6618 6619 5
6618 6718 5
6618 6617 1
6619 6519 3
6619 6620 4
6619 6719 5
6619 6618 2
6620 6520 1
6620 6621 1
6620 6720 4
6620 6619 3
6621 6521 2
6621 6622 1
6621 6721 4
6621 6620 5
6622 6522 4
6622 6623 4
6622 6722 1
6622 6621 5
6623 6523 4
6623 6624 5
6623 6723 3
6623 6622 4
6624 6524 2
6624 6625 3
6624 6724 1
6624 6623 3
6625 6525 2
6625 6626 3
6625 6725 4
6625 6624 3
6626 6526 1
6626 6627 2
6626 6726 3
6626 6625 2
6627 6527 1
6627 6628 2
6627 6727 4
6627 6626 5
6628 6528 3
6628 6629 4
6628 6728 1
6628 6627 1
6629 6529 1
6629 6630 4
6629 6729 4
6629 6628 4
6630 6530 2
6630 6631 2
6630 6730 1
6630 6629 4
6631 6531 3
6631 6632 1
6631 6731 2
6631 6630 4
6632 6532 1
6632 6633 5
6632 6732 2
6632 6631 1
6633 6533 2
6633 6634 3
6633 6733 5
6633 6632 5
6634 6534 5
6634 6635 1
6634 6734 5
6634 6633 2
6635 6535 5
6635 6636 4
6635 6735 2
6635 6634 2
6636 6536 4
6636 6637 1
6636 6736 2
6636 6635 3
6637 6537 2
6637 6638 3
6637 6737 3
6637 6636 3
6638 6538 4
6638 6639 3
6638 6738 5
6638 6637 5
6639 6539 1
6639 6640 3
6639 6739 4
6639 6638 4
6640 6540 1
6640 6641 4
6640 6740 5
6640 6639 4
6641 6541 2
6641 6642 2
6641 6741 3
6641 6640 1
6642 6542 1
6642 6643 4
6642 6742 4
6642 6641 3
6643 6543 1
6643 6644 5
6643 6743 1
6643 6642 4
6644 6544 1
6644 6645 5
6644 6744 3
6644 6643 1
6645 6545 4
6645 6646 2
6645 6745 2
6645 6644 5
6646 6546 5
6646 6647 3
6646 6746 1
6646 6645 3
6647 6547 3
6647 6648 4
6647 6747 2
6647 6646 3
6648 6548 1
6648 6649 5
6648 6748 1
6648 6647 5
6649 6549 3
6649 6650 5
6649 6749 1
6649 6648 3
6650 6550 3
6650 6651 5
6650 6750 1
6650 6649 1
6651 6551 3
6651 6652 4
6651 6751 3
6651 6650 3
6652 6552 5
6652 6653 4
6652 6752 3
6652 6651 2
6653 6553 5
6653 6654 1
6653 6753 4
6653 6652 1
6654 6554 4
6654 6655 4
6654 6754 1
6654 6653 1
6655 6555 3
6655 6656 1
6655 6755 5
6655 6654 2
6656 6556 1
6656 6657 3
6656 6756 3
6656 6655 3
6657 6557 1
6657 6658 5
6657 6757 3
6657 6656 1
6658 6558 2
6658 6659 5
6658 6758 5
6658 6657 2
6659 6559 2
6659 6660 1
6659 6759 5
6659 6658 1
6660 6560 2
6660 6661 5
6660 6760 4
6660 6659 4
6661 6561 2
6661 6662 1
6661 6761 2
6661 6660 5
6662 6562 3
6662 6663 5
6662 6762 5
6662 6661 4
6663 6563 3
6663 6664 1
6663 6763 4
6663 6662 5
6664 6564 5
6664 6665 1
6664 6764 2
6664 6663 4
6665 6565 3
6665 6666 2
6665 6765 5
6665 6664 3
6666 6566 1
6666 6667 4
6666 6766 3
6666 6665 4
6667 6567 5
6667 6668 2
6667 6767 2
6667 6666 2
6668 6568 3
6668 6669 4
6668 6768 2
6668 6667 2
6669 6569 1
6669 6670 2
6669 6769 5
6669 6668 4
6670 6570 3
6670 6671 3
6670 6770 1
6670 6669 5
6671 6571 5
6671 6672 1
6671 6771 4
6671 6670 4
6672 6572 1
6672 6673 5
6672 6772 5
6672 6671 5
6673 6573 4
6673 6674 1
6673 6773 5
6673 6672 2
6674 6574 1
6674 6675 1
6674 6774 5
6674 6673 5
6675 6575 1
6675 6676 5
6675 6775 3
6675 6674 2
6676 6576 1
6676 6677 1
6676 6776 2
6676 6675 2
6677 6577 4
6677 6678 4
6677 6777 1
6677 6676 1
6678 6578 3
6678 6679 5
6678 6778 3
6678 6677 5
6679 6579 3
6679 6680 5
6679 6779 1
6679 6678 3
6680 6580 2
6680 6681 4
6680 6780 2
6680 6679 2
6681 6581 1
6681 6682 1
6681 6781 5
6681 6680 4
6682 6582 1
6682 6683 3
6682 6782 4
6682 6681 2
6683 6583 2
6683 6684 1
6683 6783 3
6683 6682 2
6684 6584 5
6684 6685 4
6684 6784 1
6684 6683 4
6685 6585 4
6685 6686 3
6685 6785 3
6685 6684 3
6686 6586 3
6686 6687 4
6686 6786 1
6686 6685 5
6687 6587 2
6687 6688 2
6687 6787 1
6687 6686 4
6688 6588 1
6688 6689 3
6688 6788 4
6688 6687 1
6689 6589 5
6689 6690 5
6689 6789 3
6689 6688 2
6690 6590 5
6690 6691 3
6690 6790 4
6690 6689 4
6691 6591 4
6691 6692 4
6691 6791 2
6691 6690 4
6692 6592 2
6692 6693 2
6692 6792 3
6692 6691 5
6693 6593 4
6693 6694 1
6693 6793 3
6693 6692 2
6694 6594 1
6694 6695 2
6694 6794 4
6694 6693 1
6695 6595 5
6695 6696 3
6695 6795 1
6695 6694 2
6696 6596 3
6696 6697 4
6696 6796 5
6696 6695 4
6697 6597 1
6697 6698 2
6697 6797 4
6697 6696 5
6698 6598 4
6698 6699 1
6698 6798 3
6698 6697 1
6699 6599 4
6699 6799 2
6699 6698 1
6700 6600 4
6700 6701 4
6700 6800 2
6701 6601 4
6701 6702 1
6701 6801 3
6701 6700 1
6702 6602 2
6702 6703 5
6702 6802 1
6702 6701 4
6703 6603 3
6703 6704 1
6703 6803 5
6703 6702 5
6704 6604 5
6704 6705 1
6704 6804 1
6704 6703 2
6705 6605 5
6705 6706 1
6705 6805 5
6705 6704 1
6706 6606 2
6706 6707 1
6706 6806 2
6706 6705 1
6707 6607 2
6707 6708 3
6707 6807 2
6707 6706 1
6708 6608 5
6708 6709 3
6708 6808 3
6708 6707 2
6709 6609 2
6709 6710 4
6709 6809 3
6709 6708 5
6710 6610 4
6710 6711 5
6710 6810 3
6710 6709 2
6711 6611 1
6711 6712 5
6711 6811 2
6711 6710 4
6712 6612 1
6712 6713 1
6712 6812 5
6712 6711 5
6713 6613 4
6713 6714 1
6713 6813 2
6713 6712 4
6714 6614 3
6714 6715 4
6714 6814 3
6714 6713 3
6715 6615 3
6715 6716 3
6715 6815 5
6715 6714 2
6716 6616 1
6716 6717 3
6716 6816 3
6716 6715 5
6717 6617 5
6717 6718 3
6717 6817 3
6717 6716 3
6718 6618 2
6718 6719 5
6718 6818 1
6718 6717 1
6719 6619 5
6719 6720 1
6719 6819 5
6719 6718 1
6720 6620 5
6720 6721 5
6720 6820 4
6720 6719 3
6721 6621 3
6721 6722 5
6721 6821 2
6721 6720 3
6722 6622 3
6722 6723 3
6722 6822 4
6722 6721 4
6723 6623 2
6723 6724 2
6723 6823 5
6723 6722 3
6724 6624 2
6724 6725 1
6724 6824 4
6724 6723 5
6725 6625 4
6725 6726 1
6725 6825 3
6725 6724 4
6726 6626 4
6726 6727 1
6726 6826 2
6726 6725 4
6727 6627 1
6727 6728 4
6727 6827 2
6727 6726 3
6728 6628 5
6728 6729 4
6728 6828 1
6728 6727 4
6729 6629 1
6729 6730 3
6729 6829 4
6729 6728 2
6730 6630 4
6730 6731 4
6730 6830 1
6730 6729 2
6731 6631 2
6731 6732 3
6731 6831 1
6731 6730 3
6732 6632 5
6732 6733 3
6732 6832 1
6732 6731 1
6733 6633 3
6733 6734 2
6733 6833 1
6733 6732 1
6734 6634 4
6734 6735 2
6734 6834 1
6734 6733 4
6735 6635 4
6735 6736 1
6735 6835 3
6735 6734 4
6736 6636 1
6736 6737 3
6736 6836 5
6736 6735 4
6737 6637 5
6737 6738 1
6737 6837 3
6737 6736 2
6738 6638 2
6738 6739 3
6738 6838 3
6738 6737 1
6739 6639 2
6739 6740 2
6739 6839 5
6739 6738 3
6740 6640 3
6740 6741 4
6740 6840 5
6740 6739 3
6741 6641 1
6741 6742 4
6741 6841 3
6741 6740 3
6742 6642 2
6742 6743 1
6742 6842 3
6742 6741 4
6743 6643 5
6743 6744 1
6743 6843 3
6743 6742 4
6744 6644 1
6744 6745 5
6744 6844 1
6744 6743 5
6745 6645 5
6745 6746 5
6745 6845 4
6745 6744 4
6746 6646 3
6746 6747 4
6746 6846 5
6746 6745 2
6747 6647 4
6747 6748 3
6747 6847 4
6747 6746 1
6748 6648 5
6748 6749 2
6748 6848 2
6748 6747 3
6749 6649 5
6749 6750 4
6749 6849 3
6749 6748 5
6750 6650 4
6750 6751 4
6750 6850 5
6750 6749 1
6751 6651 3
6751 6752 4
6751 6851 1
6751 6750 2
6752 6652 2
6752 6753 4
6752 6852 4
6752 6751 1
6753 6653 5
6753 6754 3
6753 6853 2
6753 6752 1
6754 6654 1
6754 6755 5
6754 6854 2
6754 6753 2
6755 6655 1
6755 6756 5
6755 6855 3
6755 6754 4
6756 6656 4
6756 6757 2
6756 6856 2
6756 6755 2
6757 6657 2
6757 6758 5
6757 6857 4
6757 6756 2
6758 6658 2
6758 6759 2
6758 6858 5
6758 6757 4
6759 6659 3
6759 6760 3
6759 6859 1
6759 6758 2
6760 6660 5
6760 6761 2
6760 6860 3
6760 6759 2
6761 6661 2
6761 6762 4
6761 6861 4
6761 6760 4
6762 6662 5
6762 6763 5
6762 6862 2
6762 6761 3
6763 6663 2
6763 6764 4
6763 6863 4
6763 6762 2
6764 6664 5
6764 6765 2
6764 6864 2
6764 6763 5
6765 6665 3
6765 6766 2
6765 6865 1
6765 6764 2
6766 6666 2
6766 6767 2
6766 6866 1
6766 6765 5
6767 6667 1
6767 6768 3
6767 6867 1
6767 6766 1
6768 6668 4
6768 6769 5
6768 6868 2
6768 6767 2
6769 6669 2
6769 6770 5
6769 6869 3
6769 6768 3
6770 6670 2
6770 6771 2
6770 6870 3
6770 6769 4
6771 6671 1
6771 6772 5
6771 6871 5
6771 6770 5
6772 6672 2
6772 6773 5
6772 6872 1
6772 6771 4
6773 6673 3
6773 6774 3
6773 6873 1
6773 6772 3
6774 6674 3
6774 6775 3
6774 6874 2
6774 6773 4
6775 6675 1
6775 6776 4
6775 6875 3
6775 6774 4
6776 6676 5
6776 6777 5
6776 6876 5
6776 6775 1
6777 6677 2
6777 6778 5
6777 6877 2
6777 6776 1
6778 6678 1
6778 6779 1
6778 6878 4
6778 6777 3
6779 6679 2
6779 6780 2
6779 6879 2
6779 6778 2
6780 6680 4
6780 6781 2
6780 6880 2
6780 6779 4
6781 6681 4
6781 6782 4
6781 6881 4
6781 6780 2
6782 6682 2
6782 6783 1
6782 6882 4
6782 6781 5
6783 6683 1
6783 6784 4
6783 6883 4
6783 6782 3
6784 6684 4
6784 6785 1
6784 6884 4
6784 6783 1
6785 6685 2
6785 6786 5
6785 6885 3
6785 6784 1
6786 6686 2
6786 6787 4
6786 6886 1
6786 6785 3
6787 6687 5
6787 6788 3
6787 6887 2
6787 6786 5
6788 6688 5
6788 6789 3
6788 6888 2
6788 6787 3
6789 6689 1
6789 6790 1
6789 6889 4
6789 6788 3
6790 6690 1
6790 6791 2
6790 6890 4
6790 6789 3
6791 6691 1
6791 6792 4
6791 6891 4
6791 6790 3
6792 6692 5
6792 6793 2
6792 6892 4
6792 6791 4
6793 6693 4
6793 6794 2
6793 6893 3
6793 6792 5
6794 6694 1
6794 6795 4
6794 6894 2
6794 6793 1
6795 6695 1
6795 6796 2
6795 6895 4
6795 6794 2
6796 6696 5
6796 6797 3
6796 6896 4
6796 6795 3
6797 6697 4
6797 6798 1
6797 6897 3
6797 6796 5
6798 6698 4
6798 6799 3
6798 6898 3
6798 6797 5
6799 6699 4
6799 6899 5
6799 6798 2
6800 6700 1
6800 6801 5
6800 6900 2
6801 6701 5
6801 6802 5
6801 6901 4
6801 6800 5
6802 6702 5
6802 6803 3
6802 6902 5
6802 6801 1
6803 6703 3
6803 6804 5
6803 6903 5
6803 6802 4
6804 6704 1
6804 6805 5
6804 6904 5
6804 6803 3
6805 6705 3
6805 6806 1
6805 6905 3
6805 6804 5
6806 6706 2
6806 6807 2
6806 6906 4
6806 6805 4
6807 6707 3
6807 6808 2
6807 6907 2
6807 6806 2
6808 6708 2
6808 6809 5
6808 6908 3
6808 6807 4
6809 6709 1
6809 6810 2
6809 6909 1
6809 6808 2
6810 6710 5
6810 6811 5
6810 6910 5
6810 6809 1
6811 6711 1
6811 6812 3
6811 6911 5
6811 6810 3
6812 6712 5
6812 6813 3
6812 6912 2
6812 6811 3
6813 6713 1
6813 6814 1
6813 6913 1
6813 6812 2
6814 6714 4
6814 6815 4
6814 6914 2
6814 6813 2
6815 6715 2
6815 6816 5
6815 6915 5
6815 6814 3
6816 6716 4
6816 6817 3
6816 6916 2
6816 6815 2
6817 6717 3
6817 6818 4
6817 6917 4
6817 6816 5
6818 6718 4
6818 6819 1
6818 6918 5
6818 6817 5
6819 6719 5
6819 6820 2
6819 6919 2
6819 6818 2
6820 6720 4
6820 6821 5
6820 6920 5
6820 6819 4
6821 6721 1
6821 6822 3
6821 6921 5
6821 6820 3
6822 6722 1
6822 6823 4
6822 6922 5
6822 6821 1
6823 6723 4
6823 6824 1
6823 6923 2
6823 6822 3
6824 6724 5
6824 6825 3
6824 6924 4
6824 6823 3
6825 6725 4
6825 6826 5
6825 6925 5
6825 6824 5
6826 6726 3
6826 6827 4
6826 6926 1
6826 6825 3
6827 6727 5
6827 6828 4
6827 6927 4
6827 6826 5
6828 6728 3
6828 6829 5
6828 6928 4
6828 6827 2
6829 6729 5
6829 6830 2
6829 6929 1
6829 6828 5
6830 6730 4
6830 6831 2
6830 6930 2
6830 6829 4
6831 6731 1
6831 6832 1
6831 6931 5
6831 6830 1
6832 6732 5
6832 6833 2
6832 6932 4
6832 6831 1
6833 6733 4
6833 6834 4
6833 6933 2
6833 6832 1
6834 6734 1
6834 6835 4
6834 6934 3
6834 6833 3
6835 6735 3
6835 6836 4
6835 6935 5
6835 6834 4
6836 6736 3
6836 6837 3
6836 6936 4
6836 6835 5
6837 6737 4
6837 6838 3
6837 6937 3
6837 6836 3
6838 6738 4
6838 6839 3
6838 6938 1
6838 6837 2
6839 6739 3
6839 6840 4
6839 6939 4
6839 6838 3
6840 6740 1
6840 6841 1
6840 6940 1
6840 6839 4
6841 6741 5
6841 6842 4
6841 6941 3
6841 6840 5
6842 6742 4
6842 6843 5
6842 6942 2
6842 6841 3
6843 6743 1
6843 6844 3
6843 6943 1
6843 6842 4
6844 6744 4
6844 6845 3
6844 6944 3
6844 6843 3
6845 6745 1
6845 6846 2
6845 6945 2
6845 6844 3
6846 6746 3
6846 6847 3
6846 6946 1
6846 6845 5
6847 6747 5
6847 6848 5
6847 6947 4
6847 6846 3
6848 6748 1
6848 6849 2
6848 6948 2
6848 6847 2
6849 6749 5
6849 6850 4
6849 6949 5
6849 6848 4
6850 6750 1
6850 6851 5
6850 6950 2
6850 6849 3
6851 6751 4
6851 6852 1
6851 6951 1
6851 6850 4
6852 6752 1
6852 6853 2
6852 6952 4
6852 6851 2
6853 6753 1
6853 6854 5
6853 6953 3
6853 6852 3
6854 6754 2
6854 6855 2
6854 6954 5
6854 6853 4
6855 6755 1
6855 6856 2
6855 6955 1
6855 6854 3
6856 6756 1
6856 6857 5
6856 6956 5
6856 6855 5
6857 6757 2
6857 6858 1
6857 6957 5
6857 6856 3
6858 6758 1
6858 6859 2
6858 6958 3
6858 6857 5
6859 6759 1
6859 6860 5
6859 6959 4
6859 6858 1
6860 6760 5
6860 6861 4
6860 6960 5
6860 6859 4
6861 6761 5
6861 6862 4
6861 6961 2
6861 6860 3
6862 6762 3
6862 6863 2
6862 6962 5
6862 6861 3
6863 6763 1
6863 6864 2
6863 6963 3
6863 6862 4
6864 6764 5
6864 6865 3
6864 6964 5
6864 6863 1
6865 6765 3
6865 6866 3
6865 6965 1
6865 6864 4
6866 6766 2
6866 6867 3
6866 6966 4
6866 6865 4
6867 6767 3
6867 6868 5
6867 6967 1
6867 6866 5
6868 6768 3
6868 6869 4
6868 6968 2
6868 6867 5
6869 6769 3
6869 6870 1
6869 6969 3
6869 6868 5
6870 6770 5
6870 6871 1
6870 6970 2
6870 6869 4
6871 6771 1
6871 6872 2
6871 6971 5
6871 6870 3
6872 6772 3
6872 6873 2
6872 6972 1
6872 6871 2
6873 6773 1
6873 6874 3
6873 6973 5
6873 6872 5
6874 6774 2
6874 6875 3
6874 6974 5
6874 6873 3
6875 6775 5
6875 6876 1
6875 6975 4
6875 6874 2
6876 6776 3
6876 6877 2
6876 6976 1
6876 6875 2
6877 6777 1
6877 6878 5
6877 6977 4
6877 6876 4
6878 6778 4
6878 6879 3
6878 6978 5
6878 6877 4
6879 6779 4
6879 6880 3
6879 6979 5
6879 6878 3
6880 6780 1
6880 6881 3
6880 6980 1
6880 6879 5
6881 6781 4
6881 6882 3
6881 6981 5
6881 6880 2
6882 6782 2
6882 6883 1
6882 6982 5
6882 6881 5
6883 6783 2
6883 6884 5
6883 6983 3
6883 6882 5
6884 6784 4
6884 6885 5
6884 6984 3
6884 6883 1
6885 6785 5
6885 6886 4
6885 6985 2
6885 6884 2
6886 6786 2
6886 6887 2
6886 6986 4
6886 6885 1
6887 6787 3
6887 6888 5
6887 6987 4
6887 6886 5
6888 6788 3
6888 6889 2
6888 6988 4
6888 6887 4
6889 6789 4
6889 6890 3
6889 6989 5
6889 6888 2
6890 6790 1
6890 6891 4
6890 6990 2
6890 6889 1
6891 6791 4
6891 6892 4
6891 6991 2
6891 6890 5
6892 6792 2
6892 6893 1
6892 6992 3
6892 6891 1
6893 6793 5
6893 6894 1
6893 6993 4
6893 6892 5
6894 6794 5
6894 6895 2
6894 6994 3
6894 6893 2
6895 6795 4
6895 6896 3
6895 6995 3
6895 6894 5
6896 6796 3
6896 6897 4
6896 6996 5
6896 6895 5
6897 6797 5
6897 6898 1
6897 6997 4
6897 6896 2
6898 6798 2
6898 6899 2
6898 6998 4
6898 6897 2
6899 6799 2
6899 6999 4
6899 6898 1
6900 6800 4
6900 6901 5
6900 7000 5
6901 6801 5
6901 6902 1
6901 7001 2
6901 6900 2
6902 6802 2
6902 6903 4
6902 7002 5
6902 6901 1
6903 6803 1
6903 6904 4
6903 7003 3
6903 6902 3
6904 6804 5
6904 6905 4
6904 7004 1
6904 6903 5
6905 6805 3
6905 6906 4
6905 7005 4
6905 6904 5
6906 6806 3
6906 6907 3
6906 7006 1
6906 6905 4
6907 6807 4
6907 6908 4
6907 7007 3
6907 6906 3
6908 6808 2
6908 6909 5
6908 7008 5
6908 6907 1
6909 6809 5
6909 6910 5
6909 7009 5
6909 6908 1
6910 6810 4
6910 6911 2
6910 7010 4
6910 6909 5
6911 6811 1
6911 6912 3
6911 7011 5
6911 6910 1
6912 6812 3
6912 6913 4
6912 7012 5
6912 6911 1
6913 6813 5
6913 6914 5
6913 7013 3
6913 6912 3
6914 6814 5
6914 6915 5
6914 7014 4
6914 6913 2
6915 6815 4
6915 6916 5
6915 7015 2
6915 6914 5
6916 6816 3
6916 6917 5
6916 7016 5
6916 6915 4
6917 6817 4
6917 6918 2
6917 7017 5
6917 6916 1
6918 6818 2
6918 6919 1
6918 7018 4
6918 6917 4
6919 6819 1
6919 6920 2
6919 7019 2
6919 6918 5
6920 6820 4
6920 6921 1
6920 7020 2
6920 6919 1
6921 6821 5
6921 6922 1
6921 7021 3
6921 6920 1
6922 6822 5
6922 6923 5
6922 7022 1
6922 6921 2
6923 6823 5
6923 6924 5
6923 7023 5
6923 6922 4
6924 6824 1
6924 6925 5
6924 7024 2
6924 6923 1
6925 6825 4
6925 6926 1
6925 7025 4
6925 6924 4
6926 6826 5
6926 6927 1
6926 7026 1
6926 6925 1
6927 6827 4
6927 6928 5
6927 7027 2
6927 6926 2
6928 6828 4
6928 6929 2
6928 7028 5
6928 6927 5
6929 6829 2
6929 6930 4
6929 7029 5
6929 6928 5
6930 6830 2
6930 6931 2
6930 7030 3
6930 6929 5
6931 6831 4
6931 6932 3
6931 7031 5
6931 6930 4
6932 6832 1
6932 6933 2
6932 7032 3
6932 6931 1
6933 6833 4
6933 6934 4
6933 7033 3
6933 6932 4
6934 6834 5
6934 6935 5
6934 7034 4
6934 6933 5
6935 6835 2
6935 6936 2
6935 7035 3
6935 6934 3
6936 6836 4
6936 6937 1
6936 7036 4
6936 6935 4
6937 6837 2
6937 6938 1
6937 7037 2
6937 6936 2
6938 6838 1
6938 6939 3
6938 7038 3
6938 6937 3
6939 6839 1
6939 6940 3
6939 7039 4
6939 6938 1
6940 6840 3
6940 6941 2
6940 7040 1
6940 6939 5
6941 6841 4
6941 6942 5
6941 7041 5
6941 6940 2
6942 6842 5
6942 6943 3
6942 7042 3
6942 6941 3
6943 6843 1
6943 6944 3
6943 7043 3
6943 6942 5
6944 6844 5
6944 6945 2
6944 7044 1
6944 6943 1
6945 6845 3
6945 6946 1
6945 7045 3
6945 6944 4
6946 6846 1
6946 6947 1
6946 7046 2
6946 6945 2
6947 6847 3
6947 6948 1
6947 7047 2
6947 6946 4
6948 6848 5
6948 6949 4
6948 7048 1
6948 6947 3
6949 6849 4
6949 6950 5
6949 7049 5
6949 6948 1
6950 6850 1
6950 6951 5
6950 7050 4
6950 6949 4
6951 6851 5
6951 6952 4
6951 7051 5
6951 6950 1
6952 6852 2
6952 6953 2
6952 7052 3
6952 6951 3
6953 6853 3
6953 6954 4
6953 7053 5
6953 6952 3
6954 6854 3
6954 6955 4
6954 7054 4
6954 6953 5
6955 6855 3
6955 6956 1
6955 7055 2
6955 6954 4
6956 6856 4
6956 6957 3
6956 7056 1
6956 6955 1
6957 6857 4
6957 6958 2
6957 7057 2
6957 6956 5
6958 6858 3
6958 6959 4
6958 7058 2
6958 6957 4
6959 6859 5
6959 6960 2
6959 7059 1
6959 6958 3
6960 6860 5
6960 6961 4
6960 7060 3
6960 6959 4
6961 6861 2
6961 6962 5
6961 7061 2
6961 6960 4
6962 6862 2
6962 6963 1
6962 7062 5
6962 6961 4
6963 6863 5
6963 6964 2
6963 7063 1
6963 6962 2
6964 6864 5
6964 6965 1
6964 7064 3
6964 6963 5
6965 6865 3
6965 6966 3
6965 7065 2
6965 6964 2
6966 6866 2
6966 6967 2
6966 7066 3
6966 6965 1
6967 6867 4
6967 6968 3
6967 7067 1
6967 6966 5
6968 6868 3
6968 6969 3
6968 7068 5
6968 6967 2
6969 6869 5
6969 6970 4
6969 7069 4
6969 6968 1
6970 6870 4
6970 6971 2
6970 7070 3
6970 6969 3
6971 6871 4
6971 6972 4
6971 7071 3
6971 6970 4
6972 6872 2
6972 6973 1
6972 7072 3
6972 6971 5
6973 6873 3
6973 6974 5
6973 7073 3
6973 6972 1
6974 6874 4
6974 6975 3
6974 7074 5
6974 6973 1
6975 6875 4
6975 6976 1
6975 7075 4
6975 6974 1
6976 6876 3
6976 6977 1
6976 7076 2
6976 6975 2
6977 6877 1
6977 6978 5
6977 7077 1
6977 6976 4
6978 6878 5
6978 6979 5
6978 7078 1
6978 6977 3
6979 6879 1
6979 6980 2
6979 7079 3
6979 6978 3
6980 6880 4
6980 6981 4
6980 7080 1
6980 6979 5
6981 6881 3
6981 6982 5
6981 7081 2
6981 6980 4
6982 6882 4
6982 6983 3
6982 7082 1
6982 6981 2
6983 6883 5
6983 6984 2
6983 7083 5
6983 6982 4
6984 6884 3
6984 6985 2
6984 7084 2
6984 6983 1
6985 6885 2
6985 6986 4
6985 7085 3
6985 6984 1
6986 6886 5
6986 6987 5
6986 7086 4
6986 6985 2
6987 6887 1
6987 6988 5
6987 7087 2
6987 6986 4
6988 6888 4
6988 6989 4
6988 7088 4
6988 6987 1
6989 6889 5
6989 6990 4
6989 7089 4
6989 6988 4
6990 6890 4
6990 6991 1
6990 7090 1
6990 6989 2
6991 6891 3
6991 6992 4
6991 7091 2
6991 6990 3
6992 6892 2
6992 6993 1
6992 7092 2
6992 6991 2
6993 6893 2
6993 6994 2
6993 7093 3
6993 6992 5
6994 6894 5
6994 6995 5
6994 7094 1
6994 6993 1
6995 6895 2
6995 6996 4
6995 7095 4
6995 6994 5
6996 6896 2
6996 6997 4
6996 7096 4
6996 6995 3
6997 6897 5
6997 6998 1
6997 7097 1
6997 6996 4
6998 6898 4
6998 6999 5
6998 7098 1
6998 6997 3
6999 6899 2
6999 7099 3
6999 6998 3
7000 6900 4
7000 7001 1
7000 7100 3
7001 6901 3
7001 7002 1
7001 7101 5
7001 7000 2
7002 6902 2
7002 7003 2
7002 7102 3
7002 7001 1
7003 6903 4
7003 7004 3
7003 7103 4
7003 7002 3
7004 6904 4
7004 7005 3
7004 7104 2
7004 7003 4
7005 6905 1
7005 7006 1
7005 7105 5
7005 7004 4
7006 6906 2
7006 7007 4
7006 7106 2
7006 7005 4
7007 6907 2
7007 7008 1
7007 7107 5
7007 7006 5
7008 6908 3
7008 7009 4
7008 7108 5
7008 7007 3
7009 6909 3
7009 7010 5
7009 7109 2
7009 7008 2
7010 6910 4
7010 7011 4
7010 7110 4
7010 7009 3
7011 6911 1
7011 7012 3
7011 7111 5
7011 7010 1
7012 6912 1
7012 7013 2
7012 7112 5
7012 7011 3
7013 6913 1
7013 7014 2
7013 7113 3
7013 7012 3
7014 6914 1
7014 7015 2
7014 7114 3
7014 7013 3
7015 6915 3
7015 7016 5
7015 7115 4
7015 7014 4
7016 6916 2
7016 7017 2
7016 7116 5
7016 7015 5
7017 6917 2
7017 7018 5
7017 7117 1
7017 7016 3
7018 6918 4
7018 7019 2
7018 7118 2
7018 7017 1
7019 6919 3
7019 7020 3
7019 7119 3
7019 7018 4
7020 6920 1
7020 7021 3
7020 7120 4
7020 7019 3
7021 6921 5
7021 7022 2
7021 7121 2
7021 7020 3
7022 6922 1
7022 7023 1
7022 7122 3
7022 7021 5
7023 6923 4
7023 7024 5
7023 7123 5
7023 7022 4
7024 6924 5
7024 7025 3
7024 7124 2
7024 7023 1
7025 6925 2
7025 7026 1
7025 7125 3
7025 7024 1
7026 6926 5
7026 7027 3
7026 7126 3
7026 7025 2
7027 6927 4
7027 7028 4
7027 7127 4
7027 7026 4
7028 6928 1
7028 7029 5
7028 7128 2
7028 7027 1
7029 6929 5
7029 7030 3
7029 7129 5
7029 7028 1
7030 6930 1
7030 7031 1
7030 7130 5
7030 7029 4
7031 6931 2
7031 7032 1
7031 7131 3
7031 7030 2
7032 6932 5
7032 7033 1
7032 7132 3
7032 7031 1
7033 6933 1
7033 7034 3
7033 7133 2
7033 7032 4
7034 6934 4
7034 7035 5
7034 7134 4
7034 7033 2
7035 6935 1
7035 7036 1
7035 7135 4
7035 7034 5
7036 6936 1
7036 7037 5
7036 7136 4
7036 7035 1
7037 6937 1
7037 7038 5
7037 7137 4
7037 7036 5
7038 6938 3
7038 7039 4
7038 7138 3
7038 7037 2
7039 6939 3
7039 7040 4
7039 7139 1
7039 7038 4
7040 6940 5
7040 7041 1
7040 7140 2
7040 7039 4
7041 6941 5
7041 7042 2
7041 7141 2
7041 7040 1
7042 6942 3
7042 7043 3
7042 7142 2
7042 7041 2
7043 6943 1
7043 7044 4
7043 7143 1
7043 7042 1
7044 6944 2
7044 7045 2
7044 7144 1
7044 7043 2
7045 6945 5
7045 7046 4
7045 7145 3
7045 7044 3
7046 6946 1
7046 7047 3
7046 7146 2
7046 7045 2
7047 6947 3
7047 7048 1
7047 7147 1
7047 7046 3
7048 6948 2
7048 7049 1
7048 7148 4
7048 7047 4
7049 6949 4
7049 7050 1
7049 7149 1
7049 7048 3
7050 6950 1
7050 7051 3
7050 7150 3
7050 7049 5
7051 6951 5
7051 7052 2
7051 7151 1
7051 7050 1
7052 6952 4
7052 7053 4
7052 7152 2
7052 7051 2
7053 6953 5
7053 7054 2
7053 7153 2
7053 7052 2
7054 6954 2
7054 7055 3
7054 7154 1
7054 7053 1
7055 6955 3
7055 7056 2
7055 7155 5
7055 7054 2
7056 6956 2
7056 7057 2
7056 7156 1
7056 7055 3
7057 6957 4
7057 7058 2
7057 7157 1
7057 7056 1
7058 6958 5
7058 7059 1
7058 7158 1
7058 7057 1
7059 6959 2
7059 7060 3
7059 7159 5
7059 7058 3
7060 6960 2
7060 7061 2
7060 7160 5
7060 7059 1
7061 6961 2
7061 7062 2
7061 7161 2
7061 7060 3
7062 6962 2
7062 7063 5
7062 7162 4
7062 7061 1
7063 6963 2
7063 7064 2
7063 7163 2
7063 7062 5
7064 6964 3
7064 7065 3
7064 7164 4
7064 7063 3
7065 6965 3
7065 7066 2
7065 7165 2
7065 7064 3
7066 6966 2
7066 7067 5
7066 7166 4
7066 7065 3
7067 6967 3
7067 7068 5
7067 7167 4
7067 7066 4
7068 6968 1
7068 7069 2
7068 7168 3
7068 7067 5
7069 6969 5
7069 7070 4
7069 7169 4
7069 7068 2
7070 6970 3
7070 7071 2
7070 7170 1
7070 7069 5
7071 6971 3
7071 7072 2
7071 7171 4
7071 7070 4
7072 6972 4
7072 7073 2
7072 7172 3
7072 7071 5
7073 6973 5
7073 7074 3
7073 7173 2
7073 7072 5
7074 6974 4
7074 7075 2
7074 7174 3
7074 7073 4
7075 6975 1
7075 7076 3
7075 7175 2
7075 7074 4
7076 6976 4
7076 7077 3
7076 7176 3
7076 7075 5
7077 6977 1
7077 7078 3
7077 7177 4
7077 7076 4
7078 6978 2
7078 7079 3
7078 7178 2
7078 7077 5
7079 6979 1
7079 7080 5
7079 7179 4
7079 7078 4
7080 6980 3
7080 7081 1
7080 7180 3
7080 7079 4
7081 6981 3
7081 7082 2
7081 7181 2
7081 7080 4
7082 6982 5
7082 7083 3
7082 7182 2
7082 7081 3
7083 6983 4
7083 7084 3
7083 7183 4
7083 7082 4
7084 6984 3
7084 7085 2
7084 7184 3
7084 7083 2
7085 6985 5
7085 7086 5
7085 7185 4
7085 7084 2
7086 6986 5
7086 7087 5
7086 7186 3
7086 7085 2
7087 6987 2
7087 7088 3
7087 7187 2
7087 7086 4
7088 6988 4
7088 7089 5
7088 7188 2
7088 7087 3
7089 6989 1
7089 7090 3
7089 7189 4
7089 7088 1
7090 6990 2
7090 7091 4
7090 7190 4
7090 7089 2
7091 6991 5
7091 7092 2
7091 7191 3
7091 7090 3
7092 6992 2
7092 7093 3
7092 7192 4
7092 7091 5
7093 6993 3
7093 7094 5
7093 7193 4
7093 7092 2
7094 6994 5
7094 7095 1
7094 7194 4
7094 7093 1
7095 6995 4
7095 7096 5
7095 7195 2
7095 7094 3
7096 6996 5
7096 7097 4
7096 7196 5
7096 7095 2
7097 6997 5
7097 7098 5
7097 7197 5
7097 7096 1
7098 6998 4
7098 7099 1
7098 7198 3
7098 7097 2
7099 6999 5
7099 7199 1
7099 7098 1
7100 7000 4
7100 7101 5
7100 7200 2
7101 7001 4
7101 7102 1
7101 7201 1
7101 7100 2
7102 7002 1
7102 7103 4
7102 7202 2
7102 7101 4
7103 7003 2
7103 7104 4
7103 7203 1
7103 7102 4
7104 7004 2
7104 7105 1
7104 7204 1
7104 7103 3
7105 7005 5
7105 7106 5
7105 7205 4
7105 7104 4
7106 7006 5
7106 7107 1
7106 7206 5
7106 7105 2
7107 7007 4
7107 7108 3
7107 7207 5
7107 7106 2
7108 7008 1
7108 7109 2
7108 7208 1
7108 7107 3
7109 7009 4
7109 7110 2
7109 7209 5
7109 7108 3
7110 7010 4
7110 7111 4
7110 7210 2
7110 7109 3
7111 7011 3
7111 7112 2
7111 7211 5
7111 7110 2
7112 7012 4
7112 7113 3
7112 7212 3
7112 7111 4
7113 7013 2
7113 7114 2
7113 7213 5
7113 7112 1
7114 7014 4
7114 7115 2
7114 7214 5
7114 7113 5
7115 7015 3
7115 7116 1
7115 7215 2
7115 7114 4
7116 7016 5
7116 7117 3
7116 7216 5
7116 7115 1
7117 7017 1
7117 7118 2
7117 7217 4
7117 7116 4
7118 7018 3
7118 7119 5
7118 7218 4
7118 7117 1
7119 7019 5
7119 7120 4
7119 7219 4
7119 7118 1
7120 7020 4
7120 7121 5
7120 7220 2
7120 7119 2
7121 7021 3
7121 7122 2
7121 7221 5
7121 7120 1
7122 7022 1
7122 7123 1
7122 7222 4
7122 7121 1
7123 7023 2
7123 7124 3
7123 7223 5
7123 7122 1
7124 7024 1
7124 7125 4
7124 7224 2
7124 7123 5
7125 7025 5
7125 7126 3
7125 7225 5
7125 7124 1
7126 7026 1
7126 7127 2
7126 7226 2
7126 7125 2
7127 7027 3
7127 7128 3
7127 7227 2
7127 7126 4
7128 7028 4
7128 7129 4
7128 7228 2
7128 7127 3
7129 7029 5
7129 7130 1
7129 7229 3
7129 7128 1
7130 7030 5
7130 7131 5
7130 7230 3
7130 7129 1
7131 7031 1
7131 7132 1
7131 7231 4
7131 7130 4
7132 7032 5
7132 7133 2
7132 7232 1
7132 7131 1
7133 7033 3
7133 7134 5
7133 7233 1
7133 7132 1
7134 7034 4
7134 7135 1
7134 7234 3
7134 7133 5
7135 7035 5
7135 7136 1
7135 7235 1
7135 7134 1
7136 7036 3
7136 7137 2
7136 7236 1
7136 7135 2
7137 7037 5
7137 7138 5
7137 7237 4
7137 7136 4
7138 7038 1
7138 7139 4
7138 7238 5
7138 7137 1
7139 7039 1
7139 7140 5
7139 7239 5
7139 7138 1
7140 7040 2
7140 7141 3
7140 7240 2
7140 7139 1
7141 7041 2
7141 7142 3
7141 7241 5
7141 7140 3
7142 7042 3
7142 7143 5
7142 7242 3
7142 7141 2
7143 7043 1
7143 7144 2
7143 7243 3
7143 7142 2
7144 7044 1
7144 7145 4
7144 7244 1
7144 7143 4
7145 7045 5
7145 7146 1
7145 7245 4
7145 7144 5
7146 7046 1
7146 7147 2
7146 7246 5
7146 7145 4
7147 7047 1
7147 7148 1
7147 7247 3
7147 7146 4
7148 7048 1
7148 7149 1
7148 7248 4
7148 7147 1
7149 7049 2
7149 7150 2
7149 7249 1
7149 7148 5
7150 7050 3
7150 7151 1
7150 7250 2
7150 7149 3
7151 7051 4
7151 7152 1
7151 7251 2
7151 7150 5
7152 7052 5
7152 7153 1
7152 7252 3
7152 7151 1
7153 7053 1
7153 7154 2
7153 7253 5
7153 7152 4
7154 7054 3
7154 7155 3
7154 7254 2
7154 7153 4
7155 7055 1
7155 7156 5
7155 7255 2
7155 7154 4
7156 7056 4
7156 7157 5
7156 7256 3
7156 7155 4
7157 7057 4
7157 7158 3
7157 7257 4
7157 7156 2
7158 7058 5
7158 7159 1
7158 7258 2
7158 7157 5
7159 7059 1
7159 7160 1
7159 7259 4
7159 7158 3
7160 7060 5
7160 7161 1
7160 7260 4
7160 7159 1
7161 7061 5
7161 7162 3
7161 7261 2
7161 7160 2
7162 7062 2
7162 7163 1
7162 7262 3
7162 7161 3
7163 7063 1
7163 7164 1
7163 7263 2
7163 7162 1
7164 7064 3
7164 7165 2
7164 7264 3
7164 7163 1
7165 7065 4
7165 7166 5
7165 7265 4
7165 7164 2
7166 7066 4
7166 7167 1
7166 7266 4
7166 7165 5
7167 7067 3
7167 7168 3
7167 7267 3
7167 7166 2
7168 7068 3
7168 7169 2
7168 7268 4
7168 7167 3
7169 7069 1
7169 7170 1
7169 7269 2
7169 7168 3
7170 7070 3
7170 7171 4
7170 7270 1
7170 7169 4
7171 7071 5
7171 7172 5
7171 7271 5
7171 7170 5
7172 7072 3
7172 7173 5
7172 7272 5
7172 7171 3
7173 7073 4
7173 7174 4
7173 7273 5
7173 7172 3
7174 7074 5
7174 7175 5
7174 7274 5
7174 7173 2
7175 7075 1
7175 7176 1
7175 7275 3
7175 7174 1
7176 7076 5
7176 7177 3
7176 7276 4
7176 7175 4
7177 7077 3
7177 7178 4
7177 7277 2
7177 7176 3
7178 7078 3
7178 7179 5
7178 7278 3
7178 7177 2
7179 7079 2
7179 7180 4
7179 7279 1
7179 7178 4
7180 7080 2
7180 7181 4
7180 7280 4
7180 7179 2
7181 7081 3
7181 7182 4
7181 7281 3
7181 7180 1
7182 7082 3
7182 7183 4
7182 7282 1
7182 7181 4
7183 7083 1
7183 7184 1
7183 7283 1
7183 7182 3
7184 7084 3
7184 7185 1
7184 7284 2
7184 7183 1
7185 7085 4
7185 7186 5
7185 7285 4
7185 7184 2
7186 7086 3
7186 7187 1
7186 7286 5
7186 7185 4
7187 7087 1
7187 7188 1
7187 7287 1
7187 7186 4
7188 7088 4
7188 7189 5
7188 7288 5
7188 7187 1
7189 7089 3
7189 7190 1
7189 7289 4
7189 7188 2
7190 7090 5
7190 7191 2
7190 7290 1
7190 7189 4
7191 7091 4
7191 7192 2
7191 7291 2
7191 7190 5
7192 7092 1
7192 7193 1
7192 7292 3
7192 7191 2
7193 7093 2
7193 7194 2
7193 7293 2
7193 7192 5
7194 7094 2
7194 7195 2
7194 7294 2
7194 7193 5
7195 7095 2
7195 7196 3
7195 7295 1
7195 7194 5
7196 7096 3
7196 7197 4
7196 7296 3
7196 7195 2
7197 7097 5
7197 7198 2
7197 7297 3
7197 7196 5
7198 7098 5
7198 7199 5
7198 7298 3
7198 7197 1
7199 7099 1
7199 7299 3
7199 7198 1
7200 7100 1
7200 7201 5
7200 7300 3
7201 7101 4
7201 7202 5
7201 7301 1
7201 7200 2
7202 7102 3
7202 7203 1
7202 7302 1
7202 7201 2
7203 7103 3
7203 7204 1
7203 7303 3
7203 7202 2
7204 7104 3
7204 7205 4
7204 7304 2
7204 7203 2
7205 7105 5
7205 7206 5
7205 7305 2
7205 7204 1
7206 7106 4
7206 7207 3
7206 7306 1
7206 7205 3
7207 7107 4
7207 7208 5
7207 7307 1
7207 7206 5
7208 7108 4
7208 7209 5
7208 7308 2
7208 7207 1
7209 7109 2
7209 7210 5
7209 7309 1
7209 7208 1
7210 7110 1
7210 7211 3
7210 7310 1
7210 7209 5
7211 7111 3
7211 7212 3
7211 7311 2
7211 7210 3
7212 7112 1
7212 7213 5
7212 7312 3
7212 7211 2
7213 7113 5
7213 7214 1
7213 7313 3
7213 7212 3
7214 7114 4
7214 7215 5
7214 7314 4
7214 7213 4
7215 7115 3
7215 7216 2
7215 7315 5
7215 7214 1
7216 7116 2
7216 7217 1
7216 7316 5
7216 7215 5
7217 7117 5
7217 7218 2
7217 7317 1
7217 7216 4
7218 7118 2
7218 7219 3
7218 7318 4
7218 7217 5
7219 7119 1
7219 7220 2
7219 7319 4
7219 7218 5
7220 7120 5
7220 7221 1
7220 7320 2
7220 7219 1
7221 7121 2
7221 7222 5
7221 7321 4
7221 7220 3
7222 7122 2
7222 7223 4
7222 7322 5
7222 7221 5
7223 7123 1
7223 7224 3
7223 7323 3
7223 7222 5
7224 7124 3
7224 7225 3
7224 7324 4
7224 7223 3
7225 7125 5
7225 7226 5
7225 7325 3
7225 7224 1
7226 7126 5
7226 7227 3
7226 7326 2
7226 7225 5
7227 7127 1
7227 7228 4
7227 7327 5
7227 7226 4
7228 7128 5
7228 7229 1
7228 7328 3
7228 7227 3
7229 7129 2
7229 7230 5
7229 7329 5
7229 7228 5
7230 7130 4
7230 7231 1
7230 7330 4
7230 7229 1
7231 7131 1
7231 7232 4
7231 7331 3
7231 7230 4
7232 7132 4
7232 7233 2
7232 7332 2
7232 7231 4
7233 7133 3
7233 7234 3
7233 7333 4
7233 7232 1
7234 7134 1
7234 7235 4
7234 7334 3
7234 7233 2
7235 7135 4
7235 7236 4
7235 7335 1
7235 7234 2
7236 7136 4
7236 7237 5
7236 7336 1
7236 7235 3
7237 7137 5
7237 7238 5
7237 7337 1
7237 7236 2
7238 7138 3
7238 7239 2
7238 7338 1
7238 7237 5
7239 7139 3
7239 7240 2
7239 7339 4
7239 7238 4
7240 7140 5
7240 7241 5
7240 7340 2
7240 7239 5
7241 7141 4
7241 7242 3
7241 7341 3
7241 7240 3
7242 7142 4
7242 7243 4
7242 7342 2
7242 7241 3
7243 7143 1
7243 7244 5
7243 7343 3
7243 7242 2
7244 7144 2
7244 7245 2
7244 7344 3
7244 7243 2
7245 7145 2
7245 7246 3
7245 7345 5
7245 7244 1
7246 7146 1
7246 7247 3
7246 7346 1
7246 7245 4
7247 7147 2
7247 7248 3
7247 7347 1
7247 7246 3
7248 7148 3
7248 7249 2
7248 7348 4
7248 7247 5
7249 7149 1
7249 7250 3
7249 7349 5
7249 7248 3
7250 7150 3
7250 7251 4
7250 7350 3
7250 7249 5
7251 7151 1
7251 7252 4
7251 7351 2
7251 7250 4
7252 7152 5
7252 7253 4
7252 7352 1
7252 7251 2
7253 7153 3
7253 7254 2
7253 7353 3
7253 7252 4
7254 7154 1
7254 7255 2
7254 7354 2
7254 7253 2
7255 7155 2
7255 7256 5
7255 7355 3
7255 7254 5
7256 7156 3
7256 7257 3
7256 7356 2
7256 7255 2
7257 7157 1
7257 7258 3
7257 7357 5
7257 7256 2
7258 7158 5
7258 7259 4
7258 7358 2
7258 7257 1
7259 7159 3
7259 7260 1
7259 7359 2
7259 7258 5
7260 7160 4
7260 7261 4
7260 7360 2
7260 7259 5
7261 7161 5
7261 7262 1
7261 7361 4
7261 7260 2
7262 7162 1
7262 7263 4
7262 7362 3
7262 7261 2
7263 7163 5
7263 7264 2
7263 7363 2
7263 7262 1
7264 7164 3
7264 7265 1
7264 7364 4
7264 7263 4
7265 7165 5
7265 7266 2
7265 7365 1
7265 7264 3
7266 7166 2
7266 7267 5
7266 7366 2
7266 7265 4
7267 7167 4
7267 7268 5
7267 7367 2
7267 7266 4
7268 7168 1
7268 7269 4
7268 7368 2
7268 7267 2
7269 7169 3
7269 7270 1
7269 7369 2
7269 7268 1
7270 7170 2
7270 7271 5
7270 7370 2
7270 7269 5
7271 7171 1
7271 7272 3
7271 7371 5
7271 7270 3
7272 7172 1
7272 7273 2
7272 7372 2
7272 7271 1
7273 7173 4
7273 7274 1
7273 7373 5
7273 7272 1
7274 7174 1
7274 7275 5
7274 7374 2
7274 7273 2
7275 7175 2
7275 7276 3
7275 7375 5
7275 7274 2
7276 7176 4
7276 7277 5
7276 7376 4
7276 7275 1
7277 7177 5
7277 7278 1
7277 7377 1
7277 7276 1
7278 7178 1
7278 7279 2
7278 7378 5
7278 7277 3
7279 7179 4
7279 7280 1
7279 7379 4
7279 7278 2
7280 7180 2
7280 7281 3
7280 7380 4
7280 7279 3
7281 7181 4
7281 7282 1
7281 7381 5
7281 7280 3
7282 7182 3
7282 7283 5
7282 7382 3
7282 7281 1
7283 7183 4
7283 7284 5
7283 7383 5
7283 7282 2
7284 7184 2
7284 7285 1
7284 7384 3
7284 7283 3
7285 7185 2
7285 7286 2
7285 7385 2
7285 7284 1
7286 7186 4
7286 7287 4
7286 7386 4
7286 7285 5
7287 7187 1
7287 7288 3
7287 7387 3
7287 7286 4
7288 7188 3
7288 7289 4
7288 7388 3
7288 7287 2
7289 7189 4
7289 7290 1
7289 7389 1
7289 7288 5
7290 7190 3
7290 7291 3
7290 7390 2
7290 7289 5
7291 7191 1
7291 7292 1
7291 7391 4
7291 7290 4
7292 7192 4
7292 7293 4
7292 7392 4
7292 7291 3
7293 7193 1
7293 7294 3
7293 7393 2
7293 7292 4
7294 7194 4
7294 7295 1
7294 7394 2
7294 7293 1
7295 7195 5
7295 7296 2
7295 7395 5
7295 7294 1
7296 7196 3
7296 7297 4
7296 7396 5
7296 7295 1
7297 7197 4
7297 7298 1
7297 7397 5
7297 7296 1
7298 7198 2
7298 7299 2
7298 7398 2
7298 7297 1
7299 7199 1
7299 7399 4
7299 7298 4
7300 7200 5
7300 7301 4
7300 7400 1
7301 7201 4
7301 7302 4
7301 7401 4
7301 7300 2
7302 7202 3
7302 7303 2
7302 7402 2
7302 7301 2
7303 7203 2
7303 7304 4
7303 7403 1
7303 7302 5
7304 7204 3
7304 7305 5
7304 7404 2
7304 7303 1
7305 7205 2
7305 7306 4
7305 7405 5
7305 7304 3
7306 7206 5
7306 7307 3
7306 7406 4
7306 7305 2
7307 7207 4
7307 7308 1
7307 7407 1
7307 7306 3
7308 7208 2
7308 7309 5
7308 7408 3
7308 7307 2
7309 7209 1
7309 7310 1
7309 7409 1
7309 7308 2
7310 7210 4
7310 7311 3
7310 7410 2
7310 7309 5
7311 7211 5
7311 7312 5
7311 7411 2
7311 7310 2
7312 7212 1
7312 7313 2
7312 7412 2
7312 7311 3
7313 7213 4
7313 7314 3
7313 7413 5
7313 7312 5
7314 7214 4
7314 7315 4
7314 7414 5
7314 7313 2
7315 7215 2
7315 7316 4
7315 7415 5
7315 7314 3
7316 7216 1
7316 7317 4
7316 7416 5
7316 7315 2
7317 7217 4
7317 7318 4
7317 7417 3
7317 7316 5
7318 7218 1
7318 7319 3
7318 7418 2
7318 7317 5
7319 7219 2
7319 7320 1
7319 7419 1
7319 7318 1
7320 7220 3
7320 7321 1
7320 7420 4
7320 7319 3
7321 7221 2
7321 7322 4
7321 7421 4
7321 7320 3
7322 7222 2
7322 7323 4
7322 7422 4
7322 7321 2
7323 7223 3
7323 7324 1
7323 7423 2
7323 7322 4
7324 7224 2
7324 7325 3
7324 7424 3
7324 7323 3
7325 7225 2
7325 7326 2
7325 7425 4
7325 7324 3
7326 7226 4
7326 7327 3
7326 7426 4
7326 7325 5
7327 7227 4
7327 7328 4
7327 7427 3
7327 7326 5
7328 7228 4
7328 7329 5
7328 7428 3
7328 7327 5
7329 7229 4
7329 7330 2
7329 7429 2
7329 7328 3
7330 7230 5
7330 7331 3
7330 7430 3
7330 7329 1
7331 7231 1
7331 7332 3
7331 7431 4
7331 7330 2
7332 7232 3
7332 7333 1
7332 7432 4
7332 7331 5
7333 7233 2
7333 7334 5
7333 7433 4
7333 7332 3
7334 7234 4
7334 7335 5
7334 7434 3
7334 7333 1
7335 7235 2
7335 7336 1
7335 7435 4
7335 7334 2
7336 7236 4
7336 7337 4
7336 7436 4
7336 7335 2
7337 7237 5
7337 7338 2
7337 7437 3
7337 7336 1
7338 7238 5
7338 7339 4
7338 7438 5
7338 7337 2
7339 7239 3
7339 7340 3
7339 7439 2
7339 7338 1
7340 7240 2
7340 7341 5
7340 7440 1
7340 7339 3
7341 7241 4
7341 7342 3
7341 7441 1
7341 7340 2
7342 7242 2
7342 7343 2
7342 7442 3
7342 7341 4
7343 7243 4
7343 7344 5
7343 7443 1
7343 7342 3
7344 7244 3
7344 7345 4
7344 7444 5
7344 7343 4
7345 7245 2
7345 7346 3
7345 7445 1
7345 7344 5
7346 7246 3
7346 7347 1
7346 7446 4
7346 7345 1
7347 7247 2
7347 7348 2
7347 7447 5
7347 7346 5
7348 7248 2
7348 7349 1
7348 7448 3
7348 7347 4
7349 7249 5
7349 7350 2
7349 7449 2
7349 7348 2
7350 7250 4
7350 7351 2
7350 7450 1
7350 7349 5
7351 7251 3
7351 7352 3
7351 7451 1
7351 7350 4
7352 7252 4
7352 7353 4
7352 7452 4
7352 7351 1
7353 7253 4
7353 7354 2
7353 7453 4
7353 7352 2
7354 7254 2
7354 7355 5
7354 7454 4
7354 7353 2
7355 7255 1
7355 7356 1
7355 7455 1
7355 7354 2
7356 7256 2
7356 7357 1
7356 7456 1
7356 7355 5
7357 7257 3
7357 7358 5
7357 7457 3
7357 7356 2
7358 7258 4
7358 7359 3
7358 7458 5
7358 7357 2
7359 7259 2
7359 7360 2
7359 7459 4
7359 7358 4
7360 7260 5
7360 7361 4
7360 7460 1
7360 7359 5
7361 7261 2
7361 7362 5
7361 7461 5
7361 7360 4
7362 7262 4
7362 7363 1
7362 7462 2
7362 7361 4
7363 7263 1
7363 7364 3
7363 7463 3
7363 7362 5
7364 7264 3
7364 7365 4
7364 7464 5
7364 7363 2
7365 7265 1
7365 7366 5
7365 7465 3
7365 7364 4
7366 7266 3
7366 7367 5
7366 7466 1
7366 7365 1
7367 7267 2
7367 7368 2
7367 7467 3
7367 7366 5
7368 7268 3
7368 7369 1
7368 7468 5
7368 7367 2
7369 7269 3
7369 7370 1
7369 7469 1
7369 7368 1
7370 7270 1
7370 7371 3
7370 7470 3
7370 7369 4
7371 7271 1
7371 7372 4
7371 7471 3
7371 7370 5
7372 7272 1
7372 7373 5
7372 7472 1
7372 7371 2
7373 7273 5
7373 7374 5
7373 7473 5
7373 7372 1
7374 7274 3
7374 7375 3
7374 7474 1
7374 7373 1
7375 7275 3
7375 7376 1
7375 7475 3
7375 7374 2
7376 7276 1
7376 7377 3
7376 7476 4
7376 7375 4
7377 7277 5
7377 7378 3
7377 7477 1
7377 7376 2
7378 7278 3
7378 7379 2
7378 7478 5
7378 7377 1
7379 7279 3
7379 7380 5
7379 7479 2
7379 7378 4
7380 7280 3
7380 7381 4
7380 7480 3
7380 7379 3
7381 7281 5
7381 7382 1
7381 7481 2
7381 7380 1
7382 7282 5
7382 7383 1
7382 7482 1
7382 7381 4
7383 7283 5
7383 7384 3
7383 7483 4
7383 7382 3
7384 7284 4
7384 7385 1
7384 7484 4
7384 7383 4
7385 7285 5
7385 7386 3
7385 7485 1
7385 7384 1
7386 7286 5
7386 7387 1
7386 7486 2
7386 7385 4
7387 7287 1
7387 7388 4
7387 7487 5
7387 7386 5
7388 7288 5
7388 7389 2
7388 7488 4
7388 7387 1
7389 7289 4
7389 7390 1
7389 7489 1
7389 7388 3
7390 7290 5
7390 7391 4
7390 7490 4
7390 7389 5
7391 7291 4
7391 7392 1
7391 7491 1
7391 7390 5
7392 7292 5
7392 7393 4
7392 7492 4
7392 7391 4
7393 7293 3
7393 7394 5
7393 7493 5
7393 7392 2
7394 7294 2
7394 7395 2
7394 7494 4
7394 7393 1
7395 7295 4
7395 7396 1
7395 7495 3
7395 7394 1
7396 7296 3
7396 7397 5
7396 7496 2
7396 7395 3
7397 7297 2
7397 7398 3
7397 7497 3
7397 7396 5
7398 7298 1
7398 7399 5
7398 7498 3
7398 7397 4
7399 7299 3
7399 7499 4
7399 7398 2
7400 7300 5
7400 7401 3
7400 7500 2
7401 7301 3
7401 7402 2
7401 7501 2
7401 7400 5
7402 7302 5
7402 7403 5
7402 7502 2
7402 7401 3
7403 7303 2
7403 7404 4
7403 7503 4
7403 7402 2
7404 7304 1
7404 7405 4
7404 7504 4
7404 7403 3
7405 7305 5
7405 7406 1
7405 7505 1
7405 7404 3
7406 7306 5
7406 7407 3
7406 7506 4
7406 7405 4
7407 7307 5
7407 7408 4
7407 7507 5
7407 7406 2
7408 7308 1
7408 7409 2
7408 7508 1
7408 7407 2
7409 7309 5
7409 7410 3
7409 7509 2
7409 7408 2
7410 7310 4
7410 7411 2
7410 7510 4
7410 7409 4
7411 7311 4
7411 7412 5
7411 7511 5
7411 7410 2
7412 7312 3
7412 7413 3
7412 7512 1
7412 7411 3
7413 7313 1
7413 7414 2
7413 7513 3
7413 7412 2
7414 7314 5
7414 7415 3
7414 7514 3
7414 7413 4
7415 7315 1
7415 7416 2
7415 7515 1
7415 7414 5
7416 7316 4
7416 7417 2
7416 7516 1
7416 7415 5
7417 7317 5
7417 7418 4
7417 7517 2
7417 7416 1
7418 7318 4
7418 7419 2
7418 7518 5
7418 7417 2
7419 7319 4
7419 7420 4
7419 7519 4
7419 7418 4
7420 7320 1
7420 7421 1
7420 7520 5
7420 7419 3
7421 7321 2
7421 7422 3
7421 7521 2
7421 7420 4
7422 7322 5
7422 7423 4
7422 7522 2
7422 7421 1
7423 7323 5
7423 7424 1
7423 7523 1
7423 7422 4
7424 7324 1
7424 7425 2
7424 7524 1
7424 7423 1
7425 7325 2
7425 7426 3
7425 7525 2
7425 7424 2
7426 7326 3
7426 7427 3
7426 7526 4
7426 7425 2
7427 7327 1
7427 7428 3
7427 7527 4
7427 7426 4
7428 7328 4
7428 7429 1
7428 7528 5
7428 7427 4
7429 7329 1
7429 7430 5
7429 7529 5
7429 7428 4
7430 7330 1
7430 7431 4
7430 7530 3
7430 7429 5
7431 7331 4
7431 7432 3
7431 7531 4
7431 7430 4
7432 7332 4
7432 7433 4
7432 7532 3
7432 7431 1
7433 7333 5
7433 7434 5
7433 7533 4
7433 7432 5
7434 7334 2
7434 7435 2
7434 7534 3
7434 7433 3
7435 7335 1
7435 7436 1
7435 7535 5
7435 7434 3
7436 7336 2
7436 7437 2
7436 7536 3
7436 7435 2
7437 7337 4
7437 7438 3
7437 7537 2
7437 7436 4
7438 7338 5
7438 7439 2
7438 7538 2
7438 7437 2
7439 7339 1
7439 7440 5
7439 7539 1
7439 7438 3
7440 7340 2
7440 7441 5
7440 7540 1
7440 7439 4
7441 7341 1
7441 7442 3
7441 7541 3
7441 7440 4
7442 7342 2
7442 7443 4
7442 7542 1
7442 7441 1
7443 7343 3
7443 7444 4
7443 7543 5
7443 7442 1
7444 7344 1
7444 7445 3
7444 7544 1
7444 7443 1
7445 7345 1
7445 7446 1
7445 7545 4
7445 7444 2
7446 7346 4
7446 7447 1
7446 7546 1
7446 7445 5
7447 7347 1
7447 7448 2
7447 7547 4
7447 7446 3
7448 7348 5
7448 7449 5
7448 7548 2
7448 7447 3
7449 7349 4
7449 7450 3
7449 7549 5
7449 7448 4
7450 7350 5
7450 7451 2
7450 7550 2
7450 7449 3
7451 7351 3
7451 7452 5
7451 7551 5
7451 7450 2
7452 7352 3
7452 7453 4
7452 7552 1
7452 7451 5
7453 7353 2
7453 7454 1
7453 7553 3
7453 7452 5
7454 7354 4
7454 7455 4
7454 7554 5
7454 7453 1
7455 7355 3
7455 7456 4
7455 7555 2
7455 7454 5
7456 7356 4
7456 7457 4
7456 7556 3
7456 7455 2
7457 7357 2
7457 7458 1
7457 7557 2
7457 7456 1
7458 7358 4
7458 7459 2
7458 7558 4
7458 7457 4
7459 7359 3
7459 7460 2
7459 7559 5
7459 7458 2
7460 7360 3
7460 7461 4
7460 7560 5
7460 7459 3
7461 7361 3
7461 7462 5
7461 7561 2
7461 7460 4
7462 7362 2
7462 7463 3
7462 7562 1
7462 7461 1
7463 7363 1
7463 7464 2
7463 7563 1
7463 7462 5
7464 7364 4
7464 7465 1
7464 7564 1
7464 7463 3
7465 7365 4
7465 7466 1
7465 7565 3
7465 7464 1
7466 7366 5
7466 7467 1
7466 7566 5
7466 7465 3
7467 7367 3
7467 7468 2
7467 7567 2
7467 7466 4
7468 7368 1
7468 7469 4
7468 7568 2
7468 7467 1
7469 7369 2
7469 7470 2
7469 7569 3
7469 7468 4
7470 7370 2
7470 7471 4
7470 7570 5
7470 7469 2
7471 7371 1
7471 7472 1
7471 7571 1
7471 7470 1
7472 7372 1
7472 7473 5
7472 7572 1
7472 7471 5
7473 7373 5
7473 7474 5
7473 7573 2
7473 7472 1
7474 7374 5
7474 7475 4
7474 7574 5
7474 7473 1
7475 7375 1
7475 7476 3
7475 7575 5
7475 7474 1
7476 7376 2
7476 7477 5
7476 7576 2
7476 7475 3
7477 7377 3
7477 7478 1
7477 7577 3
7477 7476 5
7478 7378 5
7478 7479 2
7478 7578 5
7478 7477 1
7479 7379 5
7479 7480 2
7479 7579 1
7479 7478 3
7480 7380 2
7480 7481 4
7480 7580 4
7480 7479 4
7481 7381 1
7481 7482 2
7481 7581 4
7481 7480 4
7482 7382 2
7482 7483 5
7482 7582 1
7482 7481 5
7483 7383 1
7483 7484 2
7483 7583 2
7483 7482 4
7484 7384 5
7484 7485 1
7484 7584 3
7484 7483 5
7485 7385 3
7485 7486 4
7485 7585 3
7485 7484 4
7486 7386 1
7486 7487 3
7486 7586 2
7486 7485 1
7487 7387 1
7487 7488 1
7487 7587 3
7487 7486 5
7488 7388 2
7488 7489 2
7488 7588 1
7488 7487 5
7489 7389 4
7489 7490 4
7489 7589 2
7489 7488 5
7490 7390 4
7490 7491 5
7490 7590 5
7490 7489 3
7491 7391 2
7491 7492 1
7491 7591 5
7491 7490 5
7492 7392 1
7492 7493 3
7492 7592 2
7492 7491 4
7493 7393 5
7493 7494 2
7493 7593 4
7493 7492 4
7494 7394 3
7494 7495 1
7494 7594 1
7494 7493 4
7495 7395 4
7495 7496 4
7495 7595 4
7495 7494 1
7496 7396 5
7496 7497 4
7496 7596 4
7496 7495 4
7497 7397 2
7497 7498 5
7497 7597 5
7497 7496 2
7498 7398 4
7498 7499 2
7498 7598 4
7498 7497 5
7499 7399 5
7499 7599 3
7499 7498 1
7500 7400 1
7500 7501 4
7500 7600 2
7501 7401 4
7501 7502 4
7501 7601 2
7501 7500 5
7502 7402 2
7502 7503 2
7502 7602 4
7502 7501 4
7503 7403 4
7503 7504 4
7503 7603 5
7503 7502 5
7504 7404 1
7504 7505 5
7504 7604 2
7504 7503 4
7505 7405 4
7505 7506 1
7505 7605 4
7505 7504 3
7506 7406 2
7506 7507 2
7506 7606 5
7506 7505 5
7507 7407 5
7507 7508 5
7507 7607 1
7507 7506 4
7508 7408 3
7508 7509 5
7508 7608 5
7508 7507 2
7509 7409 3
7509 7510 5
7509 7609 5
7509 7508 1
7510 7410 2
7510 7511 3
7510 7610 3
7510 7509 5
7511 7411 4
7511 7512 4
7511 7611 4
7511 7510 2
7512 7412 4
7512 7513 3
7512 7612 5
7512 7511 4
7513 7413 4
7513 7514 3
7513 7613 1
7513 7512 5
7514 7414 2
7514 7515 5
7514 7614 3
7514 7513 5
7515 7415 1
7515 7516 3
7515 7615 1
7515 7514 1
7516 7416 3
7516 7517 1
7516 7616 4
7516 7515 1
7517 7417 4
7517 7518 3
7517 7617 4
7517 7516 5
7518 7418 5
7518 7519 2
7518 7618 5
7518 7517 1
7519 7419 2
7519 7520 5
7519 7619 3
7519 7518 4
7520 7420 3
7520 7521 1
7520 7620 5
7520 7519 5
7521 7421 4
7521 7522 1
7521 7621 1
7521 7520 3
7522 7422 5
7522 7523 4
7522 7622 1
7522 7521 1
7523 7423 3
7523 7524 1
7523 7623 1
7523 7522 5
7524 7424 2
7524 7525 3
7524 7624 3
7524 7523 5
7525 7425 2
7525 7526 5
7525 7625 4
7525 7524 5
7526 7426 4
7526 7527 3
7526 7626 4
7526 7525 1
7527 7427 2
7527 7528 1
7527 7627 2
7527 7526 5
7528 7428 2
7528 7529 1
7528 7628 1
7528 7527 1
7529 7429 2
7529 7530 3
7529 7629 1
7529 7528 1
7530 7430 5
7530 7531 4
7530 7630 1
7530 7529 4
7531 7431 3
7531 7532 2
7531 7631 5
7531 7530 1
7532 7432 4
7532 7533 5
7532 7632 3
7532 7531 2
7533 7433 2
7533 7534 2
7533 7633 2
7533 7532 2
7534 7434 4
7534 7535 5
7534 7634 2
7534 7533 1
7535 7435 5
7535 7536 1
7535 7635 4
7535 7534 2
7536 7436 1
7536 7537 1
7536 7636 4
7536 7535 2
7537 7437 1
7537 7538 2
7537 7637 3
7537 7536 2
7538 7438 4
7538 7539 4
7538 7638 2
7538 7537 3
7539 7439 5
7539 7540 4
7539 7639 3
7539 7538 2
7540 7440 4
7540 7541 3
7540 7640 1
7540 7539 3
7541 7441 4
7541 7542 1
7541 7641 3
7541 7540 3
7542 7442 4
7542 7543 5
7542 7642 3
7542 7541 4
7543 7443 4
7543 7544 3
7543 7643 1
7543 7542 4
7544 7444 5
7544 7545 4
7544 7644 2
7544 7543 3
7545 7445 3
7545 7546 3
7545 7645 3
7545 7544 2
7546 7446 3
7546 7547 3
7546 7646 1
7546 7545 3
7547 7447 4
7547 7548 4
7547 7647 5
7547 7546 5
7548 7448 4
7548 7549 3
7548 7648 5
7548 7547 2
7549 7449 3
7549 7550 5
7549 7649 2
7549 7548 3
7550 7450 5
7550 7551 2
7550 7650 3
7550 7549 5
7551 7451 4
7551 7552 2
7551 7651 4
7551 7550 4
7552 7452 2
7552 7553 4
7552 7652 4
7552 7551 3
7553 7453 5
7553 7554 3
7553 7653 2
7553 7552 2
7554 7454 1
7554 7555 4
7554 7654 4
7554 7553 3
7555 7455 5
7555 7556 4
7555 7655 1
7555 7554 5
7556 7456 5
7556 7557 3
7556 7656 2
7556 7555 2
7557 7457 4
7557 7558 5
7557 7657 5
7557 7556 2
7558 7458 3
7558 7559 3
7558 7658 2
7558 7557 4
7559 7459 5
7559 7560 3
7559 7659 5
7559 7558 1
7560 7460 3
7560 7561 1
7560 7660 3
7560 7559 3
7561 7461 1
7561 7562 3
7561 7661 1
7561 7560 5
7562 7462 2
7562 7563 5
7562 7662 3
7562 7561 4
7563 7463 4
7563 7564 2
7563 7663 1
7563 7562 1
7564 7464 4
7564 7565 2
7564 7664 3
7564 7563 2
7565 7465 5
7565 7566 2
7565 7665 5
7565 7564 1
7566 7466 4
7566 7567 4
7566 7666 2
7566 7565 4
7567 7467 2
7567 7568 5
7567 7667 3
7567 7566 3
7568 7468 3
7568 7569 1
7568 7668 2
7568 7567 5
7569 7469 1
7569 7570 1
7569 7669 4
7569 7568 2
7570 7470 3
7570 7571 5
7570 7670 3
7570 7569 1
7571 7471 3
7571 7572 1
7571 7671 2
7571 7570 1
7572 7472 3
7572 7573 3
7572 7672 1
7572 7571 2
7573 7473 5
7573 7574 1
7573 7673 3
7573 7572 2
7574 7474 3
7574 7575 2
7574 7674 1
7574 7573 2
7575 7475 4
7575 7576 5
7575 7675 3
7575 7574 2
7576 7476 2
7576 7577 4
7576 7676 5
7576 7575 3
7577 7477 2
7577 7578 1
7577 7677 1
7577 7576 1
7578 7478 2
7578 7579 2
7578 7678 3
7578 7577 5
7579 7479 1
7579 7580 3
7579 7679 2
7579 7578 4
7580 7480 3
7580 7581 2
7580 7680 4
7580 7579 3
7581 7481 2
7581 7582 5
7581 7681 4
7581 7580 4
7582 7482 2
7582 7583 3
7582 7682 1
7582 7581 1
7583 7483 5
7583 7584 3
7583 7683 4
7583 7582 2
7584 7484 5
7584 7585 2
7584 7684 5
7584 7583 3
7585 7485 3
7585 7586 3
7585 7685 3
7585 7584 1
7586 7486 3
7586 7587 4
7586 7686 1
7586 7585 5
7587 7487 1
7587 7588 5
7587 7687 2
7587 7586 3
7588 7488 1
7588 7589 1
7588 7688 4
7588 7587 3
7589 7489 3
7589 7590 3
7589 7689 3
7589 7588 2
7590 7490 4
7590 7591 1
7590 7690 4
7590 7589 2
7591 7491 4
7591 7592 2
7591 7691 5
7591 7590 1
7592 7492 4
7592 7593 4
7592 7692 2
7592 7591 2
7593 7493 4
7593 7594 3
7593 7693 4
7593 7592 1
7594 7494 2
7594 7595 1
7594 7694 3
7594 7593 4
7595 7495 3
7595 7596 4
7595 7695 2
7595 7594 4
7596 7496 3
7596 7597 1
7596 7696 2
7596 7595 4
7597 7497 1
7597 7598 5
7597 7697 3
7597 7596 5
7598 7498 1
7598 7599 5
7598 7698 4
7598 7597 4
7599 7499 2
7599 7699 1
7599 7598 5
7600 7500 5
7600 7601 1
7600 7700 4
7601 7501 5
7601 7602 2
7601 7701 1
7601 7600 5
7602 7502 4
7602 7603 2
7602 7702 1
7602 7601 2
7603 7503 5
7603 7604 5
7603 7703 3
7603 7602 1
7604 7504 4
7604 7605 4
7604 7704 1
7604 7603 3
7605 7505 3
7605 7606 1
7605 7705 3
7605 7604 5
7606 7506 5
7606 7607 5
7606 7706 2
7606 7605 2
7607 7507 4
7607 7608 4
7607 7707 2
7607 7606 1
7608 7508 2
7608 7609 2
7608 7708 3
7608 7607 2
7609 7509 5
7609 7610 5
7609 7709 5
7609 7608 1
7610 7510 3
7610 7611 5
7610 7710 3
7610 7609 1
7611 7511 3
7611 7612 2
7611 7711 1
7611 7610 2
7612 7512 3
7612 7613 5
7612 7712 2
7612 7611 4
7613 7513 3
7613 7614 3
7613 7713 1
7613 7612 2
7614 7514 5
7614 7615 2
7614 7714 2
7614 7613 1
7615 7515 2
7615 7616 3
7615 7715 2
7615 7614 4
7616 7516 3
7616 7617 3
7616 7716 4
7616 7615 4
7617 7517 4
7617 7618 2
7617 7717 5
7617 7616 5
7618 7518 1
7618 7619 1
7618 7718 3
7618 7617 3
7619 7519 5
7619 7620 1
7619 7719 3
7619 7618 3
7620 7520 2
7620 7621 1
7620 7720 5
7620 7619 2
7621 7521 3
7621 7622 2
7621 7721 4
7621 7620 5
7622 7522 3
7622 7623 2
7622 7722 1
7622 7621 1
7623 7523 2
7623 7624 5
7623 7723 4
7623 7622 4
7624 7524 1
7624 7625 1
7624 7724 3
7624 7623 1
7625 7525 4
7625 7626 2
7625 7725 5
7625 7624 1
7626 7526 4
7626 7627 5
7626 7726 2
7626 7625 4
7627 7527 3
7627 7628 1
7627 7727 4
7627 7626 2
7628 7528 2
7628 7629 5
7628 7728 1
7628 7627 4
7629 7529 2
7629 7630 5
7629 7729 1
7629 7628 1
7630 7530 5
7630 7631 4
7630 7730 2
7630 7629 5
7631 7531 2
7631 7632 2
7631 7731 1
7631 7630 5
7632 7532 5
7632 7633 2
7632 7732 4
7632 7631 5
7633 7533 1
7633 7634 3
7633 7733 4
7633 7632 2
7634 7534 4
7634 7635 4
7634 7734 4
7634 7633 1
7635 7535 1
7635 7636 3
7635 7735 2
7635 7634 5
7636 7536 5
7636 7637 4
7636 7736 4
7636 7635 1
7637 7537 4
7637 7638 3
7637 7737 3
7637 7636 5
7638 7538 5
7638 7639 1
7638 7738 3
7638 7637 2
7639 7539 1
7639 7640 3
7639 7739 3
7639 7638 3
7640 7540 1
7640 7641 1
7640 7740 2
7640 7639 1
7641 7541 2
7641 7642 4
7641 7741 5
7641 7640 2
7642 7542 5
7642 7643 4
7642 7742 5
7642 7641 5
7643 7543 1
7643 7644 2
7643 7743 3
7643 7642 3
7644 7544 1
7644 7645 2
7644 7744 5
7644 7643 3
7645 7545 5
7645 7646 4
7645 7745 4
7645 7644 4
7646 7546 1
7646 7647 2
7646 7746 1
7646 7645 3
7647 7547 1
7647 7648 5
7647 7747 2
7647 7646 3
7648 7548 4
7648 7649 4
7648 7748 3
7648 7647 3
7649 7549 1
7649 7650 5
7649 7749 2
7649 7648 2
7650 7550 4
7650 7651 5
7650 7750 5
7650 7649 1
7651 7551 1
7651 7652 1
7651 7751 2
7651 7650 5
7652 7552 2
7652 7653 4
7652 7752 2
7652 7651 1
7653 7553 1
7653 7654 3
7653 7753 1
7653 7652 2
7654 7554 2
7654 7655 3
7654 7754 4
7654 7653 1
7655 7555 1
7655 7656 5
7655 7755 3
7655 7654 2
7656 7556 2
7656 7657 1
7656 7756 1
7656 7655 2
7657 7557 5
7657 7658 5
7657 7757 2
7657 7656 3
7658 7558 2
7658 7659 2
7658 7758 1
7658 7657 5
7659 7559 2
7659 7660 1
7659 7759 4
7659 7658 5
7660 7560 1
7660 7661 4
7660 7760 2
7660 7659 4
7661 7561 1
7661 7662 2
7661 7761 5
7661 7660 5
7662 7562 1
7662 7663 4
7662 7762 2
7662 7661 4
7663 7563 5
7663 7664 1
7663 7763 4
7663 7662 5
7664 7564 5
7664 7665 3
7664 7764 4
7664 7663 4
7665 7565 4
7665 7666 2
7665 7765 1
7665 7664 1
7666 7566 1
7666 7667 3
7666 7766 2
7666 7665 1
7667 7567 3
7667 7668 1
7667 7767 1
7667 7666 4
7668 7568 1
7668 7669 4
7668 7768 1
7668 7667 4
7669 7569 2
7669 7670 3
7669 7769 5
7669 7668 3
7670 7570 1
7670 7671 5
7670 7770 5
7670 7669 3
7671 7571 1
7671 7672 2
7671 7771 2
7671 7670 4
7672 7572 1
7672 7673 5
7672 7772 3
7672 7671 1
7673 7573 1
7673 7674 5
7673 7773 1
7673 7672 5
7674 7574 3
7674 7675 3
7674 7774 3
7674 7673 3
7675 7575 3
7675 7676 4
7675 7775 5
7675 7674 4
7676 7576 2
7676 7677 5
7676 7776 4
7676 7675 3
7677 7577 3
7677 7678 4
7677 7777 1
7677 7676 5
7678 7578 2
7678 7679 4
7678 7778 4
7678 7677 4
7679 7579 1
7679 7680 2
7679 7779 4
7679 7678 4
7680 7580 1
7680 7681 5
7680 7780 5
7680 7679 4
7681 7581 2
7681 7682 4
7681 7781 2
7681 7680 5
7682 7582 3
7682 7683 4
7682 7782 1
7682 7681 2
7683 7583 4
7683 7684 4
7683 7783 4
7683 7682 5
7684 7584 2
7684 7685 1
7684 7784 3
7684 7683 3
7685 7585 4
7685 7686 2
7685 7785 4
7685 7684 1
7686 7586 2
7686 7687 5
7686 7786 5
7686 7685 4
7687 7587 3
7687 7688 1
7687 7787 2
7687 7686 2
7688 7588 2
7688 7689 3
7688 7788 4
7688 7687 1
7689 7589 3
7689 7690 3
7689 7789 4
7689 7688 4
7690 7590 2
7690 7691 4
7690 7790 4
7690 7689 2
7691 7591 2
7691 7692 1
7691 7791 3
7691 7690 1
7692 7592 1
7692 7693 4
7692 7792 4
7692 7691 1
7693 7593 3
7693 7694 2
7693 7793 1
7693 7692 3
7694 7594 2
7694 7695 3
7694 7794 5
7694 7693 2
7695 7595 1
7695 7696 5
7695 7795 4
7695 7694 5
7696 7596 4
7696 7697 2
7696 7796 4
7696 7695 3
7697 7597 4
7697 7698 1
7697 7797 3
7697 7696 4
7698 7598 3
7698 7699 4
7698 7798 5
7698 7697 5
7699 7599 4
7699 7799 5
7699 7698 5
7700 7600 4
7700 7701 1
7700 7800 2
7701 7601 4
7701 7702 5
7701 7801 5
7701 7700 2
7702 7602 1
7702 7703 1
7702 7802 3
7702 7701 5
7703 7603 2
7703 7704 4
7703 7803 5
7703 7702 2
7704 7604 4
7704 7705 2
7704 7804 1
7704 7703 3
7705 7605 5
7705 7706 2
7705 7805 2
7705 7704 5
7706 7606 1
7706 7707 2
7706 7806 4
7706 7705 1
7707 7607 4
7707 7708 3
7707 7807 5
7707 7706 2
7708 7608 3
7708 7709 1
7708 7808 1
7708 7707 3
7709 7609 1
7709 7710 4
7709 7809 2
7709 7708 5
7710 7610 1
7710 7711 1
7710 7810 5
7710 7709 4
7711 7611 2
7711 7712 2
7711 7811 5
7711 7710 2
7712 7612 3
7712 7713 4
7712 7812 1
7712 7711 5
7713 7613 2
7713 7714 1
7713 7813 1
7713 7712 5
7714 7614 1
7714 7715 4
7714 7814 5
7714 7713 4
7715 7615 1
7715 7716 4
7715 7815 3
7715 7714 4
7716 7616 5
7716 7717 5
7716 7816 5
7716 7715 3
7717 7617 5
7717 7718 4
7717 7817 3
7717 7716 5
7718 7618 5
7718 7719 4
7718 7818 5
7718 7717 5
7719 7619 1
7719 7720 3
7719 7819 2
7719 7718 2
7720 7620 1
7720 7721 4
7720 7820 1
7720 7719 1
7721 7621 3
7721 7722 5
7721 7821 4
7721 7720 3
7722 7622 4
7722 7723 3
7722 7822 5
7722 7721 1
7723 7623 5
7723 7724 5
7723 7823 5
7723 7722 1
7724 7624 1
7724 7725 4
7724 7824 1
7724 7723 4
7725 7625 2
7725 7726 3
7725 7825 4
7725 7724 2
7726 7626 1
7726 7727 4
7726 7826 2
7726 7725 1
7727 7627 2
7727 7728 5
7727 7827 4
7727 7726 3
7728 7628 3
7728 7729 4
7728 7828 2
7728 7727 4
7729 7629 1
7729 7730 4
7729 7829 5
7729 7728 3
7730 7630 5
7730 7731 4
7730 7830 2
7730 7729 4
7731 7631 5
7731 7732 5
7731 7831 1
7731 7730 1
7732 7632 5
7732 7733 2
7732 7832 5
7732 7731 5
7733 7633 5
7733 7734 5
7733 7833 1
7733 7732 4
7734 7634 5
7734 7735 2
7734 7834 1
7734 7733 1
7735 7635 2
7735 7736 1
7735 7835 4
7735 7734 1
7736 7636 4
7736 7737 4
7736 7836 3
7736 7735 2
7737 7637 2
7737 7738 1
7737 7837 4
7737 7736 2
7738 7638 2
7738 7739 4
7738 7838 1
7738 7737 2
7739 7639 1
7739 7740 4
7739 7839 5
7739 7738 5
7740 7640 3
7740 7741 3
7740 7840 5
7740 7739 1
7741 7641 1
7741 7742 3
7741 7841 5
7741 7740 1
7742 7642 2
7742 7743 4
7742 7842 2
7742 7741 5
7743 7643 3
7743 7744 3
7743 7843 3
7743 7742 5
7744 7644 3
7744 7745 5
7744 7844 2
7744 7743 3
7745 7645 4
7745 7746 2
7745 7845 5
7745 7744 5
7746 7646 5
7746 7747 1
7746 7846 2
7746 7745 4
7747 7647 3
7747 7748 2
7747 7847 5
7747 7746 2
7748 7648 2
7748 7749 3
7748 7848 3
7748 7747 1
7749 7649 4
7749 7750 3
7749 7849 1
7749 7748 5
7750 7650 2
7750 7751 3
7750 7850 5
7750 7749 1
7751 7651 3
7751 7752 4
7751 7851 4
7751 7750 2
7752 7652 1
7752 7753 2
7752 7852 2
7752 7751 4
7753 7653 1
7753 7754 1
7753 7853 5
7753 7752 4
7754 7654 2
7754 7755 5
7754 7854 5
7754 7753 3
7755 7655 3
7755 7756 3
7755 7855 1
7755 7754 2
7756 7656 5
7756 7757 3
7756 7856 3
7756 7755 2
7757 7657 1
7757 7758 3
7757 7857 4
7757 7756 2
7758 7658 1
7758 7759 5
7758 7858 2
7758 7757 1
7759 7659 4
7759 7760 5
7759 7859 4
7759 7758 5
7760 7660 3
7760 7761 5
7760 7860 1
7760 7759 5
7761 7661 4
7761 7762 3
7761 7861 3
7761 7760 5
7762 7662 5
7762 7763 4
7762 7862 2
7762 7761 3
7763 7663 1
7763 7764 5
7763 7863 5
7763 7762 5
7764 7664 2
7764 7765 1
7764 7864 4
7764 7763 4
7765 7665 2
7765 7766 3
7765 7865 1
7765 7764 4
7766 7666 4
7766 7767 5
7766 7866 1
7766 7765 1
7767 7667 2
7767 7768 2
7767 7867 5
7767 7766 4
7768 7668 2
7768 7769 4
7768 7868 4
7768 7767 1
7769 7669 4
7769 7770 2
7769 7869 1
7769 7768 4
7770 7670 2
7770 7771 3
7770 7870 1
7770 7769 2
7771 7671 3
7771 7772 2
7771 7871 2
7771 7770 2
7772 7672 3
7772 7773 1
7772 7872 5
7772 7771 5
7773 7673 2
7773 7774 1
7773 7873 4
7773 7772 2
7774 7674 2
7774 7775 2
7774 7874 4
7774 7773 3
7775 7675 3
7775 7776 1
7775 7875 1
7775 7774 5
7776 7676 1
7776 7777 3
7776 7876 3
7776 7775 3
7777 7677 2
7777 7778 3
7777 7877 5
7777 7776 3
7778 7678 2
7778 7779 1
7778 7878 2
7778 7777 3
7779 7679 2
7779 7780 3
7779 7879 1
7779 7778 5
7780 7680 3
7780 7781 4
7780 7880 4
7780 7779 3
7781 7681 1
7781 7782 1
7781 7881 5
7781 7780 4
7782 7682 1
7782 7783 3
7782 7882 4
7782 7781 3
7783 7683 1
7783 7784 5
7783 7883 5
7783 7782 3
7784 7684 1
7784 7785 3
7784 7884 4
7784 7783 3
7785 7685 2
7785 7786 5
7785 7885 5
7785 7784 5
7786 7686 1
7786 7787 2
7786 7886 4
7786 7785 1
7787 7687 3
7787 7788 3
7787 7887 2
7787 7786 3
7788 7688 3
7788 7789 1
7788 7888 5
7788 7787 1
7789 7689 5
7789 7790 2
7789 7889 4
7789 7788 1
7790 7690 1
7790 7791 1
7790 7890 2
7790 7789 3
7791 7691 4
7791 7792 3
7791 7891 5
7791 7790 3
7792 7692 2
7792 7793 5
7792 7892 5
7792 7791 2
7793 7693 1
7793 7794 2
7793 7893 2
7793 7792 4
7794 7694 4
7794 7795 4
7794 7894 4
7794 7793 5
7795 7695 4
7795 7796 5
7795 7895 2
7795 7794 2
7796 7696 5
7796 7797 3
7796 7896 2
7796 7795 2
7797 7697 5
7797 7798 4
7797 7897 1
7797 7796 5
7798 7698 3
7798 7799 1
7798 7898 1
7798 7797 5
7799 7699 2
7799 7899 5
7799 7798 1
7800 7700 5
7800 7801 2
7800 7900 3
7801 7701 2
7801 7802 3
7801 7901 2
7801 7800 3
7802 7702 1
7802 7803 4
7802 7902 4
7802 7801 2
7803 7703 5
7803 7804 2
7803 7903 3
7803 7802 4
7804 7704 2
7804 7805 2
7804 7904 3
7804 7803 5
7805 7705 5
7805 7806 5
7805 7905 2
7805 7804 2
7806 7706 3
7806 7807 2
7806 7906 4
7806 7805 3
7807 7707 1
7807 7808 5
7807 7907 4
7807 7806 4
7808 7708 5
7808 7809 3
7808 7908 1
7808 7807 5
7809 7709 4
7809 7810 3
7809 7909 3
7809 7808 2
7810 7710 3
7810 7811 2
7810 7910 5
7810 7809 2
7811 7711 4
7811 7812 5
7811 7911 2
7811 7810 5
7812 7712 3
7812 7813 3
7812 7912 1
7812 7811 4
7813 7713 3
7813 7814 2
7813 7913 3
7813 7812 1
7814 7714 5
7814 7815 3
7814 7914 2
7814 7813 5
7815 7715 5
7815 7816 5
7815 7915 3
7815 7814 5
7816 7716 3
7816 7817 4
7816 7916 1
7816 7815 2
7817 7717 5
7817 7818 4
7817 7917 5
7817 7816 4
7818 7718 3
7818 7819 3
7818 7918 2
7818 7817 3
7819 7719 5
7819 7820 1
7819 7919 4
7819 7818 4
7820 7720 3
7820 7821 1
7820 7920 3
7820 7819 4
7821 7721 1
7821 7822 5
7821 7921 5
7821 7820 2
7822 7722 1
7822 7823 1
7822 7922 5
7822 7821 5
7823 7723 3
7823 7824 3
7823 7923 2
7823 7822 5
7824 7724 5
7824 7825 4
7824 7924 2
7824 7823 3
7825 7725 3
7825 7826 5
7825 7925 4
7825 7824 4
7826 7726 5
7826 7827 4
7826 7926 4
7826 7825 4
7827 7727 5
7827 7828 5
7827 7927 5
7827 7826 5
7828 7728 3
7828 7829 4
7828 7928 1
7828 7827 4
7829 7729 1
7829 7830 4
7829 7929 1
7829 7828 4
7830 7730 5
7830 7831 1
7830 7930 1
7830 7829 3
7831 7731 5
7831 7832 4
7831 7931 1
7831 7830 1
7832 7732 1
7832 7833 2
7832 7932 5
7832 7831 3
7833 7733 4
7833 7834 1
7833 7933 3
7833 7832 4
7834 7734 4
7834 7835 3
7834 7934 4
7834 7833 4
7835 7735 3
7835 7836 1
7835 7935 3
7835 7834 1
7836 7736 5
7836 7837 5
7836 7936 4
7836 7835 1
7837 7737 1
7837 7838 4
7837 7937 4
7837 7836 3
7838 7738 3
7838 7839 5
7838 7938 2
7838 7837 2
7839 7739 3
7839 7840 2
7839 7939 3
7839 7838 5
7840 7740 4
7840 7841 5
7840 7940 5
7840 7839 3
7841 7741 1
7841 7842 3
7841 7941 3
7841 7840 1
7842 7742 3
7842 7843 4
7842 7942 4
7842 7841 5
7843 7743 2
7843 7844 4
7843 7943 3
7843 7842 3
7844 7744 1
7844 7845 2
7844 7944 3
7844 7843 2
7845 7745 5
7845 7846 4
7845 7945 1
7845 7844 4
7846 7746 5
7846 7847 5
7846 7946 2
7846 7845 3
7847 7747 4
7847 7848 1
7847 7947 3
7847 7846 1
7848 7748 2
7848 7849 3
7848 7948 1
7848 7847 2
7849 7749 5
7849 7850 3
7849 7949 4
7849 7848 4
7850 7750 2
7850 7851 4
7850 7950 3
7850 7849 5
7851 7751 1
7851 7852 4
7851 7951 2
7851 7850 5
7852 7752 3
7852 7853 5
7852 7952 2
7852 7851 4
7853 7753 5
7853 7854 1
7853 7953 4
7853 7852 2
7854 7754 3
7854 7855 5
7854 7954 3
7854 7853 2
7855 7755 1
7855 7856 1
7855 7955 1
7855 7854 1
7856 7756 2
7856 7857 4
7856 7956 5
7856 7855 5
7857 7757 4
7857 7858 5
7857 7957 3
7857 7856 1
7858 7758 5
7858 7859 2
7858 7958 1
7858 7857 3
7859 7759 5
7859 7860 3
7859 7959 2
7859 7858 4
7860 7760 4
7860 7861 3
7860 7960 5
7860 7859 4
7861 7761 4
7861 7862 1
7861 7961 2
7861 7860 4
7862 7762 3
7862 7863 4
7862 7962 2
7862 7861 1
7863 7763 2
7863 7864 4
7863 7963 2
7863 7862 3
7864 7764 3
7864 7865 3
7864 7964 2
7864 7863 5
7865 7765 3
7865 7866 4
7865 7965 5
7865 7864 5
7866 7766 4
7866 7867 2
7866 7966 2
7866 7865 1
7867 7767 5
7867 7868 1
7867 7967 2
7867 7866 2
7868 7768 2
7868 7869 3
7868 7968 4
7868 7867 4
7869 7769 1
7869 7870 4
7869 7969 1
7869 7868 4
7870 7770 2
7870 7871 1
7870 7970 4
7870 7869 3
7871 7771 3
7871 7872 3
7871 7971 4
7871 7870 4
7872 7772 4
7872 7873 2
7872 7972 4
7872 7871 2
7873 7773 4
7873 7874 2
7873 7973 4
7873 7872 4
7874 7774 5
7874 7875 3
7874 7974 1
7874 7873 5
7875 7775 5
7875 7876 5
7875 7975 5
7875 7874 4
7876 7776 4
7876 7877 3
7876 7976 4
7876 7875 3
7877 7777 5
7877 7878 3
7877 7977 3
7877 7876 2
7878 7778 3
7878 7879 5
7878 7978 3
7878 7877 2
7879 7779 5
7879 7880 3
7879 7979 2
7879 7878 4
7880 7780 4
7880 7881 3
7880 7980 1
7880 7879 2
7881 7781 4
7881 7882 4
7881 7981 4
7881 7880 4
7882 7782 5
7882 7883 4
7882 7982 3
7882 7881 1
7883 7783 3
7883 7884 2
7883 7983 1
7883 7882 4
7884 7784 4
7884 7885 4
7884 7984 3
7884 7883 1
7885 7785 3
7885 7886 5
7885 7985 4
7885 7884 3
7886 7786 2
7886 7887 3
7886 7986 1
7886 7885 1
7887 7787 3
7887 7888 4
7887 7987 2
7887 7886 2
7888 7788 1
7888 7889 5
7888 7988 5
7888 7887 1
7889 7789 1
7889 7890 1
7889 7989 5
7889 7888 3
7890 7790 1
7890 7891 4
7890 7990 3
7890 7889 4
7891 7791 3
7891 7892 5
7891 7991 2
7891 7890 2
7892 7792 3
7892 7893 3
7892 7992 3
7892 7891 2
7893 7793 5
7893 7894 3
7893 7993 4
7893 7892 3
7894 7794 2
7894 7895 3
7894 7994 2
7894 7893 2
7895 7795 2
7895 7896 4
7895 7995 4
7895 7894 1
7896 7796 1
7896 7897 1
7896 7996 3
7896 7895 4
7897 7797 1
7897 7898 5
7897 7997 1
7897 7896 1
7898 7798 1
7898 7899 2
7898 7998 3
7898 7897 5
7899 7799 3
7899 7999 4
7899 7898 1
7900 7800 1
7900 7901 5
7900 8000 5
7901 7801 5
7901 7902 5
7901 8001 5
7901 7900 4
7902 7802 3
7902 7903 1
7902 8002 1
7902 7901 5
7903 7803 1
7903 7904 3
7903 8003 5
7903 7902 2
7904 7804 4
7904 7905 3
7904 8004 4
7904 7903 4
7905 7805 1
7905 7906 3
7905 8005 3
7905 7904 4
7906 7806 4
7906 7907 4
7906 8006 1
7906 7905 5
7907 7807 4
7907 7908 5
7907 8007 4
7907 7906 1
7908 7808 3
7908 7909 4
7908 8008 5
7908 7907 4
7909 7809 4
7909 7910 4
7909 8009 5
7909 7908 2
7910 7810 5
7910 7911 1
7910 8010 3
7910 7909 2
7911 7811 3
7911 7912 4
7911 8011 3
7911 7910 5
7912 7812 5
7912 7913 3
7912 8012 1
7912 7911 5
7913 7813 5
7913 7914 1
7913 8013 3
7913 7912 2
7914 7814 2
7914 7915 2
7914 8014 1
7914 7913 2
7915 7815 5
7915 7916 2
7915 8015 4
7915 7914 4
7916 7816 3
7916 7917 1
7916 8016 3
7916 7915 3
7917 7817 4
7917 7918 2
7917 8017 5
7917 7916 5
7918 7818 4
7918 7919 2
7918 8018 2
7918 7917 1
7919 7819 3
7919 7920 1
7919 8019 3
7919 7918 1
7920 7820 2
7920 7921 1
7920 8020 5
7920 7919 4
7921 7821 4
7921 7922 1
7921 8021 3
7921 7920 4
7922 7822 3
7922 7923 4
7922 8022 2
7922 7921 2
7923 7823 5
7923 7924 5
7923 8023 1
7923 7922 3
7924 7824 4
7924 7925 5
7924 8024 3
7924 7923 2
7925 7825 3
7925 7926 4
7925 8025 3
7925 7924 3
7926 7826 2
7926 7927 1
7926 8026 2
7926 7925 3
7927 7827 5
7927 7928 3
7927 8027 3
7927 7926 1
7928 7828 1
7928 7929 2
7928 8028 2
7928 7927 5
7929 7829 4
7929 7930 2
7929 8029 3
7929 7928 1
7930 7830 5
7930 7931 4
7930 8030 4
7930 7929 3
7931 7831 4
7931 7932 4
7931 8031 3
7931 7930 1
7932 7832 2
7932 7933 1
7932 8032 2
7932 7931 3
7933 7833 1
7933 7934 5
7933 8033 2
7933 7932 1
7934 7834 2
7934 7935 3
7934 8034 5
7934 7933 3
7935 7835 2
7935 7936 3
7935 8035 4
7935 7934 3
7936 7836 5
7936 7937 1
7936 8036 3
7936 7935 2
7937 7837 5
7937 7938 5
7937 8037 5
7937 7936 3
7938 7838 2
7938 7939 1
7938 8038 4
7938 7937 5
7939 7839 5
7939 7940 3
7939 8039 3
7939 7938 5
7940 7840 5
7940 7941 1
7940 8040 5
7940 7939 5
7941 7841 3
7941 7942 1
7941 8041 2
7941 7940 5
7942 7842 4
7942 7943 3
7942 8042 3
7942 7941 5
7943 7843 1
7943 7944 4
7943 8043 4
7943 7942 3
7944 7844 5
7944 7945 2
7944 8044 2
7944 7943 5
7945 7845 2
7945 7946 1
7945 8045 5
7945 7944 2
7946 7846 3
7946 7947 5
7946 8046 5
7946 7945 1
7947 7847 5
7947 7948 1
7947 8047 1
7947 7946 2
7948 7848 5
7948 7949 1
7948 8048 3
7948 7947 4
7949 7849 2
7949 7950 3
7949 8049 2
7949 7948 5
7950 7850 2
7950 7951 3
7950 8050 2
7950 7949 1
7951 7851 5
7951 7952 3
7951 8051 5
7951 7950 4
7952 7852 2
7952 7953 1
7952 8052 5
7952 7951 1
7953 7853 2
7953 7954 1
7953 8053 5
7953 7952 3
7954 7854 2
7954 7955 4
7954 8054 2
7954 7953 3
7955 7855 1
7955 7956 1
7955 8055 3
7955 7954 4
7956 7856 1
7956 7957 2
7956 8056 2
7956 7955 1
7957 7857 3
7957 7958 3
7957 8057 3
7957 7956 2
7958 7858 1
7958 7959 1
7958 8058 3
7958 7957 2
7959 7859 1
7959 7960 2
7959 8059 1
7959 7958 3
7960 7860 3
7960 7961 1
7960 8060 4
7960 7959 4
7961 7861 5
7961 7962 1
7961 8061 1
7961 7960 1
7962 7862 5
7962 7963 4
7962 8062 3
7962 7961 5
7963 7863 5
7963 7964 3
7963 8063 3
7963 7962 3
7964 7864 4
7964 7965 4
7964 8064 4
7964 7963 2
7965 7865 3
7965 7966 3
7965 8065 3
7965 7964 1
7966 7866 5
7966 7967 2
7966 8066 5
7966 7965 5
7967 7867 1
7967 7968 2
7967 8067 4
7967 7966 5
7968 7868 5
7968 7969 3
7968 8068 3
7968 7967 2
7969 7869 1
7969 7970 4
7969 8069 3
7969 7968 1
7970 7870 5
7970 7971 1
7970 8070 1
7970 7969 4
7971 7871 1
7971 7972 4
7971 8071 4
7971 7970 5
7972 7872 1
7972 7973 1
7972 8072 1
7972 7971 5
7973 7873 2
7973 7974 2
7973 8073 3
7973 7972 2
7974 7874 1
7974 7975 4
7974 8074 5
7974 7973 2
7975 7875 4
7975 7976 5
7975 8075 2
7975 7974 2
7976 7876 1
7976 7977 4
7976 8076 3
7976 7975 4
7977 7877 2
7977 7978 4
7977 8077 5
7977 7976 5
7978 7878 4
7978 7979 2
7978 8078 1
7978 7977 5
7979 7879 2
7979 7980 3
7979 8079 4
7979 7978 5
7980 7880 1
7980 7981 1
7980 8080 1
7980 7979 3
7981 7881 5
7981 7982 2
7981 8081 2
7981 7980 3
7982 7882 4
7982 7983 2
7982 8082 2
7982 7981 5
7983 7883 4
7983 7984 1
7983 8083 2
7983 7982 2
7984 7884 2
7984 7985 1
7984 8084 1
7984 7983 4
7985 7885 3
7985 7986 5
7985 8085 3
7985 7984 5
7986 7886 4
7986 7987 2
7986 8086 3
7986 7985 2
7987 7887 5
7987 7988 4
7987 8087 1
7987 7986 2
7988 7888 5
7988 7989 3
7988 8088 1
7988 7987 3
7989 7889 3
7989 7990 2
7989 8089 1
7989 7988 3
7990 7890 5
7990 7991 1
7990 8090 2
7990 7989 5
7991 7891 4
7991 7992 1
7991 8091 4
7991 7990 1
7992 7892 3
7992 7993 5
7992 8092 1
7992 7991 2
7993 7893 2
7993 7994 3
7993 8093 1
7993 7992 4
7994 7894 3
7994 7995 3
7994 8094 4
7994 7993 3
7995 7895 4
7995 7996 4
7995 8095 5
7995 7994 3
7996 7896 1
7996 7997 5
7996 8096 1
7996 7995 3
7997 7897 1
7997 7998 5
7997 8097 5
7997 7996 5
7998 7898 3
7998 7999 4
7998 8098 4
7998 7997 3
7999 7899 2
7999 8099 1
7999 7998 1
8000 7900 4
8000 8001 3
8000 8100 3
8001 7901 4
8001 8002 2
8001 8101 2
8001 8000 5
8002 7902 5
8002 8003 4
8002 8102 5
8002 8001 5
8003 7903 5
8003 8004 4
8003 8103 4
8003 8002 3
8004 7904 4
8004 8005 5
8004 8104 5
8004 8003 2
8005 7905 1
8005 8006 2
8005 8105 4
8005 8004 1
8006 7906 4
8006 8007 2
8006 8106 2
8006 8005 5
8007 7907 1
8007 8008 1
8007 8107 1
8007 8006 2
8008 7908 5
8008 8009 4
8008 8108 1
8008 8007 3
8009 7909 4
8009 8010 5
8009 8109 3
8009 8008 4
8010 7910 1
8010 8011 5
8010 8110 5
8010 8009 1
8011 7911 2
8011 8012 5
8011 8111 1
8011 8010 2
8012 7912 3
8012 8013 1
8012 8112 3
8012 8011 5
8013 7913 5
8013 8014 3
8013 8113 2
8013 8012 5
8014 7914 2
8014 8015 5
8014 8114 3
8014 8013 3
8015 7915 1
8015 8016 5
8015 8115 1
8015 8014 3
8016 7916 4
8016 8017 5
8016 8116 1
8016 8015 3
8017 7917 2
8017 8018 3
8017 8117 4
8017 8016 2
8018 7918 5
8018 8019 2
8018 8118 5
8018 8017 3
8019 7919 1
8019 8020 4
8019 8119 4
8019 8018 2
8020 7920 1
8020 8021 5
8020 8120 3
8020 8019 2
8021 7921 2
8021 8022 4
8021 8121 4
8021 8020 1
8022 7922 5
8022 8023 3
8022 8122 5
8022 8021 5
8023 7923 4
8023 8024 5
8023 8123 4
8023 8022 3
8024 7924 4
8024 8025 2
8024 8124 5
8024 8023 2
8025 7925 3
8025 8026 5
8025 8125 2
8025 8024 2
8026 7926 5
8026 8027 2
8026 8126 5
8026 8025 1
8027 7927 1
8027 8028 5
8027 8127 2
8027 8026 2
8028 7928 2
8028 8029 3
8028 8128 2
8028 8027 1
8029 7929 4
8029 8030 5
8029 8129 5
8029 8028 3
8030 7930 4
8030 8031 5
8030 8130 3
8030 8029 4
8031 7931 4
8031 8032 4
8031 8131 4
8031 8030 5
8032 7932 1
8032 8033 5
8032 8132 4
8032 8031 3
8033 7933 3
8033 8034 5
8033 8133 2
8033 8032 4
8034 7934 3
8034 8035 3
8034 8134 5
8034 8033 3
8035 7935 5
8035 8036 4
8035 8135 3
8035 8034 2
8036 7936 1
8036 8037 2
8036 8136 3
8036 8035 2
8037 7937 1
8037 8038 4
8037 8137 3
8037 8036 3
8038 7938 3
8038 8039 5
8038 8138 2
8038 8037 5
8039 7939 5
8039 8040 4
8039 8139 3
8039 8038 5
8040 7940 4
8040 8041 3
8040 8140 1
8040 8039 1
8041 7941 3
8041 8042 5
8041 8141 4
8041 8040 2
8042 7942 4
8042 8043 4
8042 8142 3
8042 8041 1
8043 7943 1
8043 8044 5
8043 8143 5
8043 8042 4
8044 7944 4
8044 8045 3
8044 8144 3
8044 8043 2
8045 7945 3
8045 8046 5
8045 8145 4
8045 8044 3
8046 7946 3
8046 8047 1
8046 8146 3
8046 8045 4
8047 7947 3
8047 8048 1
8047 8147 5
8047 8046 4
8048 7948 4
8048 8049 5
8048 8148 5
8048 8047 4
8049 7949 2
8049 8050 1
8049 8149 1
8049 8048 5
8050 7950 2
8050 8051 3
8050 8150 5
8050 8049 2
8051 7951 1
8051 8052 1
8051 8151 4
8051 8050 2
8052 7952 1
8052 8053 1
8052 8152 3
8052 8051 5
8053 7953 4
8053 8054 2
8053 8153 2
8053 8052 3
8054 7954 2
8054 8055 2
8054 8154 5
8054 8053 3
8055 7955 5
8055 8056 2
8055 8155 3
8055 8054 5
8056 7956 2
8056 8057 4
8056 8156 4
8056 8055 4
8057 7957 5
8057 8058 1
8057 8157 5
8057 8056 5
8058 7958 3
8058 8059 4
8058 8158 1
8058 8057 1
8059 7959 5
8059 8060 1
8059 8159 3
8059 8058 1
8060 7960 2
8060 8061 2
8060 8160 3
8060 8059 5
8061 7961 1
8061 8062 1
8061 8161 3
8061 8060 2
8062 7962 4
8062 8063 2
8062 8162 3
8062 8061 5
8063 7963 4
8063 8064 4
8063 8163 4
8063 8062 1
8064 7964 3
8064 8065 3
8064 8164 3
8064 8063 3
8065 7965 4
8065 8066 1
8065 8165 3
8065 8064 2
8066 7966 5
8066 8067 2
8066 8166 4
8066 8065 1
8067 7967 5
8067 8068 4
8067 8167 4
8067 8066 3
8068 7968 4
8068 8069 2
8068 8168 4
8068 8067 2
8069 7969 1
8069 8070 3
8069 8169 2
8069 8068 4
8070 7970 3
8070 8071 5
8070 8170 5
8070 8069 1
8071 7971 1
8071 8072 5
8071 8171 2
8071 8070 5
8072 7972 3
8072 8073 4
8072 8172 4
8072 8071 2
8073 7973 5
8073 8074 3
8073 8173 1
8073 8072 2
8074 7974 1
8074 8075 3
8074 8174 3
8074 8073 2
8075 7975 5
8075 8076 2
8075 8175 1
8075 8074 4
8076 7976 4
8076 8077 3
8076 8176 3
8076 8075 5
8077 7977 2
8077 8078 1
8077 8177 2
8077 8076 4
8078 7978 2
8078 8079 4
8078 8178 3
8078 8077 2
8079 7979 5
8079 8080 3
8079 8179 4
8079 8078 4
8080 7980 5
8080 8081 3
8080 8180 3
8080 8079 4
8081 7981 1
8081 8082 4
8081 8181 5
8081 8080 5
8082 7982 1
8082 8083 4
8082 8182 3
8082 8081 1
8083 7983 5
8083 8084 5
8083 8183 1
8083 8082 5
8084 7984 5
8084 8085 1
8084 8184 4
8084 8083 4
8085 7985 3
8085 8086 3
8085 8185 1
8085 8084 2
8086 7986 5
8086 8087 3
8086 8186 3
8086 8085 1
8087 7987 3
8087 8088 5
8087 8187 2
8087 8086 3
8088 7988 2
8088 8089 1
8088 8188 4
8088 8087 3
8089 7989 5
8089 8090 5
8089 8189 2
8089 8088 5
8090 7990 2
8090 8091 5
8090 8190 3
8090 8089 5
8091 7991 4
8091 8092 3
8091 8191 4
8091 8090 4
8092 7992 4
8092 8093 3
8092 8192 4
8092 8091 3
8093 7993 5
8093 8094 1
8093 8193 4
8093 8092 1
8094 7994 3
8094 8095 3
8094 8194 3
8094 8093 5
8095 7995 3
8095 8096 2
8095 8195 3
8095 8094 2
8096 7996 4
8096 8097 5
8096 8196 4
8096 8095 4
8097 7997 1
8097 8098 3
8097 8197 4
8097 8096 5
8098 7998 2
8098 8099 2
8098 8198 1
8098 8097 5
8099 7999 3
8099 8199 5
8099 8098 1
8100 8000 4
8100 8101 4
8100 8200 2
8101 8001 3
8101 8102 1
8101 8201 3
8101 8100 2
8102 8002 3
8102 8103 5
8102 8202 4
8102 8101 4
8103 8003 1
8103 8104 1
8103 8203 1
8103 8102 1
8104 8004 1
8104 8105 3
8104 8204 3
8104 8103 4
8105 8005 4
8105 8106 2
8105 8205 3
8105 8104 5
8106 8006 3
8106 8107 2
8106 8206 1
8106 8105 3
8107 8007 5
8107 8108 4
8107 8207 2
8107 8106 2
8108 8008 3
8108 8109 3
8108 8208 4
8108 8107 5
8109 8009 3
8109 8110 4
8109 8209 3
8109 8108 1
8110 8010 2
8110 8111 3
8110 8210 3
8110 8109 4
8111 8011 3
8111 8112 1
8111 8211 4
8111 8110 5
8112 8012 3
8112 8113 3
8112 8212 4
8112 8111 2
8113 8013 5
8113 8114 3
8113 8213 2
8113 8112 2
8114 8014 2
8114 8115 5
8114 8214 3
8114 8113 3
8115 8015 3
8115 8116 5
8115 8215 1
8115 8114 5
8116 8016 3
8116 8117 4
8116 8216 5
8116 8115 3
8117 8017 4
8117 8118 3
8117 8217 5
8117 8116 1
8118 8018 4
8118 8119 4
8118 8218 1
8118 8117 2
8119 8019 5
8119 8120 3
8119 8219 1
8119 8118 2
8120 8020 4
8120 8121 2
8120 8220 2
8120 8119 2
8121 8021 3
8121 8122 4
8121 8221 1
8121 8120 3
8122 8022 1
8122 8123 4
8122 8222 1
8122 8121 3
8123 8023 4
8123 8124 5
8123 8223 4
8123 8122 1
8124 8024 3
8124 8125 4
8124 8224 5
8124 8123 4
8125 8025 2
8125 8126 3
8125 8225 1
8125 8124 5
8126 8026 3
8126 8127 3
8126 8226 5
8126 8125 3
8127 8027 1
8127 8128 5
8127 8227 2
8127 8126 4
8128 8028 3
8128 8129 3
8128 8228 4
8128 8127 1
8129 8029 1
8129 8130 4
8129 8229 1
8129 8128 2
8130 8030 5
8130 8131 4
8130 8230 1
8130 8129 1
8131 8031 1
8131 8132 4
8131 8231 3
8131 8130 5
8132 8032 1
8132 8133 1
8132 8232 1
8132 8131 4
8133 8033 1
8133 8134 4
8133 8233 4
8133 8132 5
8134 8034 3
8134 8135 5
8134 8234 1
8134 8133 4
8135 8035 5
8135 8136 4
8135 8235 5
8135 8134 2
8136 8036 5
8136 8137 3
8136 8236 3
8136 8135 1
8137 8037 4
8137 8138 2
8137 8237 1
8137 8136 3
8138 8038 5
8138 8139 2
8138 8238 5
8138 8137 5
8139 8039 4
8139 8140 4
8139 8239 4
8139 8138 2
8140 8040 3
8140 8141 2
8140 8240 4
8140 8139 4
8141 8041 2
8141 8142 3
8141 8241 3
8141 8140 5
8142 8042 5
8142 8143 4
8142 8242 1
8142 8141 4
8143 8043 1
8143 8144 4
8143 8243 2
8143 8142 2
8144 8044 5
8144 8145 5
8144 8244 2
8144 8143 3
8145 8045 1
8145 8146 2
8145 8245 2
8145 8144 3
8146 8046 1
8146 8147 2
8146 8246 5
8146 8145 1
8147 8047 1
8147 8148 3
8147 8247 2
8147 8146 1
8148 8048 5
8148 8149 4
8148 8248 3
8148 8147 2
8149 8049 4
8149 8150 3
8149 8249 5
8149 8148 2
8150 8050 4
8150 8151 4
8150 8250 2
8150 8149 3
8151 8051 4
8151 8152 5
8151 8251 4
8151 8150 4
8152 8052 1
8152 8153 3
8152 8252 5
8152 8151 1
8153 8053 2
8153 8154 1
8153 8253 1
8153 8152 4
8154 8054 2
8154 8155 3
8154 8254 4
8154 8153 3
8155 8055 5
8155 8156 2
8155 8255 4
8155 8154 1
8156 8056 5
8156 8157 2
8156 8256 3
8156 8155 2
8157 8057 4
8157 8158 2
8157 8257 4
8157 8156 5
8158 8058 3
8158 8159 1
8158 8258 2
8158 8157 5
8159 8059 5
8159 8160 4
8159 8259 4
8159 8158 5
8160 8060 1
8160 8161 1
8160 8260 2
8160 8159 2
8161 8061 2
8161 8162 2
8161 8261 1
8161 8160 3
8162 8062 2
8162 8163 3
8162 8262 2
8162 8161 4
8163 8063 1
8163 8164 1
8163 8263 5
8163 8162 4
8164 8064 5
8164 8165 5
8164 8264 2
8164 8163 3
8165 8065 5
8165 8166 3
8165 8265 4
8165 8164 3
8166 8066 4
8166 8167 3
8166 8266 3
8166 8165 4
8167 8067 3
8167 8168 2
8167 8267 2
8167 8166 3
8168 8068 3
8168 8169 3
8168 8268 3
8168 8167 1
8169 8069 1
8169 8170 5
8169 8269 1
8169 8168 5
8170 8070 3
8170 8171 1
8170 8270 2
8170 8169 4
8171 8071 4
8171 8172 2
8171 8271 5
8171 8170 1
8172 8072 3
8172 8173 2
8172 8272 1
8172 8171 2
8173 8073 5
8173 8174 5
8173 8273 1
8173 8172 5
8174 8074 2
8174 8175 4
8174 8274 4
8174 8173 5
8175 8075 3
8175 8176 1
8175 8275 5
8175 8174 3
8176 8076 4
8176 8177 1
8176 8276 3
8176 8175 4
8177 8077 2
8177 8178 2
8177 8277 1
8177 8176 1
8178 8078 3
8178 8179 5
8178 8278 2
8178 8177 2
8179 8079 2
8179 8180 3
8179 8279 3
8179 8178 1
8180 8080 1
8180 8181 1
8180 8280 2
8180 8179 4
8181 8081 2
8181 8182 5
8181 8281 2
8181 8180 4
8182 8082 1
8182 8183 2
8182 8282 1
8182 8181 5
8183 8083 4
8183 8184 4
8183 8283 3
8183 8182 4
8184 8084 4
8184 8185 1
8184 8284 5
8184 8183 1
8185 8085 4
8185 8186 4
8185 8285 4
8185 8184 1
8186 8086 5
8186 8187 2
8186 8286 4
8186 8185 4
8187 8087 2
8187 8188 5
8187 8287 3
8187 8186 1
8188 8088 4
8188 8189 4
8188 8288 4
8188 8187 1
8189 8089 4
8189 8190 2
8189 8289 1
8189 8188 4
8190 8090 2
8190 8191 1
8190 8290 3
8190 8189 5
8191 8091 5
8191 8192 5
8191 8291 4
8191 8190 5
8192 8092 1
8192 8193 3
8192 8292 1
8192 8191 5
8193 8093 4
8193 8194 5
8193 8293 2
8193 8192 1
8194 8094 2
8194 8195 2
8194 8294 4
8194 8193 3
8195 8095 3
8195 8196 4
8195 8295 3
8195 8194 5
8196 8096 4
8196 8197 4
8196 8296 3
8196 8195 1
8197 8097 5
8197 8198 5
8197 8297 1
8197 8196 4
8198 8098 1
8198 8199 3
8198 8298 2
8198 8197 5
8199 8099 1
8199 8299 4
8199 8198 3
8200 8100 5
8200 8201 1
8200 8300 5
8201 8101 4
8201 8202 1
8201 8301 2
8201 8200 3
8202 8102 2
8202 8203 3
8202 8302 1
8202 8201 5
8203 8103 4
8203 8204 1
8203 8303 1
8203 8202 5
8204 8104 1
8204 8205 3
8204 8304 5
8204 8203 5
8205 8105 1
8205 8206 2
8205 8305 4
8205 8204 5
8206 8106 2
8206 8207 5
8206 8306 4
8206 8205 4
8207 8107 1
8207 8208 4
8207 8307 3
8207 8206 2
8208 8108 1
8208 8209 3
8208 8308 2
8208 8207 1
8209 8109 5
8209 8210 2
8209 8309 4
8209 8208 2
8210 8110 3
8210 8211 2
8210 8310 4
8210 8209 1
8211 8111 2
8211 8212 2
8211 8311 1
8211 8210 4
8212 8112 5
8212 8213 1
8212 8312 5
8212 8211 5
8213 8113 4
8213 8214 3
8213 8313 3
8213 8212 5
8214 8114 1
8214 8215 2
8214 8314 5
8214 8213 2
8215 8115 2
8215 8216 3
8215 8315 5
8215 8214 2
8216 8116 5
8216 8217 3
8216 8316 2
8216 8215 5
8217 8117 1
8217 8218 1
8217 8317 4
8217 8216 3
8218 8118 4
8218 8219 2
8218 8318 3
8218 8217 1
8219 8119 4
8219 8220 3
8219 8319 3
8219 8218 3
8220 8120 4
8220 8221 5
8220 8320 2
8220 8219 3
8221 8121 1
8221 8222 1
8221 8321 2
8221 8220 1
8222 8122 3
8222 8223 1
8222 8322 1
8222 8221 2
8223 8123 5
8223 8224 2
8223 8323 2
8223 8222 1
8224 8124 5
8224 8225 3
8224 8324 3
8224 8223 5
8225 8125 5
8225 8226 4
8225 8325 5
8225 8224 5
8226 8126 1
8226 8227 2
8226 8326 3
8226 8225 5
8227 8127 4
8227 8228 1
8227 8327 4
8227 8226 4
8228 8128 1
8228 8229 4
8228 8328 1
8228 8227 2
8229 8129 1
8229 8230 3
8229 8329 4
8229 8228 5
8230 8130 4
8230 8231 1
8230 8330 5
8230 8229 3
8231 8131 1
8231 8232 2
8231 8331 3
8231 8230 4
8232 8132 1
8232 8233 3
8232 8332 1
8232 8231 4
8233 8133 3
8233 8234 5
8233 8333 2
8233 8232 5
8234 8134 5
8234 8235 3
8234 8334 2
8234 8233 2
8235 8135 4
8235 8236 4
8235 8335 5
8235 8234 3
8236 8136 1
8236 8237 5
8236 8336 4
8236 8235 4
8237 8137 4
8237 8238 4
8237 8337 4
8237 8236 1
8238 8138 1
8238 8239 4
8238 8338 3
8238 8237 2
8239 8139 3
8239 8240 3
8239 8339 5
8239 8238 4
8240 8140 2
8240 8241 1
8240 8340 4
8240 8239 2
8241 8141 1
8241 8242 2
8241 8341 2
8241 8240 2
8242 8142 3
8242 8243 5
8242 8342 4
8242 8241 4
8243 8143 3
8243 8244 4
8243 8343 3
8243 8242 3
8244 8144 1
8244 8245 1
8244 8344 3
8244 8243 5
8245 8145 3
8245 8246 5
8245 8345 1
8245 8244 5
8246 8146 3
8246 8247 4
8246 8346 2
8246 8245 1
8247 8147 5
8247 8248 1
8247 8347 3
8247 8246 4
8248 8148 1
8248 8249 3
8248 8348 3
8248 8247 2
8249 8149 4
8249 8250 1
8249 8349 4
8249 8248 5
8250 8150 5
8250 8251 3
8250 8350 5
8250 8249 3
8251 8151 4
8251 8252 4
8251 8351 1
8251 8250 1
8252 8152 1
8252 8253 1
8252 8352 4
8252 8251 5
8253 8153 4
8253 8254 4
8253 8353 3
8253 8252 4
8254 8154 3
8254 8255 3
8254 8354 3
8254 8253 4
8255 8155 3
8255 8256 4
8255 8355 2
8255 8254 5
8256 8156 5
8256 8257 4
8256 8356 2
8256 8255 2
8257 8157 4
8257 8258 5
8257 8357 2
8257 8256 3
8258 8158 5
8258 8259 3
8258 8358 3
8258 8257 1
8259 8159 2
8259 8260 5
8259 8359 1
8259 8258 5
8260 8160 5
8260 8261 3
8260 8360 4
8260 8259 5
8261 8161 3
8261 8262 4
8261 8361 1
8261 8260 4
8262 8162 4
8262 8263 5
8262 8362 5
8262 8261 2
8263 8163 4
8263 8264 1
8263 8363 2
8263 8262 5
8264 8164 2
8264 8265 4
8264 8364 5
8264 8263 4
8265 8165 1
8265 8266 5
8265 8365 4
8265 8264 4
8266 8166 4
8266 8267 4
8266 8366 5
8266 8265 3
8267 8167 4
8267 8268 1
8267 8367 2
8267 8266 5
8268 8168 5
8268 8269 4
8268 8368 2
8268 8267 4
8269 8169 2
8269 8270 4
8269 8369 4
8269 8268 5
8270 8170 2
8270 8271 4
8270 8370 1
8270 8269 1
8271 8171 1
8271 8272 4
8271 8371 2
8271 8270 3
8272 8172 1
8272 8273 2
8272 8372 5
8272 8271 5
8273 8173 4
8273 8274 2
8273 8373 2
8273 8272 1
8274 8174 4
8274 8275 5
8274 8374 2
8274 8273 3
8275 8175 2
8275 8276 2
8275 8375 2
8275 8274 2
8276 8176 2
8276 8277 1
8276 8376 2
8276 8275 2
8277 8177 5
8277 8278 5
8277 8377 2
8277 8276 3
8278 8178 3
8278 8279 4
8278 8378 1
8278 8277 4
8279 8179 1
8279 8280 4
8279 8379 5
8279 8278 3
8280 8180 2
8280 8281 1
8280 8380 4
8280 8279 5
8281 8181 3
8281 8282 2
8281 8381 2
8281 8280 3
8282 8182 4
8282 8283 5
8282 8382 4
8282 8281 3
8283 8183 2
8283 8284 5
8283 8383 3
8283 8282 1
8284 8184 2
8284 8285 5
8284 8384 3
8284 8283 2
8285 8185 4
8285 8286 1
8285 8385 1
8285 8284 4
8286 8186 3
8286 8287 3
8286 8386 5
8286 8285 5
8287 8187 3
8287 8288 3
8287 8387 5
8287 8286 4
8288 8188 3
8288 8289 2
8288 8388 1
8288 8287 1
8289 8189 5
8289 8290 5
8289 8389 1
8289 8288 3
8290 8190 2
8290 8291 3
8290 8390 3
8290 8289 3
8291 8191 2
8291 8292 5
8291 8391 1
8291 8290 3
8292 8192 2
8292 8293 4
8292 8392 4
8292 8291 3
8293 8193 2
8293 8294 3
8293 8393 3
8293 8292 1
8294 8194 4
8294 8295 5
8294 8394 4
8294 8293 5
8295 8195 5
8295 8296 4
8295 8395 5
8295 8294 4
8296 8196 1
8296 8297 2
8296 8396 1
8296 8295 2
8297 8197 5
8297 8298 2
8297 8397 2
8297 8296 1
8298 8198 2
8298 8299 1
8298 8398 4
8298 8297 1
8299 8199 1
8299 8399 5
8299 8298 3
8300 8200 5
8300 8301 4
8300 8400 4
8301 8201 2
8301 8302 5
8301 8401 5
8301 8300 2
8302 8202 5
8302 8303 4
8302 8402 5
8302 8301 5
8303 8203 4
8303 8304 2
8303 8403 5
8303 8302 4
8304 8204 2
8304 8305 1
8304 8404 3
8304 8303 2
8305 8205 3
8305 8306 5
8305 8405 3
8305 8304 4
8306 8206 2
8306 8307 5
8306 8406 1
8306 8305 4
8307 8207 5
8307 8308 4
8307 8407 3
8307 8306 3
8308 8208 1
8308 8309 4
8308 8408 1
8308 8307 2
8309 8209 2
8309 8310 2
8309 8409 5
8309 8308 5
8310 8210 5
8310 8311 1
8310 8410 4
8310 8309 1
8311 8211 1
8311 8312 3
8311 8411 1
8311 8310 1
8312 8212 2
8312 8313 5
8312 8412 4
8312 8311 3
8313 8213 3
8313 8314 1
8313 8413 2
8313 8312 1
8314 8214 2
8314 8315 2
8314 8414 1
8314 8313 1
8315 8215 4
8315 8316 3
8315 8415 3
8315 8314 3
8316 8216 3
8316 8317 1
8316 8416 4
8316 8315 3
8317 8217 5
8317 8318 4
8317 8417 5
8317 8316 2
8318 8218 1
8318 8319 1
8318 8418 3
8318 8317 4
8319 8219 4
8319 8320 2
8319 8419 4
8319 8318 3
8320 8220 1
8320 8321 1
8320 8420 3
8320 8319 2
8321 8221 4
8321 8322 5
8321 8421 4
8321 8320 3
8322 8222 3
8322 8323 2
8322 8422 1
8322 8321 2
8323 8223 4
8323 8324 1
8323 8423 4
8323 8322 5
8324 8224 3
8324 8325 3
8324 8424 5
8324 8323 2
8325 8225 2
8325 8326 1
8325 8425 5
8325 8324 3
8326 8226 5
8326 8327 4
8326 8426 2
8326 8325 2
8327 8227 5
8327 8328 2
8327 8427 4
8327 8326 5
8328 8228 1
8328 8329 4
8328 8428 1
8328 8327 1
8329 8229 3
8329 8330 3
8329 8429 4
8329 8328 5
8330 8230 2
8330 8331 2
8330 8430 2
8330 8329 4
8331 8231 4
8331 8332 1
8331 8431 3
8331 8330 5
8332 8232 3
8332 8333 5
8332 8432 1
8332 8331 5
8333 8233 4
8333 8334 1
8333 8433 1
8333 8332 3
8334 8234 1
8334 8335 1
8334 8434 5
8334 8333 4
8335 8235 4
8335 8336 5
8335 8435 4
8335 8334 2
8336 8236 1
8336 8337 5
8336 8436 2
8336 8335 3
8337 8237 1
8337 8338 5
8337 8437 2
8337 8336 1
8338 8238 1
8338 8339 5
8338 8438 2
8338 8337 5
8339 8239 3
8339 8340 2
8339 8439 2
8339 8338 2
8340 8240 2
8340 8341 5
8340 8440 4
8340 8339 1
8341 8241 3
8341 8342 5
8341 8441 2
8341 8340 4
8342 8242 5
8342 8343 3
8342 8442 5
8342 8341 2
8343 8243 5
8343 8344 1
8343 8443 3
8343 8342 5
8344 8244 3
8344 8345 3
8344 8444 1
8344 8343 1
8345 8245 4
8345 8346 2
8345 8445 5
8345 8344 4
8346 8246 1
8346 8347 3
8346 8446 5
8346 8345 2
8347 8247 1
8347 8348 4
8347 8447 3
8347 8346 4
8348 8248 3
8348 8349 1
8348 8448 3
8348 8347 2
8349 8249 3
8349 8350 5
8349 8449 4
8349 8348 2
8350 8250 5
8350 8351 4
8350 8450 2
8350 8349 4
8351 8251 2
8351 8352 3
8351 8451 5
8351 8350 1
8352 8252 5
8352 8353 5
8352 8452 2
8352 8351 1
8353 8253 2
8353 8354 3
8353 8453 5
8353 8352 4
8354 8254 4
8354 8355 2
8354 8454 4
8354 8353 4
8355 8255 4
8355 8356 2
8355 8455 3
8355 8354 3
8356 8256 2
8356 8357 3
8356 8456 2
8356 8355 3
8357 8257 3
8357 8358 5
8357 8457 4
8357 8356 5
8358 8258 4
8358 8359 2
8358 8458 5
8358 8357 4
8359 8259 3
8359 8360 4
8359 8459 1
8359 8358 3
8360 8260 4
8360 8361 3
8360 8460 2
8360 8359 5
8361 8261 1
8361 8362 2
8361 8461 5
8361 8360 5
8362 8262 1
8362 8363 2
8362 8462 3
8362 8361 5
8363 8263 1
8363 8364 3
8363 8463 2
8363 8362 3
8364 8264 4
8364 8365 5
8364 8464 4
8364 8363 1
8365 8265 1
8365 8366 1
8365 8465 5
8365 8364 3
8366 8266 1
8366 8367 5
8366 8466 1
8366 8365 4
8367 8267 3
8367 8368 4
8367 8467 2
8367 8366 4
8368 8268 4
8368 8369 2
8368 8468 3
8368 8367 2
8369 8269 4
8369 8370 4
8369 8469 2
8369 8368 2
8370 8270 3
8370 8371 3
8370 8470 5
8370 8369 2
8371 8271 1
8371 8372 2
8371 8471 4
8371 8370 5
8372 8272 2
8372 8373 1
8372 8472 5
8372 8371 1
8373 8273 3
8373 8374 1
8373 8473 1
8373 8372 3
8374 8274 2
8374 8375 4
8374 8474 2
8374 8373 1
8375 8275 1
8375 8376 4
8375 8475 2
8375 8374 2
8376 8276 4
8376 8377 3
8376 8476 1
8376 8375 3
8377 8277 4
8377 8378 3
8377 8477 4
8377 8376 5
8378 8278 1
8378 8379 1
8378 8478 1
8378 8377 5
8379 8279 3
8379 8380 2
8379 8479 5
8379 8378 2
8380 8280 2
8380 8381 3
8380 8480 5
8380 8379 5
8381 8281 3
8381 8382 4
8381 8481 3
8381 8380 2
8382 8282 2
8382 8383 5
8382 8482 5
8382 8381 2
8383 8283 3
8383 8384 5
8383 8483 4
8383 8382 4
8384 8284 4
8384 8385 4
8384 8484 1
8384 8383 3
8385 8285 2
8385 8386 5
8385 8485 1
8385 8384 2
8386 8286 2
8386 8387 4
8386 8486 2
8386 8385 3
8387 8287 4
8387 8388 2
8387 8487 4
8387 8386 3
8388 8288 1
8388 8389 1
8388 8488 2
8388 8387 2
8389 8289 5
8389 8390 5
8389 8489 1
8389 8388 5
8390 8290 1
8390 8391 1
8390 8490 4
8390 8389 3
8391 8291 4
8391 8392 4
8391 8491 1
8391 8390 3
8392 8292 3
8392 8393 2
8392 8492 4
8392 8391 5
8393 8293 4
8393 8394 2
8393 8493 3
8393 8392 3
8394 8294 3
8394 8395 1
8394 8494 3
8394 8393 2
8395 8295 2
8395 8396 1
8395 8495 4
8395 8394 5
8396 8296 4
8396 8397 5
8396 8496 2
8396 8395 1
8397 8297 4
8397 8398 4
8397 8497 3
8397 8396 3
8398 8298 5
8398 8399 2
8398 8498 5
8398 8397 2
8399 8299 3
8399 8499 2
8399 8398 5
8400 8300 4
8400 8401 5
8400 8500 1
8401 8301 3
8401 8402 3
8401 8501 2
8401 8400 5
8402 8302 2
8402 8403 3
8402 8502 2
8402 8401 5
8403 8303 4
8403 8404 5
8403 8503 2
8403 8402 3
8404 8304 4
8404 8405 2
8404 8504 2
8404 8403 5
8405 8305 1
8405 8406 2
8405 8505 2
8405 8404 1
8406 8306 4
8406 8407 2
8406 8506 3
8406 8405 3
8407 8307 2
8407 8408 2
8407 8507 1
8407 8406 2
8408 8308 2
8408 8409 4
8408 8508 3
8408 8407 1
8409 8309 2
8409 8410 2
8409 8509 3
8409 8408 4
8410 8310 3
8410 8411 1
8410 8510 5
8410 8409 5
8411 8311 3
8411 8412 2
8411 8511 4
8411 8410 2
8412 8312 1
8412 8413 2
8412 8512 2
8412 8411 3
8413 8313 1
8413 8414 3
8413 8513 1
8413 8412 4
8414 8314 1
8414 8415 2
8414 8514 2
8414 8413 2
8415 8315 3
8415 8416 1
8415 8515 1
8415 8414 4
8416 8316 1
8416 8417 3
8416 8516 3
8416 8415 3
8417 8317 5
8417 8418 4
8417 8517 1
8417 8416 5
8418 8318 3
8418 8419 1
8418 8518 3
8418 8417 2
8419 8319 2
8419 8420 3
8419 8519 3
8419 8418 4
8420 8320 3
8420 8421 1
8420 8520 1
8420 8419 5
8421 8321 5
8421 8422 2
8421 8521 3
8421 8420 3
8422 8322 1
8422 8423 2
8422 8522 3
8422 8421 2
8423 8323 5
8423 8424 1
8423 8523 4
8423 8422 5
8424 8324 1
8424 8425 5
8424 8524 1
8424 8423 2
8425 8325 3
8425 8426 1
8425 8525 3
8425 8424 2
8426 8326 3
8426 8427 5
8426 8526 3
8426 8425 1
8427 8327 5
8427 8428 4
8427 8527 1
8427 8426 3
8428 8328 4
8428 8429 3
8428 8528 3
8428 8427 4
8429 8329 1
8429 8430 4
8429 8529 4
8429 8428 2
8430 8330 2
8430 8431 5
8430 8530 2
8430 8429 3
8431 8331 4
8431 8432 2
8431 8531 1
8431 8430 4
8432 8332 1
8432 8433 4
8432 8532 2
8432 8431 1
8433 8333 5
8433 8434 3
8433 8533 4
8433 8432 2
8434 8334 3
8434 8435 2
8434 8534 1
8434 8433 1
8435 8335 4
8435 8436 4
8435 8535 1
8435 8434 3
8436 8336 1
8436 8437 3
8436 8536 2
8436 8435 1
8437 8337 3
8437 8438 5
8437 8537 5
8437 8436 4
8438 8338 5
8438 8439 3
8438 8538 4
8438 8437 5
8439 8339 4
8439 8440 4
8439 8539 1
8439 8438 3
8440 8340 2
8440 8441 2
8440 8540 4
8440 8439 1
8441 8341 5
8441 8442 1
8441 8541 5
8441 8440 1
8442 8342 1
8442 8443 1
8442 8542 1
8442 8441 3
8443 8343 4
8443 8444 1
8443 8543 1
8443 8442 2
8444 8344 5
8444 8445 2
8444 8544 4
8444 8443 5
8445 8345 5
8445 8446 5
8445 8545 5
8445 8444 1
8446 8346 5
8446 8447 5
8446 8546 2
8446 8445 1
8447 8347 3
8447 8448 4
8447 8547 1
8447 8446 4
8448 8348 2
8448 8449 5
8448 8548 5
8448 8447 1
8449 8349 4
8449 8450 5
8449 8549 4
8449 8448 5
8450 8350 3
8450 8451 1
8450 8550 5
8450 8449 3
8451 8351 4
8451 8452 5
8451 8551 1
8451 8450 3
8452 8352 1
8452 8453 5
8452 8552 4
8452 8451 3
8453 8353 4
8453 8454 5
8453 8553 5
8453 8452 2
8454 8354 4
8454 8455 4
8454 8554 2
8454 8453 5
8455 8355 1
8455 8456 1
8455 8555 4
8455 8454 2
8456 8356 4
8456 8457 2
8456 8556 1
8456 8455 5
8457 8357 1
8457 8458 3
8457 8557 4
8457 8456 2
8458 8358 2
8458 8459 4
8458 8558 2
8458 8457 3
8459 8359 4
8459 8460 3
8459 8559 1
8459 8458 4
8460 8360 5
8460 8461 2
8460 8560 1
8460 8459 5
8461 8361 2
8461 8462 1
8461 8561 4
8461 8460 5
8462 8362 4
8462 8463 5
8462 8562 5
8462 8461 5
8463 8363 5
8463 8464 3
8463 8563 1
8463 8462 3
8464 8364 3
8464 8465 3
8464 8564 5
8464 8463 5
8465 8365 2
8465 8466 4
8465 8565 4
8465 8464 1
8466 8366 3
8466 8467 4
8466 8566 4
8466 8465 3
8467 8367 5
8467 8468 1
8467 8567 4
8467 8466 4
8468 8368 5
8468 8469 5
8468 8568 4
8468 8467 4
8469 8369 3
8469 8470 1
8469 8569 5
8469 8468 3
8470 8370 4
8470 8471 1
8470 8570 1
8470 8469 4
8471 8371 3
8471 8472 3
8471 8571 4
8471 8470 1
8472 8372 3
8472 8473 5
8472 8572 3
8472 8471 4
8473 8373 2
8473 8474 3
8473 8573 2
8473 8472 1
8474 8374 5
8474 8475 1
8474 8574 4
8474 8473 2
8475 8375 5
8475 8476 2
8475 8575 1
8475 8474 1
8476 8376 2
8476 8477 3
8476 8576 5
8476 8475 3
8477 8377 4
8477 8478 3
8477 8577 2
8477 8476 2
8478 8378 4
8478 8479 4
8478 8578 4
8478 8477 2
8479 8379 1
8479 8480 2
8479 8579 1
8479 8478 4
8480 8380 4
8480 8481 5
8480 8580 4
8480 8479 1
8481 8381 5
8481 8482 2
8481 8581 4
8481 8480 1
8482 8382 3
8482 8483 3
8482 8582 5
8482 8481 4
8483 8383 2
8483 8484 1
8483 8583 1
8483 8482 2
8484 8384 3
8484 8485 1
8484 8584 2
8484 8483 3
8485 8385 3
8485 8486 3
8485 8585 3
8485 8484 1
8486 8386 1
8486 8487 3
8486 8586 3
8486 8485 5
8487 8387 1
8487 8488 5
8487 8587 1
8487 8486 5
8488 8388 5
8488 8489 5
8488 8588 2
8488 8487 5
8489 8389 4
8489 8490 4
8489 8589 4
8489 8488 2
8490 8390 5
8490 8491 5
8490 8590 4
8490 8489 2
8491 8391 3
8491 8492 4
8491 8591 1
8491 8490 4
8492 8392 2
8492 8493 1
8492 8592 2
8492 8491 3
8493 8393 2
8493 8494 5
8493 8593 2
8493 8492 1
8494 8394 1
8494 8495 1
8494 8594 5
8494 8493 1
8495 8395 3
8495 8496 2
8495 8595 3
8495 8494 2
8496 8396 5
8496 8497 3
8496 8596 5
8496 8495 2
8497 8397 1
8497 8498 4
8497 8597 3
8497 8496 1
8498 8398 4
8498 8499 5
8498 8598 5
8498 8497 4
8499 8399 3
8499 8599 3
8499 8498 4
8500 8400 4
8500 8501 2
8500 8600 5
8501 8401 5
8501 8502 4
8501 8601 2
8501 8500 3
8502 8402 1
8502 8503 5
8502 8602 5
8502 8501 4
8503 8403 2
8503 8504 2
8503 8603 3
8503 8502 2
8504 8404 4
8504 8505 3
8504 8604 4
8504 8503 1
8505 8405 1
8505 8506 2
8505 8605 2
8505 8504 2
8506 8406 1
8506 8507 2
8506 8606 2
8506 8505 3
8507 8407 1
8507 8508 3
8507 8607 4
8507 8506 4
8508 8408 4
8508 8509 1
8508 8608 2
8508 8507 3
8509 8409 1
8509 8510 3
8509 8609 5
8509 8508 5
8510 8410 1
8510 8511 3
8510 8610 1
8510 8509 5
8511 8411 2
8511 8512 5
8511 8611 1
8511 8510 3
8512 8412 1
8512 8513 4
8512 8612 4
8512 8511 4
8513 8413 1
8513 8514 5
8513 8613 1
8513 8512 2
8514 8414 2
8514 8515 5
8514 8614 2
8514 8513 4
8515 8415 5
8515 8516 5
8515 8615 3
8515 8514 3
8516 8416 4
8516 8517 5
8516 8616 1
8516 8515 5
8517 8417 5
8517 8518 4
8517 8617 2
8517 8516 4
8518 8418 1
8518 8519 3
8518 8618 2
8518 8517 4
8519 8419 4
8519 8520 5
8519 8619 3
8519 8518 5
8520 8420 3
8520 8521 3
8520 8620 3
8520 8519 2
8521 8421 1
8521 8522 2
8521 8621 2
8521 8520 3
8522 8422 5
8522 8523 2
8522 8622 3
8522 8521 5
8523 8423 5
8523 8524 4
8523 8623 2
8523 8522 1
8524 8424 2
8524 8525 4
8524 8624 2
8524 8523 4
8525 8425 1
8525 8526 3
8525 8625 3
8525 8524 1
8526 8426 2
8526 8527 1
8526 8626 1
8526 8525 5
8527 8427 1
8527 8528 2
8527 8627 4
8527 8526 4
8528 8428 5
8528 8529 1
8528 8628 3
8528 8527 1
8529 8429 5
8529 8530 2
8529 8629 5
8529 8528 4
8530 8430 1
8530 8531 4
8530 8630 1
8530 8529 1
8531 8431 3
8531 8532 4
8531 8631 1
8531 8530 5
8532 8432 5
8532 8533 1
8532 8632 1
8532 8531 5
8533 8433 5
8533 8534 2
8533 8633 3
8533 8532 4
8534 8434 5
8534 8535 2
8534 8634 3
8534 8533 4
8535 8435 4
8535 8536 5
8535 8635 5
8535 8534 2
8536 8436 3
8536 8537 1
8536 8636 1
8536 8535 2
8537 8437 3
8537 8538 1
8537 8637 3
8537 8536 1
8538 8438 2
8538 8539 1
8538 8638 5
8538 8537 1
8539 8439 1
8539 8540 5
8539 8639 1
8539 8538 3
8540 8440 1
8540 8541 3
8540 8640 1
8540 8539 2
8541 8441 2
8541 8542 3
8541 8641 1
8541 8540 4
8542 8442 5
8542 8543 1
8542 8642 3
8542 8541 3
8543 8443 4
8543 8544 1
8543 8643 5
8543 8542 3
8544 8444 4
8544 8545 1
8544 8644 5
8544 8543 3
8545 8445 1
8545 8546 4
8545 8645 4
8545 8544 1
8546 8446 3
8546 8547 5
8546 8646 4
8546 8545 5
8547 8447 2
8547 8548 1
8547 8647 1
8547 8546 2
8548 8448 1
8548 8549 3
8548 8648 3
8548 8547 4
8549 8449 3
8549 8550 3
8549 8649 4
8549 8548 2
8550 8450 2
8550 8551 4
8550 8650 3
8550 8549 4
8551 8451 5
8551 8552 3
8551 8651 1
8551 8550 4
8552 8452 3
8552 8553 1
8552 8652 2
8552 8551 2
8553 8453 4
8553 8554 3
8553 8653 3
8553 8552 5
8554 8454 5
8554 8555 5
8554 8654 5
8554 8553 4
8555 8455 1
8555 8556 5
8555 8655 2
8555 8554 2
8556 8456 5
8556 8557 1
8556 8656 2
8556 8555 4
8557 8457 5
8557 8558 3
8557 8657 1
8557 8556 2
8558 8458 4
8558 8559 3
8558 8658 1
8558 8557 1
8559 8459 4
8559 8560 1
8559 8659 2
8559 8558 2
8560 8460 4
8560 8561 4
8560 8660 3
8560 8559 2
8561 8461 1
8561 8562 5
8561 8661 1
8561 8560 3
8562 8462 4
8562 8563 4
8562 8662 2
8562 8561 1
8563 8463 1
8563 8564 1
8563 8663 1
8563 8562 5
8564 8464 5
8564 8565 4
8564 8664 3
8564 8563 3
8565 8465 4
8565 8566 1
8565 8665 2
8565 8564 3
8566 8466 2
8566 8567 4
8566 8666 1
8566 8565 4
8567 8467 3
8567 8568 1
8567 8667 1
8567 8566 3
8568 8468 4
8568 8569 3
8568 8668 5
8568 8567 4
8569 8469 4
8569 8570 5
8569 8669 3
8569 8568 5
8570 8470 4
8570 8571 5
8570 8670 5
8570 8569 5
8571 8471 3
8571 8572 5
8571 8671 3
8571 8570 5
8572 8472 1
8572 8573 4
8572 8672 1
8572 8571 2
8573 8473 4
8573 8574 1
8573 8673 1
8573 8572 1
8574 8474 4
8574 8575 4
8574 8674 1
8574 8573 1
8575 8475 4
8575 8576 4
8575 8675 2
8575 8574 4
8576 8476 3
8576 8577 5
8576 8676 3
8576 8575 5
8577 8477 2
8577 8578 2
8577 8677 1
8577 8576 4
8578 8478 5
8578 8579 1
8578 8678 1
8578 8577 1
8579 8479 4
8579 8580 1
8579 8679 5
8579 8578 4
8580 8480 1
8580 8581 1
8580 8680 3
8580 8579 5
8581 8481 1
8581 8582 2
8581 8681 1
8581 8580 3
8582 8482 3
8582 8583 3
8582 8682 1
8582 8581 3
8583 8483 3
8583 8584 5
8583 8683 4
8583 8582 4
8584 8484 3
8584 8585 2
8584 8684 2
8584 8583 2
8585 8485 5
8585 8586 3
8585 8685 5
8585 8584 4
8586 8486 3
8586 8587 3
8586 8686 2
8586 8585 2
8587 8487 5
8587 8588 1
8587 8687 4
8587 8586 1
8588 8488 2
8588 8589 2
8588 8688 3
8588 8587 2
8589 8489 1
8589 8590 1
8589 8689 3
8589 8588 5
8590 8490 5
8590 8591 5
8590 8690 2
8590 8589 4
8591 8491 4
8591 8592 3
8591 8691 2
8591 8590 4
8592 8492 1
8592 8593 5
8592 8692 4
8592 8591 4
8593 8493 2
8593 8594 1
8593 8693 4
8593 8592 2
8594 8494 5
8594 8595 3
8594 8694 4
8594 8593 2
8595 8495 3
8595 8596 5
8595 8695 4
8595 8594 2
8596 8496 2
8596 8597 5
8596 8696 3
8596 8595 5
8597 8497 4
8597 8598 3
8597 8697 2
8597 8596 5
8598 8498 2
8598 8599 4
8598 8698 4
8598 8597 5
8599 8499 4
8599 8699 1
8599 8598 3
8600 8500 1
8600 8601 2
8600 8700 3
8601 8501 5
8601 8602 2
8601 8701 1
8601 8600 4
8602 8502 5
8602 8603 4
8602 8702 4
8602 8601 1
8603 8503 4
8603 8604 1
8603 8703 3
8603 8602 3
8604 8504 5
8604 8605 1
8604 8704 4
8604 8603 2
8605 8505 3
8605 8606 4
8605 8705 5
8605 8604 2
8606 8506 1
8606 8607 1
8606 8706 4
8606 8605 2
8607 8507 3
8607 8608 1
8607 8707 4
8607 8606 5
8608 8508 5
8608 8609 5
8608 8708 2
8608 8607 3
8609 8509 3
8609 8610 4
8609 8709 3
8609 8608 4
8610 8510 2
8610 8611 5
8610 8710 5
8610 8609 5
8611 8511 4
8611 8612 1
8611 8711 1
8611 8610 3
8612 8512 3
8612 8613 3
8612 8712 4
8612 8611 1
8613 8513 2
8613 8614 5
8613 8713 2
8613 8612 3
8614 8514 2
8614 8615 4
8614 8714 1
8614 8613 5
8615 8515 4
8615 8616 4
8615 8715 5
8615 8614 2
8616 8516 3
8616 8617 3
8616 8716 2
8616 8615 5
8617 8517 1
8617 8618 3
8617 8717 1
8617 8616 5
8618 8518 2
8618 8619 4
8618 8718 1
8618 8617 1
8619 8519 1
8619 8620 1
8619 8719 1
8619 8618 1
8620 8520 1
8620 8621 3
8620 8720 4
8620 8619 1
8621 8521 4
8621 8622 1
8621 8721 5
8621 8620 4
8622 8522 2
8622 8623 5
8622 8722 3
8622 8621 3
8623 8523 5
8623 8624 5
8623 8723 1
8623 8622 2
8624 8524 1
8624 8625 2
8624 8724 1
8624 8623 1
8625 8525 5
8625 8626 5
8625 8725 2
8625 8624 2
8626 8526 5
8626 8627 3
8626 8726 4
8626 8625 5
8627 8527 5
8627 8628 1
8627 8727 5
8627 8626 4
8628 8528 4
8628 8629 2
8628 8728 2
8628 8627 2
8629 8529 1
8629 8630 1
8629 8729 3
8629 8628 3
8630 8530 5
8630 8631 1
8630 8730 4
8630 8629 4
8631 8531 2
8631 8632 4
8631 8731 3
8631 8630 3
8632 8532 4
8632 8633 1
8632 8732 5
8632 8631 2
8633 8533 2
8633 8634 1
8633 8733 5
8633 8632 5
8634 8534 2
8634 8635 2
8634 8734 1
8634 8633 4
8635 8535 2
8635 8636 1
8635 8735 5
8635 8634 4
8636 8536 3
8636 8637 1
8636 8736 4
8636 8635 4
8637 8537 1
8637 8638 2
8637 8737 1
8637 8636 2
8638 8538 2
8638 8639 4
8638 8738 3
8638 8637 1
8639 8539 4
8639 8640 5
8639 8739 2
8639 8638 4
8640 8540 5
8640 8641 2
8640 8740 3
8640 8639 5
8641 8541 5
8641 8642 1
8641 8741 4
8641 8640 4
8642 8542 4
8642 8643 3
8642 8742 1
8642 8641 2
8643 8543 2
8643 8644 2
8643 8743 5
8643 8642 1
8644 8544 5
8644 8645 2
8644 8744 2
8644 8643 3
8645 8545 2
8645 8646 5
8645 8745 2
8645 8644 4
8646 8546 4
8646 8647 1
8646 8746 2
8646 8645 4
8647 8547 5
8647 8648 2
8647 8747 4
8647 8646 5
8648 8548 3
8648 8649 5
8648 8748 5
8648 8647 5
8649 8549 3
8649 8650 2
8649 8749 2
8649 8648 3
8650 8550 2
8650 8651 5
8650 8750 4
8650 8649 3
8651 8551 3
8651 8652 3
8651 8751 5
8651 8650 3
8652 8552 2
8652 8653 4
8652 8752 5
8652 8651 4
8653 8553 5
8653 8654 1
8653 8753 1
8653 8652 1
8654 8554 3
8654 8655 2
8654 8754 2
8654 8653 1
8655 8555 4
8655 8656 3
8655 8755 1
8655 8654 5
8656 8556 5
8656 8657 1
8656 8756 3
8656 8655 5
8657 8557 4
8657 8658 4
8657 8757 1
8657 8656 3
8658 8558 3
8658 8659 3
8658 8758 5
8658 8657 1
8659 8559 4
8659 8660 2
8659 8759 4
8659 8658 5
8660 8560 4
8660 8661 5
8660 8760 1
8660 8659 2
8661 8561 3
8661 8662 5
8661 8761 1
8661 8660 2
8662 8562 1
8662 8663 3
8662 8762 4
8662 8661 2
8663 8563 4
8663 8664 2
8663 8763 1
8663 8662 4
8664 8564 2
8664 8665 4
8664 8764 4
8664 8663 1
8665 8565 2
8665 8666 2
8665 8765 2
8665 8664 3
8666 8566 5
8666 8667 3
8666 8766 1
8666 8665 5
8667 8567 1
8667 8668 2
8667 8767 5
8667 8666 3
8668 8568 3
8668 8669 5
8668 8768 5
8668 8667 5
8669 8569 4
8669 8670 4
8669 8769 2
8669 8668 4
8670 8570 5
8670 8671 2
8670 8770 5
8670 8669 3
8671 8571 4
8671 8672 5
8671 8771 3
8671 8670 3
8672 8572 1
8672 8673 5
8672 8772 2
8672 8671 3
8673 8573 4
8673 8674 3
8673 8773 1
8673 8672 1
8674 8574 1
8674 8675 4
8674 8774 2
8674 8673 4
8675 8575 4
8675 8676 1
8675 8775 2
8675 8674 5
8676 8576 4
8676 8677 2
8676 8776 3
8676 8675 4
8677 8577 4
8677 8678 4
8677 8777 1
8677 8676 1
8678 8578 2
8678 8679 3
8678 8778 5
8678 8677 3
8679 8579 2
8679 8680 2
8679 8779 2
8679 8678 1
8680 8580 1
8680 8681 5
8680 8780 1
8680 8679 3
8681 8581 4
8681 8682 2
8681 8781 1
8681 8680 5
8682 8582 2
8682 8683 5
8682 8782 2
8682 8681 3
8683 8583 5
8683 8684 2
8683 8783 5
8683 8682 4
8684 8584 2
8684 8685 2
8684 8784 1
8684 8683 1
8685 8585 4
8685 8686 5
8685 8785 5
8685 8684 2
8686 8586 1
8686 8687 2
8686 8786 4
8686 8685 2
8687 8587 4
8687 8688 3
8687 8787 3
8687 8686 5
8688 8588 3
8688 8689 2
8688 8788 2
8688 8687 1
8689 8589 4
8689 8690 2
8689 8789 1
8689 8688 1
8690 8590 5
8690 8691 4
8690 8790 1
8690 8689 5
8691 8591 3
8691 8692 2
8691 8791 5
8691 8690 4
8692 8592 3
8692 8693 1
8692 8792 4
8692 8691 2
8693 8593 4
8693 8694 5
8693 8793 4
8693 8692 2
8694 8594 4
8694 8695 3
8694 8794 1
8694 8693 2
8695 8595 5
8695 8696 3
8695 8795 3
8695 8694 3
8696 8596 1
8696 8697 1
8696 8796 1
8696 8695 3
8697 8597 1
8697 8698 1
8697 8797 5
8697 8696 1
8698 8598 5
8698 8699 3
8698 8798 5
8698 8697 3
8699 8599 2
8699 8799 2
8699 8698 4
8700 8600 2
8700 8701 2
8700 8800 1
8701 8601 1
8701 8702 2
8701 8801 4
8701 8700 1
8702 8602 4
8702 8703 2
8702 8802 2
8702 8701 2
8703 8603 3
8703 8704 1
8703 8803 2
8703 8702 5
8704 8604 2
8704 8705 1
8704 8804 2
8704 8703 3
8705 8605 2
8705 8706 3
8705 8805 2
8705 8704 4
8706 8606 3
8706 8707 2
8706 8806 5
8706 8705 1
8707 8607 4
8707 8708 5
8707 8807 2
8707 8706 5
8708 8608 1
8708 8709 5
8708 8808 1
8708 8707 4
8709 8609 4
8709 8710 2
8709 8809 1
8709 8708 4
8710 8610 4
8710 8711 5
8710 8810 4
8710 8709 5
8711 8611 4
8711 8712 3
8711 8811 1
8711 8710 2
8712 8612 2
8712 8713 1
8712 8812 3
8712 8711 3
8713 8613 3
8713 8714 3
8713 8813 1
8713 8712 1
8714 8614 4
8714 8715 1
8714 8814 4
8714 8713 4
8715 8615 3
8715 8716 5
8715 8815 4
8715 8714 1
8716 8616 1
8716 8717 5
8716 8816 3
8716 8715 3
8717 8617 3
8717 8718 5
8717 8817 1
8717 8716 1
8718 8618 3
8718 8719 1
8718 8818 4
8718 8717 4
8719 8619 3
8719 8720 2
8719 8819 5
8719 8718 4
8720 8620 2
8720 8721 5
8720 8820 1
8720 8719 5
8721 8621 2
8721 8722 3
8721 8821 1
8721 8720 1
8722 8622 3
8722 8723 1
8722 8822 3
8722 8721 1
8723 8623 5
8723 8724 4
8723 8823 5
8723 8722 5
8724 8624 4
8724 8725 1
8724 8824 2
8724 8723 1
8725 8625 3
8725 8726 2
8725 8825 3
8725 8724 3
8726 8626 2
8726 8727 2
8726 8826 2
8726 8725 2
8727 8627 5
8727 8728 1
8727 8827 3
8727 8726 5
8728 8628 5
8728 8729 2
8728 8828 4
8728 8727 4
8729 8629 3
8729 8730 2
8729 8829 3
8729 8728 3
8730 8630 1
8730 8731 3
8730 8830 4
8730 8729 4
8731 8631 2
8731 8732 3
8731 8831 2
8731 8730 5
8732 8632 3
8732 8733 1
8732 8832 1
8732 8731 1
8733 8633 1
8733 8734 3
8733 8833 2
8733 8732 3
8734 8634 3
8734 8735 5
8734 8834 4
8734 8733 2
8735 8635 4
8735 8736 4
8735 8835 5
8735 8734 5
8736 8636 5
8736 8737 2
8736 8836 4
8736 8735 1
8737 8637 2
8737 8738 1
8737 8837 4
8737 8736 3
8738 8638 5
8738 8739 5
8738 8838 1
8738 8737 2
8739 8639 1
8739 8740 3
8739 8839 3
8739 8738 5
8740 8640 5
8740 8741 1
8740 8840 5
8740 8739 4
8741 8641 1
8741 8742 5
8741 8841 4
8741 8740 1
8742 8642 3
8742 8743 2
8742 8842 2
8742 8741 5
8743 8643 2
8743 8744 3
8743 8843 3
8743 8742 3
8744 8644 3
8744 8745 5
8744 8844 2
8744 8743 1
8745 8645 3
8745 8746 3
8745 8845 5
8745 8744 4
8746 8646 4
8746 8747 3
8746 8846 4
8746 8745 4
8747 8647 5
8747 8748 5
8747 8847 1
8747 8746 1
8748 8648 2
8748 8749 4
8748 8848 5
8748 8747 5
8749 8649 2
8749 8750 1
8749 8849 3
8749 8748 3
8750 8650 4
8750 8751 4
8750 8850 2
8750 8749 4
8751 8651 3
8751 8752 3
8751 8851 1
8751 8750 1
8752 8652 4
8752 8753 1
8752 8852 5
8752 8751 5
8753 8653 3
8753 8754 5
8753 8853 5
8753 8752 4
8754 8654 1
8754 8755 1
8754 8854 3
8754 8753 2
8755 8655 2
8755 8756 1
8755 8855 2
8755 8754 2
8756 8656 4
8756 8757 5
8756 8856 5
8756 8755 4
8757 8657 1
8757 8758 1
8757 8857 5
8757 8756 2
8758 8658 3
8758 8759 4
8758 8858 4
8758 8757 1
8759 8659 2
8759 8760 5
8759 8859 5
8759 8758 5
8760 8660 5
8760 8761 5
8760 8860 2
8760 8759 1
8761 8661 4
8761 8762 3
8761 8861 4
8761 8760 1
8762 8662 1
8762 8763 2
8762 8862 5
8762 8761 5
8763 8663 4
8763 8764 5
8763 8863 5
8763 8762 2
8764 8664 4
8764 8765 1
8764 8864 3
8764 8763 4
8765 8665 1
8765 8766 2
8765 8865 2
8765 8764 5
8766 8666 4
8766 8767 5
8766 8866 5
8766 8765 3
8767 8667 2
8767 8768 5
8767 8867 3
8767 8766 5
8768 8668 5
8768 8769 5
8768 8868 4
8768 8767 5
8769 8669 1
8769 8770 5
8769 8869 3
8769 8768 2
8770 8670 5
8770 8771 4
8770 8870 4
8770 8769 2
8771 8671 1
8771 8772 5
8771 8871 1
8771 8770 1
8772 8672 4
8772 8773 2
8772 8872 4
8772 8771 5
8773 8673 3
8773 8774 5
8773 8873 5
8773 8772 5
8774 8674 3
8774 8775 3
8774 8874 3
8774 8773 4
8775 8675 3
8775 8776 3
8775 8875 3
8775 8774 1
8776 8676 1
8776 8777 4
8776 8876 4
8776 8775 5
8777 8677 2
8777 8778 4
8777 8877 2
8777 8776 4
8778 8678 3
8778 8779 3
8778 8878 2
8778 8777 3
8779 8679 4
8779 8780 3
8779 8879 5
8779 8778 1
8780 8680 4
8780 8781 1
8780 8880 3
8780 8779 2
8781 8681 3
8781 8782 5
8781 8881 5
8781 8780 2
8782 8682 5
8782 8783 5
8782 8882 3
8782 8781 5
8783 8683 1
8783 8784 4
8783 8883 5
8783 8782 5
8784 8684 4
8784 8785 3
8784 8884 5
8784 8783 3
8785 8685 4
8785 8786 5
8785 8885 2
8785 8784 4
8786 8686 3
8786 8787 4
8786 8886 5
8786 8785 1
8787 8687 4
8787 8788 4
8787 8887 5
8787 8786 3
8788 8688 2
8788 8789 3
8788 8888 1
8788 8787 4
8789 8689 2
8789 8790 1
8789 8889 4
8789 8788 1
8790 8690 4
8790 8791 4
8790 8890 4
8790 8789 1
8791 8691 2
8791 8792 3
8791 8891 1
8791 8790 1
8792 8692 4
8792 8793 5
8792 8892 5
8792 8791 2
8793 8693 4
8793 8794 5
8793 8893 2
8793 8792 2
8794 8694 2
8794 8795 2
8794 8894 5
8794 8793 3
8795 8695 3
8795 8796 1
8795 8895 2
8795 8794 2
8796 8696 4
8796 8797 5
8796 8896 5
8796 8795 5
8797 8697 3
8797 8798 2
8797 8897 5
8797 8796 3
8798 8698 1
8798 8799 2
8798 8898 2
8798 8797 1
8799 8699 2
8799 8899 4
8799 8798 3
8800 8700 2
8800 8801 2
8800 8900 4
8801 8701 2
8801 8802 3
8801 8901 3
8801 8800 1
8802 8702 3
8802 8803 5
8802 8902 4
8802 8801 2
8803 8703 3
8803 8804 5
8803 8903 1
8803 8802 2
8804 8704 2
8804 8805 2
8804 8904 2
8804 8803 3
8805 8705 4
8805 8806 4
8805 8905 1
8805 8804 3
8806 8706 4
8806 8807 5
8806 8906 3
8806 8805 1
8807 8707 5
8807 8808 2
8807 8907 3
8807 8806 3
8808 8708 3
8808 8809 3
8808 8908 4
8808 8807 1
8809 8709 2
8809 8810 1
8809 8909 1
8809 8808 4
8810 8710 1
8810 8811 4
8810 8910 3
8810 8809 1
8811 8711 2
8811 8812 4
8811 8911 3
8811 8810 3
8812 8712 3
8812 8813 5
8812 8912 3
8812 8811 4
8813 8713 4
8813 8814 1
8813 8913 2
8813 8812 1
8814 8714 5
8814 8815 5
8814 8914 2
8814 8813 5
8815 8715 1
8815 8816 2
8815 8915 4
8815 8814 1
8816 8716 4
8816 8817 3
8816 8916 1
8816 8815 4
8817 8717 4
8817 8818 1
8817 8917 2
8817 8816 2
8818 8718 2
8818 8819 5
8818 8918 2
8818 8817 1
8819 8719 3
8819 8820 4
8819 8919 3
8819 8818 3
8820 8720 4
8820 8821 5
8820 8920 3
8820 8819 2
8821 8721 1
8821 8822 3
8821 8921 3
8821 8820 3
8822 8722 3
8822 8823 3
8822 8922 5
8822 8821 3
8823 8723 1
8823 8824 2
8823 8923 4
8823 8822 2
8824 8724 3
8824 8825 4
8824 8924 1
8824 8823 4
8825 8725 4
8825 8826 4
8825 8925 5
8825 8824 5
8826 8726 3
8826 8827 2
8826 8926 2
8826 8825 2
8827 8727 4
8827 8828 4
8827 8927 2
8827 8826 5
8828 8728 5
8828 8829 1
8828 8928 3
8828 8827 4
8829 8729 1
8829 8830 1
8829 8929 5
8829 8828 2
8830 8730 2
8830 8831 4
8830 8930 5
8830 8829 4
8831 8731 2
8831 8832 4
8831 8931 5
8831 8830 1
8832 8732 2
8832 8833 2
8832 8932 2
8832 8831 1
8833 8733 5
8833 8834 4
8833 8933 3
8833 8832 3
8834 8734 1
8834 8835 4
8834 8934 1
8834 8833 4
8835 8735 5
8835 8836 1
8835 8935 4
8835 8834 4
8836 8736 1
8836 8837 1
8836 8936 3
8836 8835 1
8837 8737 2
8837 8838 1
8837 8937 1
8837 8836 2
8838 8738 5
8838 8839 2
8838 8938 3
8838 8837 3
8839 8739 5
8839 8840 1
8839 8939 4
8839 8838 4
8840 8740 5
8840 8841 4
8840 8940 2
8840 8839 1
8841 8741 4
8841 8842 2
8841 8941 1
8841 8840 5
8842 8742 2
8842 8843 2
8842 8942 2
8842 8841 5
8843 8743 1
8843 8844 5
8843 8943 2
8843 8842 5
8844 8744 4
8844 8845 5
8844 8944 2
8844 8843 1
8845 8745 1
8845 8846 3
8845 8945 2
8845 8844 1
8846 8746 4
8846 8847 1
8846 8946 2
8846 8845 2
8847 8747 4
8847 8848 1
8847 8947 1
8847 8846 5
8848 8748 2
8848 8849 2
8848 8948 5
8848 8847 2
8849 8749 4
8849 8850 4
8849 8949 3
8849 8848 2
8850 8750 4
8850 8851 1
8850 8950 3
8850 8849 3
8851 8751 5
8851 8852 5
8851 8951 3
8851 8850 4
8852 8752 5
8852 8853 5
8852 8952 4
8852 8851 2
8853 8753 5
8853 8854 2
8853 8953 1
8853 8852 4
8854 8754 2
8854 8855 2
8854 8954 2
8854 8853 5
8855 8755 1
8855 8856 1
8855 8955 2
8855 8854 4
8856 8756 5
8856 8857 5
8856 8956 1
8856 8855 3
8857 8757 3
8857 8858 4
8857 8957 4
8857 8856 3
8858 8758 5
8858 8859 5
8858 8958 3
8858 8857 2
8859 8759 3
8859 8860 4
8859 8959 4
8859 8858 1
8860 8760 5
8860 8861 4
8860 8960 1
8860 8859 4
8861 8761 3
8861 8862 4
8861 8961 2
8861 8860 3
8862 8762 3
8862 8863 2
8862 8962 3
8862 8861 4
8863 8763 2
8863 8864 4
8863 8963 5
8863 8862 4
8864 8764 3
8864 8865 4
8864 8964 4
8864 8863 5
8865 8765 5
8865 8866 3
8865 8965 1
8865 8864 4
8866 8766 1
8866 8867 5
8866 8966 3
8866 8865 4
8867 8767 3
8867 8868 4
8867 8967 4
8867 8866 4
8868 8768 1
8868 8869 4
8868 8968 1
8868 8867 2
8869 8769 5
8869 8870 5
8869 8969 5
8869 8868 5
8870 8770 4
8870 8871 2
8870 8970 5
8870 8869 3
8871 8771 2
8871 8872 4
8871 8971 5
8871 8870 1
8872 8772 5
8872 8873 2
8872 8972 5
8872 8871 2
8873 8773 4
8873 8874 1
8873 8973 4
8873 8872 3
8874 8774 1
8874 8875 4
8874 8974 1
8874 8873 1
8875 8775 3
8875 8876 2
8875 8975 4
8875 8874 1
8876 8776 5
8876 8877 4
8876 8976 1
8876 8875 3
8877 8777 4
8877 8878 4
8877 8977 5
8877 8876 5
8878 8778 1
8878 8879 2
8878 8978 1
8878 8877 4
8879 8779 4
8879 8880 3
8879 8979 4
8879 8878 5
8880 8780 3
8880 8881 1
8880 8980 2
8880 8879 4
8881 8781 5
8881 8882 5
8881 8981 2
8881 8880 1
8882 8782 2
8882 8883 3
8882 8982 2
8882 8881 5
8883 8783 3
8883 8884 2
8883 8983 3
8883 8882 3
8884 8784 1
8884 8885 4
8884 8984 1
8884 8883 1
8885 8785 5
8885 8886 5
8885 8985 1
8885 8884 5
8886 8786 5
8886 8887 3
8886 8986 5
8886 8885 1
8887 8787 5
8887 8888 4
8887 8987 1
8887 8886 1
8888 8788 4
8888 8889 1
8888 8988 5
8888 8887 4
8889 8789 4
8889 8890 1
8889 8989 3
8889 8888 2
8890 8790 1
8890 8891 4
8890 8990 4
8890 8889 1
8891 8791 1
8891 8892 4
8891 8991 3
8891 8890 1
8892 8792 3
8892 8893 2
8892 8992 2
8892 8891 4
8893 8793 5
8893 8894 5
8893 8993 3
8893 8892 4
8894 8794 5
8894 8895 4
8894 8994 4
8894 8893 2
8895 8795 3
8895 8896 4
8895 8995 1
8895 8894 1
8896 8796 3
8896 8897 1
8896 8996 1
8896 8895 1
8897 8797 5
8897 8898 1
8897 8997 1
8897 8896 4
8898 8798 1
8898 8899 1
8898 8998 4
8898 8897 5
8899 8799 3
8899 8999 1
8899 8898 2
8900 8800 1
8900 8901 3
8900 9000 1
8901 8801 2
8901 8902 3
8901 9001 3
8901 8900 5
8902 8802 4
8902 8903 2
8902 9002 2
8902 8901 5
8903 8803 2
8903 8904 1
8903 9003 1
8903 8902 1
8904 8804 2
8904 8905 5
8904 9004 4
8904 8903 3
8905 8805 5
8905 8906 5
8905 9005 4
8905 8904 3
8906 8806 4
8906 8907 3
8906 9006 2
8906 8905 5
8907 8807 4
8907 8908 3
8907 9007 5
8907 8906 4
8908 8808 3
8908 8909 3
8908 9008 2
8908 8907 3
8909 8809 2
8909 8910 4
8909 9009 5
8909 8908 3
8910 8810 2
8910 8911 1
8910 9010 3
8910 8909 1
8911 8811 4
8911 8912 3
8911 9011 1
8911 8910 3
8912 8812 2
8912 8913 4
8912 9012 3
8912 8911 1
8913 8813 3
8913 8914 1
8913 9013 2
8913 8912 2
8914 8814 4
8914 8915 5
8914 9014 2
8914 8913 4
8915 8815 4
8915 8916 4
8915 9015 5
8915 8914 5
8916 8816 4
8916 8917 4
8916 9016 5
8916 8915 1
8917 8817 4
8917 8918 1
8917 9017 5
8917 8916 3
8918 8818 3
8918 8919 4
8918 9018 1
8918 8917 4
8919 8819 3
8919 8920 5
8919 9019 1
8919 8918 3
8920 8820 5
8920 8921 3
8920 9020 5
8920 8919 4
8921 8821 5
8921 8922 5
8921 9021 1
8921 8920 3
8922 8822 3
8922 8923 5
8922 9022 5
8922 8921 1
8923 8823 5
8923 8924 1
8923 9023 2
8923 8922 3
8924 8824 5
8924 8925 4
8924 9024 2
8924 8923 3
8925 8825 1
8925 8926 3
8925 9025 4
8925 8924 3
8926 8826 3
8926 8927 3
8926 9026 1
8926 8925 5
8927 8827 5
8927 8928 5
8927 9027 5
8927 8926 4
8928 8828 2
8928 8929 2
8928 9028 3
8928 8927 3
8929 8829 2
8929 8930 3
8929 9029 2
8929 8928 4
8930 8830 5
8930 8931 1
8930 9030 1
8930 8929 1
8931 8831 1
8931 8932 1
8931 9031 5
8931 8930 3
8932 8832 1
8932 8933 5
8932 9032 3
8932 8931 4
8933 8833 4
8933 8934 5
8933 9033 5
8933 8932 5
8934 8834 3
8934 8935 5
8934 9034 2
8934 8933 2
8935 8835 1
8935 8936 2
8935 9035 3
8935 8934 5
8936 8836 4
8936 8937 1
8936 9036 5
8936 8935 2
8937 8837 1
8937 8938 4
8937 9037 2
8937 8936 3
8938 8838 5
8938 8939 1
8938 9038 1
8938 8937 2
8939 8839 2
8939 8940 4
8939 9039 3
8939 8938 2
8940 8840 3
8940 8941 5
8940 9040 4
8940 8939 2
8941 8841 1
8941 8942 3
8941 9041 3
8941 8940 3
8942 8842 5
8942 8943 2
8942 9042 5
8942 8941 5
8943 8843 4
8943 8944 5
8943 9043 1
8943 8942 5
8944 8844 2
8944 8945 1
8944 9044 3
8944 8943 4
8945 8845 3
8945 8946 5
8945 9045 5
8945 8944 3
8946 8846 4
8946 8947 3
8946 9046 4
8946 8945 1
8947 8847 3
8947 8948 2
8947 9047 5
8947 8946 2
8948 8848 4
8948 8949 1
8948 9048 4
8948 8947 5
8949 8849 3
8949 8950 4
8949 9049 2
8949 8948 1
8950 8850 3
8950 8951 4
8950 9050 1
8950 8949 4
8951 8851 2
8951 8952 4
8951 9051 3
8951 8950 5
8952 8852 1
8952 8953 3
8952 9052 3
8952 8951 2
8953 8853 5
8953 8954 2
8953 9053 4
8953 8952 4
8954 8854 4
8954 8955 5
8954 9054 5
8954 8953 5
8955 8855 5
8955 8956 4
8955 9055 5
8955 8954 5
8956 8856 5
8956 8957 4
8956 9056 4
8956 8955 3
8957 8857 3
8957 8958 3
8957 9057 3
8957 8956 5
8958 8858 3
8958 8959 4
8958 9058 3
8958 8957 1
8959 8859 2
8959 8960 3
8959 9059 1
8959 8958 1
8960 8860 5
8960 8961 2
8960 9060 5
8960 8959 2
8961 8861 4
8961 8962 1
8961 9061 3
8961 8960 5
8962 8862 4
8962 8963 2
8962 9062 4
8962 8961 3
8963 8863 1
8963 8964 5
8963 9063 2
8963 8962 3
8964 8864 4
8964 8965 2
8964 9064 5
8964 8963 5
8965 8865 1
8965 8966 1
8965 9065 2
8965 8964 3
8966 8866 5
8966 8967 3
8966 9066 3
8966 8965 4
8967 8867 5
8967 8968 2
8967 9067 4
8967 8966 3
8968 8868 4
8968 8969 1
8968 9068 1
8968 8967 3
8969 8869 4
8969 8970 5
8969 9069 4
8969 8968 2
8970 8870 2
8970 8971 2
8970 9070 1
8970 8969 4
8971 8871 1
8971 8972 4
8971 9071 3
8971 8970 5
8972 8872 3
8972 8973 5
8972 9072 1
8972 8971 3
8973 8873 2
8973 8974 1
8973 9073 4
8973 8972 1
8974 8874 2
8974 8975 2
8974 9074 4
8974 8973 3
8975 8875 2
8975 8976 2
8975 9075 1
8975 8974 2
8976 8876 4
8976 8977 2
8976 9076 4
8976 8975 1
8977 8877 5
8977 8978 4
8977 9077 2
8977 8976 3
8978 8878 3
8978 8979 4
8978 9078 3
8978 8977 4
8979 8879 2
8979 8980 1
8979 9079 1
8979 8978 2
8980 8880 1
8980 8981 2
8980 9080 5
8980 8979 1
8981 8881 4
8981 8982 5
8981 9081 2
8981 8980 5
8982 8882 4
8982 8983 5
8982 9082 1
8982 8981 4
8983 8883 4
8983 8984 1
8983 9083 3
8983 8982 3
8984 8884 3
8984 8985 5
8984 9084 5
8984 8983 3
8985 8885 5
8985 8986 4
8985 9085 4
8985 8984 2
8986 8886 3
8986 8987 4
8986 9086 3
8986 8985 3
8987 8887 1
8987 8988 5
8987 9087 1
8987 8986 2
8988 8888 5
8988 8989 5
8988 9088 2
8988 8987 3
8989 8889 2
8989 8990 1
8989 9089 2
8989 8988 5
8990 8890 5
8990 8991 4
8990 9090 4
8990 8989 5
8991 8891 1
8991 8992 3
8991 9091 5
8991 8990 3
8992 8892 4
8992 8993 5
8992 9092 5
8992 8991 5
8993 8893 3
8993 8994 2
8993 9093 5
8993 8992 5
8994 8894 2
8994 8995 5
8994 9094 3
8994 8993 4
8995 8895 1
8995 8996 3
8995 9095 2
8995 8994 1
8996 8896 2
8996 8997 1
8996 9096 2
8996 8995 2
8997 8897 5
8997 8998 5
8997 9097 5
8997 8996 4
8998 8898 1
8998 8999 2
8998 9098 2
8998 8997 2
8999 8899 1
8999 9099 2
8999 8998 4
9000 8900 4
9000 9001 5
9000 9100 4
9001 8901 3
9001 9002 2
9001 9101 4
9001 9000 4
9002 8902 5
9002 9003 4
9002 9102 2
9002 9001 4
9003 8903 5
9003 9004 3
9003 9103 2
9003 9002 4
9004 8904 2
9004 9005 5
9004 9104 4
9004 9003 4
9005 8905 1
9005 9006 2
9005 9105 2
9005 9004 1
9006 8906 5
9006 9007 4
9006 9106 4
9006 9005 5
9007 8907 2
9007 9008 3
9007 9107 4
9007 9006 1
9008 8908 1
9008 9009 4
9008 9108 2
9008 9007 5
9009 8909 2
9009 9010 2
9009 9109 3
9009 9008 3
9010 8910 3
9010 9011 4
9010 9110 2
9010 9009 3
9011 8911 4
9011 9012 2
9011 9111 2
9011 9010 2
9012 8912 4
9012 9013 4
9012 9112 1
9012 9011 1
9013 8913 3
9013 9014 3
9013 9113 2
9013 9012 3
9014 8914 5
9014 9015 3
9014 9114 5
9014 9013 4
9015 8915 2
9015 9016 1
9015 9115 2
9015 9014 4
9016 8916 2
9016 9017 2
9016 9116 2
9016 9015 5
9017 8917 3
9017 9018 4
9017 9117 1
9017 9016 3
9018 8918 2
9018 9019 3
9018 9118 1
9018 9017 2
9019 8919 3
9019 9020 3
9019 9119 3
9019 9018 3
9020 8920 4
9020 9021 5
9020 9120 5
9020 9019 2
9021 8921 5
9021 9022 4
9021 9121 4
9021 9020 1
9022 8922 3
9022 9023 1
9022 9122 1
9022 9021 4
9023 8923 4
9023 9024 5
9023 9123 5
9023 9022 1
9024 8924 3
9024 9025 5
9024 9124 4
9024 9023 3
9025 8925 4
9025 9026 4
9025 9125 2
9025 9024 5
9026 8926 4
9026 9027 3
9026 9126 4
9026 9025 5
9027 8927 1
9027 9028 3
9027 9127 3
9027 9026 5
9028 8928 3
9028 9029 4
9028 9128 4
9028 9027 2
9029 8929 2
9029 9030 2
9029 9129 2
9029 9028 5
9030 8930 1
9030 9031 2
9030 9130 3
9030 9029 5
9031 8931 5
9031 9032 3
9031 9131 3
9031 9030 5
9032 8932 4
9032 9033 4
9032 9132 1
9032 9031 1
9033 8933 4
9033 9034 2
9033 9133 2
9033 9032 5
9034 8934 3
9034 9035 3
9034 9134 5
9034 9033 5
9035 8935 3
9035 9036 2
9035 9135 4
9035 9034 3
9036 8936 1
9036 9037 4
9036 9136 4
9036 9035 1
9037 8937 5
9037 9038 5
9037 9137 3
9037 9036 2
9038 8938 1
9038 9039 1
9038 9138 2
9038 9037 1
9039 8939 2
9039 9040 2
9039 9139 5
9039 9038 5
9040 8940 1
9040 9041 1
9040 9140 2
9040 9039 5
9041 8941 4
9041 9042 1
9041 9141 4
9041 9040 2
9042 8942 5
9042 9043 2
9042 9142 2
9042 9041 3
9043 8943 4
9043 9044 5
9043 9143 5
9043 9042 1
9044 8944 3
9044 9045 5
9044 9144 1
9044 9043 1
9045 8945 5
9045 9046 1
9045 9145 1
9045 9044 3
9046 8946 2
9046 9047 2
9046 9146 4
9046 9045 3
9047 8947 2
9047 9048 3
9047 9147 4
9047 9046 4
9048 8948 1
9048 9049 2
9048 9148 4
9048 9047 4
9049 8949 2
9049 9050 5
9049 9149 4
9049 9048 1
9050 8950 3
9050 9051 4
9050 9150 3
9050 9049 5
9051 8951 4
9051 9052 5
9051 9151 3
9051 9050 4
9052 8952 5
9052 9053 3
9052 9152 3
9052 9051 4
9053 8953 3
9053 9054 5
9053 9153 3
9053 9052 5
9054 8954 5
9054 9055 3
9054 9154 3
9054 9053 1
9055 8955 3
9055 9056 3
9055 9155 2
9055 9054 4
9056 8956 2
9056 9057 5
9056 9156 1
9056 9055 4
9057 8957 1
9057 9058 3
9057 9157 5
9057 9056 3
9058 8958 3
9058 9059 1
9058 9158 5
9058 9057 2
9059 8959 5
9059 9060 3
9059 9159 2
9059 9058 3
9060 8960 2
9060 9061 3
9060 9160 2
9060 9059 1
9061 8961 4
9061 9062 5
9061 9161 5
9061 9060 2
9062 8962 1
9062 9063 4
9062 9162 3
9062 9061 1
9063 8963 1
9063 9064 5
9063 9163 2
9063 9062 1
9064 8964 3
9064 9065 3
9064 9164 4
9064 9063 3
9065 8965 3
9065 9066 3
9065 9165 2
9065 9064 1
9066 8966 2
9066 9067 1
9066 9166 2
9066 9065 4
9067 8967 4
9067 9068 5
9067 9167 3
9067 9066 4
9068 8968 2
9068 9069 1
9068 9168 5
9068 9067 5
9069 8969 2
9069 9070 3
9069 9169 1
9069 9068 2
9070 8970 3
9070 9071 2
9070 9170 2
9070 9069 1
9071 8971 2
9071 9072 3
9071 9171 3
9071 9070 1
9072 8972 2
9072 9073 5
9072 9172 2
9072 9071 4
9073 8973 2
9073 9074 3
9073 9173 1
9073 9072 5
9074 8974 3
9074 9075 1
9074 9174 2
9074 9073 1
9075 8975 5
9075 9076 1
9075 9175 3
9075 9074 2
9076 8976 3
9076 9077 4
9076 9176 5
9076 9075 3
9077 8977 5
9077 9078 5
9077 9177 1
9077 9076 1
9078 8978 3
9078 9079 4
9078 9178 5
9078 9077 3
9079 8979 1
9079 9080 2
9079 9179 2
9079 9078 2
9080 8980 3
9080 9081 3
9080 9180 4
9080 9079 1
9081 8981 1
9081 9082 5
9081 9181 5
9081 9080 1
9082 8982 1
9082 9083 2
9082 9182 3
9082 9081 2
9083 8983 3
9083 9084 5
9083 9183 3
9083 9082 4
9084 8984 1
9084 9085 2
9084 9184 2
9084 9083 5
9085 8985 5
9085 9086 4
9085 9185 2
9085 9084 4
9086 8986 4
9086 9087 5
9086 9186 4
9086 9085 1
9087 8987 2
9087 9088 4
9087 9187 2
9087 9086 3
9088 8988 2
9088 9089 1
9088 9188 1
9088 9087 2
9089 8989 1
9089 9090 2
9089 9189 5
9089 9088 1
9090 8990 2
9090 9091 5
9090 9190 1
9090 9089 2
9091 8991 1
9091 9092 1
9091 9191 3
9091 9090 5
9092 8992 3
9092 9093 5
9092 9192 1
9092 9091 2
9093 8993 5
9093 9094 5
9093 9193 5
9093 9092 1
9094 8994 5
9094 9095 5
9094 9194 5
9094 9093 1
9095 8995 5
9095 9096 4
9095 9195 4
9095 9094 3
9096 8996 3
9096 9097 2
9096 9196 2
9096 9095 1
9097 8997 5
9097 9098 1
9097 9197 5
9097 9096 5
9098 8998 1
9098 9099 5
9098 9198 2
9098 9097 1
9099 8999 2
9099 9199 2
9099 9098 3
9100 9000 4
9100 9101 5
9100 9200 2
9101 9001 1
9101 9102 4
9101 9201 2
9101 9100 2
9102 9002 4
9102 9103 4
9102 9202 4
9102 9101 1
9103 9003 3
9103 9104 1
9103 9203 4
9103 9102 1
9104 9004 1
9104 9105 2
9104 9204 5
9104 9103 5
9105 9005 1
9105 9106 5
9105 9205 1
9105 9104 5
9106 9006 4
9106 9107 3
9106 9206 1
9106 9105 3
9107 9007 1
9107 9108 1
9107 9207 2
9107 9106 2
9108 9008 2
9108 9109 1
9108 9208 2
9108 9107 3
9109 9009 3
9109 9110 5
9109 9209 3
9109 9108 4
9110 9010 1
9110 9111 4
9110 9210 1
9110 9109 3
9111 9011 5
9111 9112 4
9111 9211 4
9111 9110 3
9112 9012 1
9112 9113 4
9112 9212 4
9112 9111 3
9113 9013 2
9113 9114 3
9113 9213 4
9113 9112 2
9114 9014 2
9114 9115 1
9114 9214 4
9114 9113 2
9115 9015 1
9115 9116 4
9115 9215 1
9115 9114 2
9116 9016 4
9116 9117 5
9116 9216 1
9116 9115 1
9117 9017 1
9117 9118 3
9117 9217 4
9117 9116 1
9118 9018 2
9118 9119 5
9118 9218 5
9118 9117 4
9119 9019 2
9119 9120 1
9119 9219 4
9119 9118 4
9120 9020 4
9120 9121 1
9120 9220 1
9120 9119 3
9121 9021 5
9121 9122 5
9121 9221 3
9121 9120 4
9122 9022 5
9122 9123 4
9122 9222 4
9122 9121 5
9123 9023 2
9123 9124 2
9123 9223 2
9123 9122 2
9124 9024 4
9124 9125 1
9124 9224 1
9124 9123 4
9125 9025 1
9125 9126 3
9125 9225 5
9125 9124 1
9126 9026 1
9126 9127 5
9126 9226 4
9126 9125 1
9127 9027 3
9127 9128 1
9127 9227 5
9127 9126 4
9128 9028 2
9128 9129 2
9128 9228 2
9128 9127 2
9129 9029 3
9129 9130 2
9129 9229 1
9129 9128 4
9130 9030 3
9130 9131 5
9130 9230 4
9130 9129 3
9131 9031 3
9131 9132 5
9131 9231 5
9131 9130 5
9132 9032 2
9132 9133 5
9132 9232 2
9132 9131 2
9133 9033 4
9133 9134 3
9133 9233 5
9133 9132 1
9134 9034 5
9134 9135 4
9134 9234 2
9134 9133 2
9135 9035 5
9135 9136 3
9135 9235 5
9135 9134 2
9136 9036 3
9136 9137 5
9136 9236 3
9136 9135 3
9137 9037 3
9137 9138 3
9137 9237 1
9137 9136 2
9138 9038 5
9138 9139 1
9138 9238 5
9138 9137 4
9139 9039 1
9139 9140 2
9139 9239 3
9139 9138 5
9140 9040 2
9140 9141 2
9140 9240 4
9140 9139 4
9141 9041 5
9141 9142 5
9141 9241 2
9141 9140 5
9142 9042 4
9142 9143 2
9142 9242 4
9142 9141 5
9143 9043 2
9143 9144 2
9143 9243 2
9143 9142 5
9144 9044 1
9144 9145 1
9144 9244 3
9144 9143 2
9145 9045 4
9145 9146 3
9145 9245 4
9145 9144 3
9146 9046 5
9146 9147 3
9146 9246 4
9146 9145 4
9147 9047 3
9147 9148 5
9147 9247 4
9147 9146 4
9148 9048 3
9148 9149 1
9148 9248 4
9148 9147 2
9149 9049 4
9149 9150 1
9149 9249 2
9149 9148 1
9150 9050 4
9150 9151 2
9150 9250 1
9150 9149 4
9151 9051 3
9151 9152 3
9151 9251 2
9151 9150 5
9152 9052 4
9152 9153 4
9152 9252 4
9152 9151 1
9153 9053 1
9153 9154 3
9153 9253 3
9153 9152 5
9154 9054 3
9154 9155 1
9154 9254 5
9154 9153 1
9155 9055 1
9155 9156 3
9155 9255 3
9155 9154 1
9156 9056 3
9156 9157 4
9156 9256 2
9156 9155 5
9157 9057 1
9157 9158 3
9157 9257 2
9157 9156 4
9158 9058 1
9158 9159 1
9158 9258 4
9158 9157 5
9159 9059 4
9159 9160 1
9159 9259 1
9159 9158 3
9160 9060 4
9160 9161 1
9160 9260 2
9160 9159 4
9161 9061 1
9161 9162 1
9161 9261 5
9161 9160 5
9162 9062 2
9162 9163 4
9162 9262 1
9162 9161 3
9163 9063 3
9163 9164 3
9163 9263 3
9163 9162 4
9164 9064 3
9164 9165 3
9164 9264 2
9164 9163 4
9165 9065 5
9165 9166 2
9165 9265 4
9165 9164 5
9166 9066 3
9166 9167 2
9166 9266 4
9166 9165 4
9167 9067 1
9167 9168 3
9167 9267 1
9167 9166 2
9168 9068 3
9168 9169 3
9168 9268 3
9168 9167 3
9169 9069 3
9169 9170 5
9169 9269 3
9169 9168 4
9170 9070 4
9170 9171 1
9170 9270 1
9170 9169 2
9171 9071 1
9171 9172 1
9171 9271 1
9171 9170 5
9172 9072 4
9172 9173 2
9172 9272 2
9172 9171 4
9173 9073 2
9173 9174 2
9173 9273 5
9173 9172 4
9174 9074 5
9174 9175 4
9174 9274 3
9174 9173 2
9175 9075 1
9175 9176 4
9175 9275 2
9175 9174 4
9176 9076 5
9176 9177 2
9176 9276 5
9176 9175 3
9177 9077 1
9177 9178 5
9177 9277 3
9177 9176 4
9178 9078 1
9178 9179 5
9178 9278 2
9178 9177 3
9179 9079 1
9179 9180 5
9179 9279 5
9179 9178 1
9180 9080 4
9180 9181 3
9180 9280 1
9180 9179 5
9181 9081 1
9181 9182 1
9181 9281 2
9181 9180 4
9182 9082 3
9182 9183 1
9182 9282 2
9182 9181 3
9183 9083 5
9183 9184 3
9183 9283 5
9183 9182 3
9184 9084 2
9184 9185 4
9184 9284 4
9184 9183 1
9185 9085 1
9185 9186 4
9185 9285 2
9185 9184 4
9186 9086 5
9186 9187 3
9186 9286 5
9186 9185 3
9187 9087 1
9187 9188 3
9187 9287 2
9187 9186 5
9188 9088 3
9188 9189 3
9188 9288 3
9188 9187 5
9189 9089 4
9189 9190 4
9189 9289 5
9189 9188 3
9190 9090 3
9190 9191 2
9190 9290 1
9190 9189 4
9191 9091 3
9191 9192 4
9191 9291 2
9191 9190 4
9192 9092 3
9192 9193 2
9192 9292 5
9192 9191 1
9193 9093 1
9193 9194 1
9193 9293 4
9193 9192 1
9194 9094 4
9194 9195 2
9194 9294 3
9194 9193 3
9195 9095 4
9195 9196 5
9195 9295 3
9195 9194 3
9196 9096 5
9196 9197 2
9196 9296 2
9196 9195 3
9197 9097 1
9197 9198 4
9197 9297 2
9197 9196 5
9198 9098 2
9198 9199 2
9198 9298 4
9198 9197 3
9199 9099 5
9199 9299 5
9199 9198 4
9200 9100 1
9200 9201 1
9200 9300 1
9201 9101 1
9201 9202 4
9201 9301 1
9201 9200 4
9202 9102 5
9202 9203 1
9202 9302 2
9202 9201 5
9203 9103 3
9203 9204 3
9203 9303 4
9203 9202 4
9204 9104 1
9204 9205 2
9204 9304 1
9204 9203 3
9205 9105 5
9205 9206 3
9205 9305 5
9205 9204 3
9206 9106 1
9206 9207 3
9206 9306 2
9206 9205 2
9207 9107 3
9207 9208 3
9207 9307 2
9207 9206 5
9208 9108 2
9208 9209 2
9208 9308 4
9208 9207 2
9209 9109 5
9209 9210 4
9209 9309 3
9209 9208 4
9210 9110 4
9210 9211 5
9210 9310 5
9210 9209 1
9211 9111 2
9211 9212 1
9211 9311 2
9211 9210 4
9212 9112 3
9212 9213 4
9212 9312 3
9212 9211 4
9213 9113 4
9213 9214 1
9213 9313 1
9213 9212 3
9214 9114 5
9214 9215 5
9214 9314 2
9214 9213 1
9215 9115 5
9215 9216 4
9215 9315 1
9215 9214 5
9216 9116 5
9216 9217 3
9216 9316 1
9216 9215 1
9217 9117 4
9217 9218 5
9217 9317 1
9217 9216 1
9218 9118 4
9218 9219 1
9218 9318 1
9218 9217 3
9219 9119 4
9219 9220 3
9219 9319 3
9219 9218 4
9220 9120 1
9220 9221 1
9220 9320 5
9220 9219 5
9221 9121 2
9221 9222 1
9221 9321 5
9221 9220 4
9222 9122 3
9222 9223 3
9222 9322 2
9222 9221 3
9223 9123 4
9223 9224 2
9223 9323 5
9223 9222 5
9224 9124 3
9224 9225 2
9224 9324 2
9224 9223 4
9225 9125 4
9225 9226 3
9225 9325 5
9225 9224 4
9226 9126 4
9226 9227 1
9226 9326 1
9226 9225 4
9227 9127 5
9227 9228 5
9227 9327 1
9227 9226 2
9228 9128 3
9228 9229 2
9228 9328 2
9228 9227 3
9229 9129 1
9229 9230 2
9229 9329 1
9229 9228 5
9230 9130 1
9230 9231 5
9230 9330 2
9230 9229 2
9231 9131 4
9231 9232 4
9231 9331 5
9231 9230 5
9232 9132 1
9232 9233 5
9232 9332 4
9232 9231 4
9233 9133 4
9233 9234 1
9233 9333 2
9233 9232 5
9234 9134 4
9234 9235 3
9234 9334 2
9234 9233 5
9235 9135 2
9235 9236 5
9235 9335 3
9235 9234 4
9236 9136 1
9236 9237 4
9236 9336 3
9236 9235 4
9237 9137 5
9237 9238 2
9237 9337 1
9237 9236 1
9238 9138 1
9238 9239 2
9238 9338 4
9238 9237 1
9239 9139 5
9239 9240 1
9239 9339 4
9239 9238 1
9240 9140 2
9240 9241 4
9240 9340 5
9240 9239 1
9241 9141 5
9241 9242 5
9241 9341 4
9241 9240 4
9242 9142 5
9242 9243 2
9242 9342 2
9242 9241 1
9243 9143 4
9243 9244 1
9243 9343 5
9243 9242 5
9244 9144 2
9244 9245 3
9244 9344 5
9244 9243 3
9245 9145 5
9245 9246 2
9245 9345 4
9245 9244 4
9246 9146 3
9246 9247 5
9246 9346 4
9246 9245 4
9247 9147 2
9247 9248 5
9247 9347 4
9247 9246 3
9248 9148 1
9248 9249 4
9248 9348 3
9248 9247 3
9249 9149 3
9249 9250 4
9249 9349 3
9249 9248 4
9250 9150 2
9250 9251 4
9250 9350 4
9250 9249 4
9251 9151 3
9251 9252 3
9251 9351 1
9251 9250 5
9252 9152 5
9252 9253 2
9252 9352 5
9252 9251 1
9253 9153 4
9253 9254 5
9253 9353 3
9253 9252 4
9254 9154 4
9254 9255 5
9254 9354 3
9254 9253 1
9255 9155 1
9255 9256 2
9255 9355 3
9255 9254 3
9256 9156 2
9256 9257 2
9256 9356 1
9256 9255 2
9257 9157 4
9257 9258 2
9257 9357 4
9257 9256 5
9258 9158 2
9258 9259 1
9258 9358 2
9258 9257 2
9259 9159 4
9259 9260 3
9259 9359 3
9259 9258 2
9260 9160 3
9260 9261 4
9260 9360 2
9260 9259 2
9261 9161 1
9261 9262 5
9261 9361 1
9261 9260 4
9262 9162 3
9262 9263 1
9262 9362 4
9262 9261 2
9263 9163 3
9263 9264 1
9263 9363 4
9263 9262 5
9264 9164 3
9264 9265 2
9264 9364 2
9264 9263 3
9265 9165 4
9265 9266 4
9265 9365 4
9265 9264 3
9266 9166 1
9266 9267 2
9266 9366 3
9266 9265 5
9267 9167 2
9267 9268 4
9267 9367 5
9267 9266 5
9268 9168 1
9268 9269 1
9268 9368 3
9268 9267 2
9269 9169 4
9269 9270 4
9269 9369 5
9269 9268 2
9270 9170 2
9270 9271 2
9270 9370 4
9270 9269 4
9271 9171 2
9271 9272 2
9271 9371 3
9271 9270 2
9272 9172 2
9272 9273 5
9272 9372 3
9272 9271 4
9273 9173 2
9273 9274 5
9273 9373 2
9273 9272 4
9274 9174 2
9274 9275 2
9274 9374 4
9274 9273 2
9275 9175 2
9275 9276 3
9275 9375 5
9275 9274 2
9276 9176 1
9276 9277 1
9276 9376 2
9276 9275 2
9277 9177 4
9277 9278 1
9277 9377 1
9277 9276 5
9278 9178 5
9278 9279 3
9278 9378 2
9278 9277 2
9279 9179 3
9279 9280 1
9279 9379 2
9279 9278 4
9280 9180 1
9280 9281 3
9280 9380 2
9280 9279 2
9281 9181 2
9281 9282 2
9281 9381 1
9281 9280 5
9282 9182 5
9282 9283 2
9282 9382 5
9282 9281 3
9283 9183 3
9283 9284 4
9283 9383 1
9283 9282 2
9284 9184 3
9284 9285 4
9284 9384 5
9284 9283 1
9285 9185 3
9285 9286 4
9285 9385 2
9285 9284 4
9286 9186 1
9286 9287 5
9286 9386 5
9286 9285 3
9287 9187 1
9287 9288 4
9287 9387 4
9287 9286 5
9288 9188 4
9288 9289 5
9288 9388 1
9288 9287 4
9289 9189 3
9289 9290 3
9289 9389 3
9289 9288 3
9290 9190 3
9290 9291 2
9290 9390 1
9290 9289 3
9291 9191 4
9291 9292 5
9291 9391 2
9291 9290 4
9292 9192 5
9292 9293 2
9292 9392 4
9292 9291 3
9293 9193 1
9293 9294 3
9293 9393 2
9293 9292 2
9294 9194 4
9294 9295 2
9294 9394 5
9294 9293 4
9295 9195 5
9295 9296 5
9295 9395 3
9295 9294 5
9296 9196 2
9296 9297 3
9296 9396 2
9296 9295 5
9297 9197 5
9297 9298 2
9297 9397 5
9297 9296 1
9298 9198 2
9298 9299 5
9298 9398 4
9298 9297 5
9299 9199 5
9299 9399 4
9299 9298 5
9300 9200 2
9300 9301 2
9300 9400 1
9301 9201 3
9301 9302 1
9301 9401 2
9301 9300 2
9302 9202 1
9302 9303 5
9302 9402 5
9302 9301 3
9303 9203 5
9303 9304 4
9303 9403 3
9303 9302 3
9304 9204 1
9304 9305 1
9304 9404 2
9304 9303 3
9305 9205 1
9305 9306 4
9305 9405 4
9305 9304 4
9306 9206 5
9306 9307 4
9306 9406 1
9306 9305 4
9307 9207 4
9307 9308 2
9307 9407 3
9307 9306 4
9308 9208 4
9308 9309 4
9308 9408 1
9308 9307 3
9309 9209 5
9309 9310 5
9309 9409 5
9309 9308 4
9310 9210 2
9310 9311 2
9310 9410 5
9310 9309 5
9311 9211 3
9311 9312 5
9311 9411 1
9311 9310 1
9312 9212 2
9312 9313 5
9312 9412 3
9312 9311 2
9313 9213 3
9313 9314 2
9313 9413 4
9313 9312 4
9314 9214 2
9314 9315 2
9314 9414 1
9314 9313 3
9315 9215 3
9315 9316 5
9315 9415 4
9315 9314 2
9316 9216 4
9316 9317 3
9316 9416 2
9316 9315 5
9317 9217 4
9317 9318 2
9317 9417 5
9317 9316 5
9318 9218 3
9318 9319 5
9318 9418 3
9318 9317 5
9319 9219 3
9319 9320 1
9319 9419 2
9319 9318 5
9320 9220 5
9320 9321 3
9320 9420 3
9320 9319 3
9321 9221 4
9321 9322 3
9321 9421 4
9321 9320 3
9322 9222 2
9322 9323 1
9322 9422 4
9322 9321 1
9323 9223 5
9323 9324 4
9323 9423 2
9323 9322 1
9324 9224 1
9324 9325 2
9324 9424 1
9324 9323 1
9325 9225 2
9325 9326 4
9325 9425 2
9325 9324 4
9326 9226 4
9326 9327 2
9326 9426 2
9326 9325 3
9327 9227 4
9327 9328 4
9327 9427 2
9327 9326 2
9328 9228 2
9328 9329 2
9328 9428 3
9328 9327 5
9329 9229 4
9329 9330 3
9329 9429 5
9329 9328 2
9330 9230 5
9330 9331 1
9330 9430 4
9330 9329 4
9331 9231 1
9331 9332 1
9331 9431 5
9331 9330 1
9332 9232 1
9332 9333 5
9332 9432 1
9332 9331 3
9333 9233 5
9333 9334 5
9333 9433 4
9333 9332 4
9334 9234 1
9334 9335 4
9334 9434 2
9334 9333 2
9335 9235 4
9335 9336 3
9335 9435 3
9335 9334 4
9336 9236 5
9336 9337 5
9336 9436 2
9336 9335 4
9337 9237 5
9337 9338 3
9337 9437 5
9337 9336 3
9338 9238 3
9338 9339 1
9338 9438 4
9338 9337 4
9339 9239 1
9339 9340 5
9339 9439 1
9339 9338 5
9340 9240 2
9340 9341 4
9340 9440 1
9340 9339 4
9341 9241 3
9341 9342 3
9341 9441 5
9341 9340 1
9342 9242 1
9342 9343 3
9342 9442 3
9342 9341 4
9343 9243 2
9343 9344 3
9343 9443 4
9343 9342 4
9344 9244 5
9344 9345 3
9344 9444 3
9344 9343 4
9345 9245 2
9345 9346 2
9345 9445 5
9345 9344 4
9346 9246 5
9346 9347 1
9346 9446 3
9346 9345 2
9347 9247 5
9347 9348 5
9347 9447 1
9347 9346 3
9348 9248 4
9348 9349 4
9348 9448 3
9348 9347 1
9349 9249 5
9349 9350 2
9349 9449 4
9349 9348 5
9350 9250 3
9350 9351 4
9350 9450 4
9350 9349 1
9351 9251 5
9351 9352 5
9351 9451 5
9351 9350 5
9352 9252 2
9352 9353 4
9352 9452 3
9352 9351 2
9353 9253 3
9353 9354 3
9353 9453 1
9353 9352 5
9354 9254 4
9354 9355 5
9354 9454 3
9354 9353 5
9355 9255 2
9355 9356 5
9355 9455 1
9355 9354 4
9356 9256 2
9356 9357 3
9356 9456 1
9356 9355 2
9357 9257 2
9357 9358 1
9357 9457 5
9357 9356 5
9358 9258 5
9358 9359 4
9358 9458 3
9358 9357 4
9359 9259 5
9359 9360 2
9359 9459 3
9359 9358 2
9360 9260 3
9360 9361 2
9360 9460 3
9360 9359 3
9361 9261 5
9361 9362 4
9361 9461 5
9361 9360 3
9362 9262 2
9362 9363 1
9362 9462 2
9362 9361 1
9363 9263 3
9363 9364 4
9363 9463 1
9363 9362 2
9364 9264 5
9364 9365 4
9364 9464 1
9364 9363 1
9365 9265 5
9365 9366 5
9365 9465 1
9365 9364 2
9366 9266 3
9366 9367 3
9366 9466 4
9366 9365 5
9367 9267 3
9367 9368 4
9367 9467 4
9367 9366 1
9368 9268 3
9368 9369 5
9368 9468 1
9368 9367 2
9369 9269 4
9369 9370 4
9369 9469 3
9369 9368 4
9370 9270 3
9370 9371 4
9370 9470 4
9370 9369 5
9371 9271 1
9371 9372 1
9371 9471 4
9371 9370 1
9372 9272 2
9372 9373 2
9372 9472 1
9372 9371 3
9373 9273 1
9373 9374 2
9373 9473 5
9373 9372 4
9374 9274 3
9374 9375 3
9374 9474 5
9374 9373 4
9375 9275 5
9375 9376 1
9375 9475 5
9375 9374 1
9376 9276 1
9376 9377 3
9376 9476 1
9376 9375 3
9377 9277 5
9377 9378 5
9377 9477 2
9377 9376 2
9378 9278 2
9378 9379 3
9378 9478 2
9378 9377 5
9379 9279 4
9379 9380 4
9379 9479 1
9379 9378 1
9380 9280 2
9380 9381 5
9380 9480 3
9380 9379 3
9381 9281 1
9381 9382 1
9381 9481 2
9381 9380 5
9382 9282 3
9382 9383 4
9382 9482 2
9382 9381 5
9383 9283 1
9383 9384 1
9383 9483 1
9383 9382 1
9384 9284 2
9384 9385 3
9384 9484 3
9384 9383 4
9385 9285 1
9385 9386 5
9385 9485 1
9385 9384 3
9386 9286 5
9386 9387 1
9386 9486 4
9386 9385 1
9387 9287 5
9387 9388 3
9387 9487 5
9387 9386 5
9388 9288 5
9388 9389 1
9388 9488 2
9388 9387 4
9389 9289 3
9389 9390 1
9389 9489 3
9389 9388 3
9390 9290 1
9390 9391 5
9390 9490 1
9390 9389 5
9391 9291 2
9391 9392 5
9391 9491 4
9391 9390 5
9392 9292 4
9392 9393 1
9392 9492 5
9392 9391 4
9393 9293 4
9393 9394 1
9393 9493 4
9393 9392 1
9394 9294 5
9394 9395 1
9394 9494 3
9394 9393 5
9395 9295 2
9395 9396 5
9395 9495 2
9395 9394 2
9396 9296 5
9396 9397 3
9396 9496 1
9396 9395 4
9397 9297 1
9397 9398 5
9397 9497 4
9397 9396 1
9398 9298 2
9398 9399 5
9398 9498 2
9398 9397 2
9399 9299 2
9399 9499 1
9399 9398 2
9400 9300 3
9400 9401 5
9400 9500 3
9401 9301 2
9401 9402 2
9401 9501 1
9401 9400 5
9402 9302 3
9402 9403 1
9402 9502 1
9402 9401 2
9403 9303 4
9403 9404 1
9403 9503 4
9403 9402 4
9404 9304 3
9404 9405 5
9404 9504 5
9404 9403 3
9405 9305 4
9405 9406 2
9405 9505 4
9405 9404 3
9406 9306 5
9406 9407 1
9406 9506 4
9406 9405 4
9407 9307 1
9407 9408 1
9407 9507 2
9407 9406 4
9408 9308 2
9408 9409 1
9408 9508 2
9408 9407 1
9409 9309 4
9409 9410 5
9409 9509 3
9409 9408 1
9410 9310 4
9410 9411 3
9410 9510 4
9410 9409 1
9411 9311 2
9411 9412 1
9411 9511 1
9411 9410 5
9412 9312 4
9412 9413 1
9412 9512 1
9412 9411 5
9413 9313 1
9413 9414 1
9413 9513 2
9413 9412 2
9414 9314 5
9414 9415 5
9414 9514 2
9414 9413 2
9415 9315 1
9415 9416 2
9415 9515 3
9415 9414 3
9416 9316 5
9416 9417 5
9416 9516 4
9416 9415 5
9417 9317 2
9417 9418 1
9417 9517 4
9417 9416 2
9418 9318 2
9418 9419 1
9418 9518 3
9418 9417 3
9419 9319 5
9419 9420 4
9419 9519 5
9419 9418 5
9420 9320 5
9420 9421 1
9420 9520 1
9420 9419 5
9421 9321 4
9421 9422 1
9421 9521 5
9421 9420 4
9422 9322 5
9422 9423 1
9422 9522 3
9422 9421 3
9423 9323 1
9423 9424 3
9423 9523 2
9423 9422 1
9424 9324 1
9424 9425 2
9424 9524 1
9424 9423 2
9425 9325 4
9425 9426 1
9425 9525 5
9425 9424 1
9426 9326 4
9426 9427 3
9426 9526 1
9426 9425 5
9427 9327 1
9427 9428 3
9427 9527 3
9427 9426 4
9428 9328 1
9428 9429 5
9428 9528 1
9428 9427 5
9429 9329 4
9429 9430 1
9429 9529 3
9429 9428 1
9430 9330 5
9430 9431 2
9430 9530 3
9430 9429 4
9431 9331 5
9431 9432 3
9431 9531 3
9431 9430 3
9432 9332 5
9432 9433 3
9432 9532 1
9432 9431 4
9433 9333 1
9433 9434 5
9433 9533 3
9433 9432 5
9434 9334 1
9434 9435 4
9434 9534 2
9434 9433 4
9435 9335 3
9435 9436 3
9435 9535 4
9435 9434 4
9436 9336 5
9436 9437 5
9436 9536 2
9436 9435 5
9437 9337 5
9437 9438 3
9437 9537 5
9437 9436 1
9438 9338 4
9438 9439 3
9438 9538 2
9438 9437 5
9439 9339 3
9439 9440 1
9439 9539 3
9439 9438 2
9440 9340 5
9440 9441 1
9440 9540 3
9440 9439 5
9441 9341 3
9441 9442 4
9441 9541 4
9441 9440 4
9442 9342 2
9442 9443 3
9442 9542 2
9442 9441 5
9443 9343 3
9443 9444 4
9443 9543 4
9443 9442 4
9444 9344 5
9444 9445 1
9444 9544 5
9444 9443 3
9445 9345 2
9445 9446 1
9445 9545 1
9445 9444 4
9446 9346 3
9446 9447 4
9446 9546 2
9446 9445 5
9447 9347 4
9447 9448 1
9447 9547 4
9447 9446 3
9448 9348 4
9448 9449 5
9448 9548 3
9448 9447 5
9449 9349 1
9449 9450 2
9449 9549 4
9449 9448 2
9450 9350 5
9450 9451 4
9450 9550 4
9450 9449 1
9451 9351 1
9451 9452 4
9451 9551 4
9451 9450 2
9452 9352 5
9452 9453 4
9452 9552 4
9452 9451 1
9453 9353 2
9453 9454 3
9453 9553 5
9453 9452 5
9454 9354 2
9454 9455 3
9454 9554 4
9454 9453 5
9455 9355 5
9455 9456 4
9455 9555 4
9455 9454 1
9456 9356 1
9456 9457 4
9456 9556 3
9456 9455 4
9457 9357 2
9457 9458 4
9457 9557 4
9457 9456 3
9458 9358 1
9458 9459 2
9458 9558 1
9458 9457 3
9459 9359 4
9459 9460 2
9459 9559 2
9459 9458 1
9460 9360 2
9460 9461 3
9460 9560 2
9460 9459 3
9461 9361 2
9461 9462 2
9461 9561 3
9461 9460 2
9462 9362 3
9462 9463 4
9462 9562 1
9462 9461 1
9463 9363 5
9463 9464 3
9463 9563 5
9463 9462 5
9464 9364 3
9464 9465 5
9464 9564 4
9464 9463 1
9465 9365 4
9465 9466 2
9465 9565 1
9465 9464 3
9466 9366 1
9466 9467 3
9466 9566 2
9466 9465 1
9467 9367 3
9467 9468 2
9467 9567 3
9467 9466 2
9468 9368 1
9468 9469 2
9468 9568 1
9468 9467 5
9469 9369 3
9469 9470 3
9469 9569 4
9469 9468 1
9470 9370 3
9470 9471 5
9470 9570 5
9470 9469 2
9471 9371 3
9471 9472 2
9471 9571 2
9471 9470 2
9472 9372 2
9472 9473 1
9472 9572 1
9472 9471 5
9473 9373 1
9473 9474 2
9473 9573 5
9473 9472 3
9474 9374 3
9474 9475 2
9474 9574 1
9474 9473 3
9475 9375 1
9475 9476 3
9475 9575 1
9475 9474 5
9476 9376 4
9476 9477 5
9476 9576 2
9476 9475 3
9477 9377 2
9477 9478 4
9477 9577 4
9477 9476 5
9478 9378 5
9478 9479 2
9478 9578 3
9478 9477 1
9479 9379 2
9479 9480 1
9479 9579 1
9479 9478 4
9480 9380 5
9480 9481 2
9480 9580 2
9480 9479 1
9481 9381 2
9481 9482 4
9481 9581 5
9481 9480 5
9482 9382 5
9482 9483 1
9482 9582 5
9482 9481 1
9483 9383 1
9483 9484 1
9483 9583 5
9483 9482 4
9484 9384 2
9484 9485 3
9484 9584 2
9484 9483 4
9485 9385 3
9485 9486 4
9485 9585 5
9485 9484 5
9486 9386 4
9486 9487 2
9486 9586 3
9486 9485 3
9487 9387 5
9487 9488 4
9487 9587 4
9487 9486 3
9488 9388 3
9488 9489 2
9488 9588 4
9488 9487 2
9489 9389 3
9489 9490 5
9489 9589 5
9489 9488 5
9490 9390 2
9490 9491 2
9490 9590 4
9490 9489 2
9491 9391 3
9491 9492 3
9491 9591 3
9491 9490 2
9492 9392 2
9492 9493 3
9492 9592 2
9492 9491 3
9493 9393 1
9493 9494 1
9493 9593 4
9493 9492 5
9494 9394 5
9494 9495 2
9494 9594 5
9494 9493 1
9495 9395 3
9495 9496 1
9495 9595 2
9495 9494 3
9496 9396 3
9496 9497 3
9496 9596 2
9496 9495 5
9497 9397 5
9497 9498 2
9497 9597 5
9497 9496 4
9498 9398 2
9498 9499 1
9498 9598 3
9498 9497 4
9499 9399 4
9499 9599 4
9499 9498 4
9500 9400 4
9500 9501 4
9500 9600 1
9501 9401 5
9501 9502 2
9501 9601 5
9501 9500 5
9502 9402 4
9502 9503 3
9502 9602 3
9502 9501 5
9503 9403 4
9503 9504 1
9503 9603 2
9503 9502 1
9504 9404 4
9504 9505 3
9504 9604 2
9504 9503 1
9505 9405 2
9505 9506 4
9505 9605 5
9505 9504 3
9506 9406 5
9506 9507 2
9506 9606 1
9506 9505 3
9507 9407 2
9507 9508 4
9507 9607 2
9507 9506 1
9508 9408 1
9508 9509 4
9508 9608 3
9508 9507 1
9509 9409 3
9509 9510 3
9509 9609 2
9509 9508 1
9510 9410 1
9510 9511 1
9510 9610 4
9510 9509 1
9511 9411 3
9511 9512 3
9511 9611 3
9511 9510 2
9512 9412 5
9512 9513 5
9512 9612 4
9512 9511 3
9513 9413 3
9513 9514 4
9513 9613 3
9513 9512 3
9514 9414 2
9514 9515 2
9514 9614 1
9514 9513 5
9515 9415 5
9515 9516 4
9515 9615 1
9515 9514 1
9516 9416 3
9516 9517 2
9516 9616 2
9516 9515 2
9517 9417 3
9517 9518 5
9517 9617 4
9517 9516 2
9518 9418 5
9518 9519 4
9518 9618 5
9518 9517 4
9519 9419 1
9519 9520 1
9519 9619 1
9519 9518 1
9520 9420 2
9520 9521 3
9520 9620 2
9520 9519 3
9521 9421 3
9521 9522 5
9521 9621 5
9521 9520 4
9522 9422 3
9522 9523 5
9522 9622 3
9522 9521 5
9523 9423 4
9523 9524 1
9523 9623 5
9523 9522 5
9524 9424 5
9524 9525 1
9524 9624 4
9524 9523 5
9525 9425 4
9525 9526 1
9525 9625 2
9525 9524 1
9526 9426 3
9526 9527 5
9526 9626 5
9526 9525 2
9527 9427 4
9527 9528 5
9527 9627 3
9527 9526 2
9528 9428 4
9528 9529 4
9528 9628 2
9528 9527 5
9529 9429 2
9529 9530 4
9529 9629 3
9529 9528 5
9530 9430 1
9530 9531 2
9530 9630 2
9530 9529 1
9531 9431 2
9531 9532 2
9531 9631 2
9531 9530 2
9532 9432 5
9532 9533 3
9532 9632 3
9532 9531 5
9533 9433 1
9533 9534 4
9533 9633 1
9533 9532 3
9534 9434 4
9534 9535 2
9534 9634 1
9534 9533 3
9535 9435 5
9535 9536 2
9535 9635 4
9535 9534 5
9536 9436 4
9536 9537 3
9536 9636 4
9536 9535 4
9537 9437 4
9537 9538 3
9537 9637 1
9537 9536 4
9538 9438 1
9538 9539 2
9538 9638 4
9538 9537 4
9539 9439 4
9539 9540 3
9539 9639 4
9539 9538 1
9540 9440 1
9540 9541 4
9540 9640 4
9540 9539 2
9541 9441 2
9541 9542 5
9541 9641 2
9541 9540 1
9542 9442 2
9542 9543 5
9542 9642 2
9542 9541 1
9543 9443 5
9543 9544 2
9543 9643 5
9543 9542 4
9544 9444 5
9544 9545 2
9544 9644 4
9544 9543 5
9545 9445 3
9545 9546 4
9545 9645 2
9545 9544 4
9546 9446 3
9546 9547 2
9546 9646 5
9546 9545 2
9547 9447 2
9547 9548 1
9547 9647 3
9547 9546 3
9548 9448 5
9548 9549 4
9548 9648 5
9548 9547 2
9549 9449 1
9549 9550 4
9549 9649 4
9549 9548 4
9550 9450 1
9550 9551 3
9550 9650 5
9550 9549 3
9551 9451 2
9551 9552 1
9551 9651 2
9551 9550 2
9552 9452 3
9552 9553 3
9552 9652 2
9552 9551 3
9553 9453 5
9553 9554 3
9553 9653 5
9553 9552 5
9554 9454 1
9554 9555 1
9554 9654 5
9554 9553 3
9555 9455 4
9555 9556 3
9555 9655 1
9555 9554 2
9556 9456 3
9556 9557 2
9556 9656 1
9556 9555 1
9557 9457 4
9557 9558 2
9557 9657 4
9557 9556 5
9558 9458 1
9558 9559 4
9558 9658 1
9558 9557 3
9559 9459 5
9559 9560 2
9559 9659 4
9559 9558 3
9560 9460 5
9560 9561 1
9560 9660 1
9560 9559 4
9561 9461 3
9561 9562 5
9561 9661 3
9561 9560 3
9562 9462 5
9562 9563 3
9562 9662 5
9562 9561 3
9563 9463 2
9563 9564 1
9563 9663 5
9563 9562 2
9564 9464 4
9564 9565 5
9564 9664 2
9564 9563 1
9565 9465 2
9565 9566 4
9565 9665 2
9565 9564 4
9566 9466 3
9566 9567 5
9566 9666 4
9566 9565 2
9567 9467 4
9567 9568 4
9567 9667 4
9567 9566 4
9568 9468 5
9568 9569 4
9568 9668 4
9568 9567 4
9569 9469 3
9569 9570 5
9569 9669 2
9569 9568 3
9570 9470 5
9570 9571 4
9570 9670 1
9570 9569 2
9571 9471 3
9571 9572 1
9571 9671 4
9571 9570 3
9572 9472 5
9572 9573 1
9572 9672 5
9572 9571 3
9573 9473 2
9573 9574 5
9573 9673 1
9573 9572 5
9574 9474 5
9574 9575 3
9574 9674 2
9574 9573 4
9575 9475 4
9575 9576 2
9575 9675 2
9575 9574 2
9576 9476 5
9576 9577 5
9576 9676 1
9576 9575 4
9577 9477 4
9577 9578 1
9577 9677 3
9577 9576 1
9578 9478 1
9578 9579 1
9578 9678 1
9578 9577 1
9579 9479 2
9579 9580 5
9579 9679 1
9579 9578 3
9580 9480 3
9580 9581 5
9580 9680 1
9580 9579 3
9581 9481 3
9581 9582 2
9581 9681 2
9581 9580 4
9582 9482 3
9582 9583 4
9582 9682 5
9582 9581 2
9583 9483 1
9583 9584 3
9583 9683 5
9583 9582 5
9584 9484 1
9584 9585 1
9584 9684 1
9584 9583 5
9585 9485 4
9585 9586 1
9585 9685 4
9585 9584 3
9586 9486 4
9586 9587 5
9586 9686 1
9586 9585 3
9587 9487 5
9587 9588 5
9587 9687 1
9587 9586 3
9588 9488 4
9588 9589 2
9588 9688 5
9588 9587 1
9589 9489 4
9589 9590 4
9589 9689 5
9589 9588 5
9590 9490 4
9590 9591 4
9590 9690 2
9590 9589 4
9591 9491 4
9591 9592 2
9591 9691 1
9591 9590 5
9592 9492 4
9592 9593 1
9592 9692 1
9592 9591 2
9593 9493 2
9593 9594 4
9593 9693 2
9593 9592 4
9594 9494 3
9594 9595 2
9594 9694 2
9594 9593 1
9595 9495 3
9595 9596 5
9595 9695 4
9595 9594 5
9596 9496 5
9596 9597 4
9596 9696 2
9596 9595 3
9597 9497 3
9597 9598 5
9597 9697 4
9597 9596 1
9598 9498 3
9598 9599 3
9598 9698 4
9598 9597 5
9599 9499 2
9599 9699 2
9599 9598 4
9600 9500 4
9600 9601 1
9600 9700 1
9601 9501 1
9601 9602 3
9601 9701 3
9601 9600 5
9602 9502 1
9602 9603 4
9602 9702 4
9602 9601 2
9603 9503 2
9603 9604 4
9603 9703 1
9603 9602 5
9604 9504 4
9604 9605 5
9604 9704 3
9604 9603 4
9605 9505 5
9605 9606 5
9605 9705 5
9605 9604 5
9606 9506 4
9606 9607 1
9606 9706 1
9606 9605 5
9607 9507 3
9607 9608 5
9607 9707 4
9607 9606 2
9608 9508 3
9608 9609 5
9608 9708 4
9608 9607 4
9609 9509 5
9609 9610 3
9609 9709 2
9609 9608 2
9610 9510 4
9610 9611 3
9610 9710 3
9610 9609 4
9611 9511 1
9611 9612 2
9611 9711 4
9611 9610 2
9612 9512 2
9612 9613 4
9612 9712 4
9612 9611 4
9613 9513 4
9613 9614 3
9613 9713 5
9613 9612 4
9614 9514 3
9614 9615 3
9614 9714 5
9614 9613 4
9615 9515 4
9615 9616 4
9615 9715 5
9615 9614 3
9616 9516 5
9616 9617 3
9616 9716 4
9616 9615 1
9617 9517 3
9617 9618 3
9617 9717 2
9617 9616 3
9618 9518 4
9618 9619 3
9618 9718 3
9618 9617 1
9619 9519 2
9619 9620 3
9619 9719 1
9619 9618 3
9620 9520 2
9620 9621 4
9620 9720 4
9620 9619 2
9621 9521 5
9621 9622 1
9621 9721 5
9621 9620 3
9622 9522 5
9622 9623 5
9622 9722 4
9622 9621 3
9623 9523 2
9623 9624 5
9623 9723 3
9623 9622 3
9624 9524 1
9624 9625 2
9624 9724 4
9624 9623 3
9625 9525 3
9625 9626 5
9625 9725 1
9625 9624 4
9626 9526 5
9626 9627 1
9626 9726 3
9626 9625 2
9627 9527 5
9627 9628 2
9627 9727 2
9627 9626 5
9628 9528 3
9628 9629 4
9628 9728 5
9628 9627 2
9629 9529 2
9629 9630 5
9629 9729 1
9629 9628 2
9630 9530 4
9630 9631 5
9630 9730 4
9630 9629 3
9631 9531 5
9631 9632 1
9631 9731 3
9631 9630 1
9632 9532 4
9632 9633 2
9632 9732 4
9632 9631 2
9633 9533 1
9633 9634 3
9633 9733 1
9633 9632 3
9634 9534 1
9634 9635 4
9634 9734 2
9634 9633 2
9635 9535 3
9635 9636 1
9635 9735 3
9635 9634 1
9636 9536 1
9636 9637 2
9636 9736 4
9636 9635 3
9637 9537 5
9637 9638 2
9637 9737 5
9637 9636 4
9638 9538 5
9638 9639 4
9638 9738 2
9638 9637 2
9639 9539 3
9639 9640 4
9639 9739 4
9639 9638 3
9640 9540 4
9640 9641 3
9640 9740 4
9640 9639 4
9641 9541 1
9641 9642 2
9641 9741 2
9641 9640 2
9642 9542 4
9642 9643 2
9642 9742 5
9642 9641 5
9643 9543 4
9643 9644 3
9643 9743 1
9643 9642 3
9644 9544 5
9644 9645 2
9644 9744 1
9644 9643 5
9645 9545 3
9645 9646 1
9645 9745 1
9645 9644 1
9646 9546 1
9646 9647 2
9646 9746 4
9646 9645 4
9647 9547 1
9647 9648 4
9647 9747 5
9647 9646 1
9648 9548 5
9648 9649 3
9648 9748 1
9648 9647 4
9649 9549 3
9649 9650 5
9649 9749 3
9649 9648 5
9650 9550 4
9650 9651 4
9650 9750 5
9650 9649 4
9651 9551 2
9651 9652 5
9651 9751 2
9651 9650 2
9652 9552 1
9652 9653 4
9652 9752 1
9652 9651 3
9653 9553 3
9653 9654 2
9653 9753 3
9653 9652 4
9654 9554 3
9654 9655 3
9654 9754 4
9654 9653 5
9655 9555 5
9655 9656 2
9655 9755 3
9655 9654 1
9656 9556 3
9656 9657 2
9656 9756 4
9656 9655 1
9657 9557 2
9657 9658 4
9657 9757 1
9657 9656 4
9658 9558 5
9658 9659 4
9658 9758 3
9658 9657 4
9659 9559 4
9659 9660 1
9659 9759 4
9659 9658 1
9660 9560 5
9660 9661 1
9660 9760 2
9660 9659 5
9661 9561 2
9661 9662 2
9661 9761 4
9661 9660 1
9662 9562 2
9662 9663 5
9662 9762 1
9662 9661 2
9663 9563 2
9663 9664 4
9663 9763 4
9663 9662 3
9664 9564 3
9664 9665 5
9664 9764 5
9664 9663 5
9665 9565 3
9665 9666 1
9665 9765 2
9665 9664 2
9666 9566 4
9666 9667 4
9666 9766 5
9666 9665 4
9667 9567 1
9667 9668 3
9667 9767 5
9667 9666 1
9668 9568 4
9668 9669 5
9668 9768 1
9668 9667 1
9669 9569 4
9669 9670 3
9669 9769 1
9669 9668 1
9670 9570 4
9670 9671 3
9670 9770 1
9670 9669 4
9671 9571 1
9671 9672 4
9671 9771 5
9671 9670 2
9672 9572 5
9672 9673 3
9672 9772 4
9672 9671 5
9673 9573 3
9673 9674 5
9673 9773 2
9673 9672 1
9674 9574 2
9674 9675 3
9674 9774 5
9674 9673 3
9675 9575 4
9675 9676 2
9675 9775 4
9675 9674 3
9676 9576 3
9676 9677 1
9676 9776 3
9676 9675 3
9677 9577 5
9677 9678 2
9677 9777 4
9677 9676 2
9678 9578 5
9678 9679 1
9678 9778 5
9678 9677 1
9679 9579 2
9679 9680 1
9679 9779 4
9679 9678 5
9680 9580 5
9680 9681 2
9680 9780 4
9680 9679 3
9681 9581 2
9681 9682 1
9681 9781 4
9681 9680 4
9682 9582 5
9682 9683 3
9682 9782 5
9682 9681 5
9683 9583 3
9683 9684 3
9683 9783 3
9683 9682 1
9684 9584 5
9684 9685 5
9684 9784 5
9684 9683 3
9685 9585 5
9685 9686 2
9685 9785 1
9685 9684 2
9686 9586 2
9686 9687 1
9686 9786 4
9686 9685 3
9687 9587 4
9687 9688 1
9687 9787 3
9687 9686 2
9688 9588 4
9688 9689 5
9688 9788 5
9688 9687 1
9689 9589 1
9689 9690 3
9689 9789 2
9689 9688 2
9690 9590 1
9690 9691 2
9690 9790 5
9690 9689 5
9691 9591 5
9691 9692 4
9691 9791 4
9691 9690 2
9692 9592 2
9692 9693 1
9692 9792 5
9692 9691 2
9693 9593 2
9693 9694 3
9693 9793 4
9693 9692 3
9694 9594 3
9694 9695 1
9694 9794 2
9694 9693 1
9695 9595 4
9695 9696 5
9695 9795 5
9695 9694 1
9696 9596 3
9696 9697 3
9696 9796 1
9696 9695 2
9697 9597 4
9697 9698 2
9697 9797 2
9697 9696 1
9698 9598 1
9698 9699 2
9698 9798 5
9698 9697 3
9699 9599 2
9699 9799 1
9699 9698 5
9700 9600 3
9700 9701 1
9700 9800 1
9701 9601 3
9701 9702 2
9701 9801 2
9701 9700 1
9702 9602 5
9702 9703 2
9702 9802 1
9702 9701 4
9703 9603 5
9703 9704 2
9703 9803 1
9703 9702 3
9704 9604 5
9704 9705 1
9704 9804 1
9704 9703 5
9705 9605 2
9705 9706 1
9705 9805 3
9705 9704 3
9706 9606 5
9706 9707 3
9706 9806 4
9706 9705 2
9707 9607 5
9707 9708 3
9707 9807 4
9707 9706 4
9708 9608 5
9708 9709 4
9708 9808 2
9708 9707 5
9709 9609 5
9709 9710 2
9709 9809 3
9709 9708 3
9710 9610 3
9710 9711 2
9710 9810 5
9710 9709 1
9711 9611 3
9711 9712 1
9711 9811 5
9711 9710 2
9712 9612 4
9712 9713 2
9712 9812 2
9712 9711 5
9713 9613 2
9713 9714 4
9713 9813 3
9713 9712 2
9714 9614 5
9714 9715 3
9714 9814 1
9714 9713 5
9715 9615 3
9715 9716 2
9715 9815 3
9715 9714 3
9716 9616 4
9716 9717 4
9716 9816 5
9716 9715 5
9717 9617 1
9717 9718 3
9717 9817 3
9717 9716 5
9718 9618 1
9718 9719 2
9718 9818 1
9718 9717 5
9719 9619 1
9719 9720 5
9719 9819 4
9719 9718 5
9720 9620 3
9720 9721 3
9720 9820 3
9720 9719 5
9721 9621 4
9721 9722 4
9721 9821 1
9721 9720 3
9722 9622 1
9722 9723 3
9722 9822 5
9722 9721 5
9723 9623 3
9723 9724 5
9723 9823 1
9723 9722 3
9724 9624 1
9724 9725 5
9724 9824 5
9724 9723 2
9725 9625 3
9725 9726 3
9725 9825 4
9725 9724 3
9726 9626 1
9726 9727 2
9726 9826 3
9726 9725 1
9727 9627 4
9727 9728 4
9727 9827 5
9727 9726 3
9728 9628 3
9728 9729 3
9728 9828 5
9728 9727 2
9729 9629 3
9729 9730 3
9729 9829 5
9729 9728 5
9730 9630 1
9730 9731 1
9730 9830 5
9730 9729 2
9731 9631 2
9731 9732 4
9731 9831 4
9731 9730 3
9732 9632 3
9732 9733 4
9732 9832 4
9732 9731 4
9733 9633 4
9733 9734 3
9733 9833 3
9733 9732 5
9734 9634 2
9734 9735 3
9734 9834 3
9734 9733 1
9735 9635 2
9735 9736 2
9735 9835 5
9735 9734 4
9736 9636 2
9736 9737 3
9736 9836 5
9736 9735 2
9737 9637 4
9737 9738 5
9737 9837 4
9737 9736 5
9738 9638 1
9738 9739 1
9738 9838 4
9738 9737 1
9739 9639 3
9739 9740 3
9739 9839 3
9739 9738 5
9740 9640 3
9740 9741 5
9740 9840 3
9740 9739 5
9741 9641 4
9741 9742 4
9741 9841 3
9741 9740 1
9742 9642 4
9742 9743 4
9742 9842 2
9742 9741 2
9743 9643 5
9743 9744 3
9743 9843 4
9743 9742 4
9744 9644 1
9744 9745 2
9744 9844 3
9744 9743 3
9745 9645 5
9745 9746 2
9745 9845 3
9745 9744 1
9746 9646 2
9746 9747 4
9746 9846 4
9746 9745 4
9747 9647 3
9747 9748 5
9747 9847 1
9747 9746 4
9748 9648 3
9748 9749 1
9748 9848 2
9748 9747 2
9749 9649 4
9749 9750 2
9749 9849 4
9749 9748 4
9750 9650 3
9750 9751 2
9750 9850 1
9750 9749 3
9751 9651 3
9751 9752 1
9751 9851 2
9751 9750 3
9752 9652 1
9752 9753 4
9752 9852 1
9752 9751 1
9753 9653 3
9753 9754 3
9753 9853 3
9753 9752 3
9754 9654 5
9754 9755 2
9754 9854 3
9754 9753 3
9755 9655 3
9755 9756 5
9755 9855 3
9755 9754 3
9756 9656 4
9756 9757 2
9756 9856 1
9756 9755 4
9757 9657 5
9757 9758 2
9757 9857 2
9757 9756 3
9758 9658 4
9758 9759 4
9758 9858 4
9758 9757 5
9759 9659 1
9759 9760 5
9759 9859 5
9759 9758 3
9760 9660 1
9760 9761 3
9760 9860 5
9760 9759 1
9761 9661 1
9761 9762 5
9761 9861 4
9761 9760 1
9762 9662 3
9762 9763 2
9762 9862 1
9762 9761 4
9763 9663 1
9763 9764 3
9763 9863 3
9763 9762 4
9764 9664 5
9764 9765 3
9764 9864 2
9764 9763 1
9765 9665 5
9765 9766 4
9765 9865 5
9765 9764 2
9766 9666 2
9766 9767 4
9766 9866 5
9766 9765 4
9767 9667 1
9767 9768 5
9767 9867 2
9767 9766 1
9768 9668 4
9768 9769 1
9768 9868 5
9768 9767 5
9769 9669 5
9769 9770 5
9769 9869 5
9769 9768 3
9770 9670 1
9770 9771 1
9770 9870 1
9770 9769 3
9771 9671 3
9771 9772 5
9771 9871 2
9771 9770 5
9772 9672 1
9772 9773 1
9772 9872 1
9772 9771 3
9773 9673 2
9773 9774 2
9773 9873 1
9773 9772 2
9774 9674 4
9774 9775 3
9774 9874 1
9774 9773 1
9775 9675 5
9775 9776 2
9775 9875 2
9775 9774 2
9776 9676 5
9776 9777 4
9776 9876 2
9776 9775 4
9777 9677 5
9777 9778 1
9777 9877 2
9777 9776 1
9778 9678 2
9778 9779 5
9778 9878 5
9778 9777 4
9779 9679 5
9779 9780 2
9779 9879 1
9779 9778 5
9780 9680 5
9780 9781 5
9780 9880 2
9780 9779 5
9781 9681 3
9781 9782 3
9781 9881 4
9781 9780 5
9782 9682 1
9782 9783 4
9782 9882 4
9782 9781 4
9783 9683 4
9783 9784 2
9783 9883 3
9783 9782 2
9784 9684 1
9784 9785 5
9784 9884 2
9784 9783 3
9785 9685 5
9785 9786 1
9785 9885 2
9785 9784 3
9786 9686 2
9786 9787 4
9786 9886 4
9786 9785 3
9787 9687 4
9787 9788 3
9787 9887 2
9787 9786 4
9788 9688 3
9788 9789 3
9788 9888 1
9788 9787 3
9789 9689 4
9789 9790 5
9789 9889 2
9789 9788 2
9790 9690 4
9790 9791 5
9790 9890 4
9790 9789 4
9791 9691 2
9791 9792 4
9791 9891 5
9791 9790 3
9792 9692 5
9792 9793 1
9792 9892 5
9792 9791 4
9793 9693 4
9793 9794 3
9793 9893 3
9793 9792 5
9794 9694 5
9794 9795 2
9794 9894 3
9794 9793 4
9795 9695 5
9795 9796 4
9795 9895 1
9795 9794 3
9796 9696 3
9796 9797 4
9796 9896 5
9796 9795 2
9797 9697 5
9797 9798 5
9797 9897 3
9797 9796 2
9798 9698 1
9798 9799 3
9798 9898 3
9798 9797 4
9799 9699 4
9799 9899 3
9799 9798 2
9800 9700 2
9800 9801 5
9800 9900 3
9801 9701 1
9801 9802 2
9801 9901 4
9801 9800 5
9802 9702 1
9802 9803 5
9802 9902 5
9802 9801 4
9803 9703 3
9803 9804 5
9803 9903 4
9803 9802 4
9804 9704 4
9804 9805 5
9804 9904 1
9804 9803 1
9805 9705 5
9805 9806 2
9805 9905 2
9805 9804 5
9806 9706 2
9806 9807 2
9806 9906 2
9806 9805 3
9807 9707 4
9807 9808 5
9807 9907 4
9807 9806 2
9808 9708 2
9808 9809 1
9808 9908 2
9808 9807 4
9809 9709 2
9809 9810 2
9809 9909 4
9809 9808 5
9810 9710 3
9810 9811 1
9810 9910 4
9810 9809 1
9811 9711 2
9811 9812 5
9811 9911 4
9811 9810 4
9812 9712 3
9812 9813 5
9812 9912 3
9812 9811 4
9813 9713 5
9813 9814 2
9813 9913 1
9813 9812 3
9814 9714 3
9814 9815 3
9814 9914 5
9814 9813 4
9815 9715 3
9815 9816 4
9815 9915 4
9815 9814 3
9816 9716 4
9816 9817 5
9816 9916 4
9816 9815 5
9817 9717 1
9817 9818 1
9817 9917 3
9817 9816 3
9818 9718 1
9818 9819 2
9818 9918 4
9818 9817 4
9819 9719 4
9819 9820 3
9819 9919 3
9819 9818 5
9820 9720 3
9820 9821 2
9820 9920 4
9820 9819 2
9821 9721 2
9821 9822 4
9821 9921 1
9821 9820 3
9822 9722 4
9822 9823 1
9822 9922 3
9822 9821 4
9823 9723 3
9823 9824 2
9823 9923 3
9823 9822 3
9824 9724 2
9824 9825 1
9824 9924 1
9824 9823 3
9825 9725 2
9825 9826 1
9825 9925 5
9825 9824 4
9826 9726 4
9826 9827 3
9826 9926 4
9826 9825 1
9827 9727 3
9827 9828 2
9827 9927 1
9827 9826 2
9828 9728 3
9828 9829 1
9828 9928 5
9828 9827 1
9829 9729 5
9829 9830 5
9829 9929 3
9829 9828 1
9830 9730 3
9830 9831 4
9830 9930 3
9830 9829 1
9831 9731 2
9831 9832 2
9831 9931 3
9831 9830 5
9832 9732 3
9832 9833 1
9832 9932 5
9832 9831 1
9833 9733 3
9833 9834 2
9833 9933 2
9833 9832 2
9834 9734 5
9834 9835 5
9834 9934 4
9834 9833 4
9835 9735 4
9835 9836 2
9835 9935 2
9835 9834 4
9836 9736 5
9836 9837 1
9836 9936 3
9836 9835 2
9837 9737 2
9837 9838 2
9837 9937 5
9837 9836 1
9838 9738 1
9838 9839 4
9838 9938 1
9838 9837 5
9839 9739 5
9839 9840 1
9839 9939 4
9839 9838 1
9840 9740 1
9840 9841 3
9840 9940 2
9840 9839 2
9841 9741 5
9841 9842 1
9841 9941 5
9841 9840 3
9842 9742 3
9842 9843 4
9842 9942 3
9842 9841 5
9843 9743 4
9843 9844 3
9843 9943 5
9843 9842 5
9844 9744 1
9844 9845 3
9844 9944 2
9844 9843 4
9845 9745 1
9845 9846 2
9845 9945 3
9845 9844 5
9846 9746 5
9846 9847 4
9846 9946 1
9846 9845 1
9847 9747 3
9847 9848 2
9847 9947 3
9847 9846 5
9848 9748 2
9848 9849 1
9848 9948 3
9848 9847 1
9849 9749 4
9849 9850 4
9849 9949 3
9849 9848 1
9850 9750 2
9850 9851 1
9850 9950 4
9850 9849 1
9851 9751 1
9851 9852 5
9851 9951 2
9851 9850 2
9852 9752 1
9852 9853 4
9852 9952 5
9852 9851 5
9853 9753 4
9853 9854 3
9853 9953 3
9853 9852 2
9854 9754 4
9854 9855 1
9854 9954 3
9854 9853 4
9855 9755 2
9855 9856 2
9855 9955 1
9855 9854 3
9856 9756 2
9856 9857 1
9856 9956 5
9856 9855 2
9857 9757 4
9857 9858 3
9857 9957 2
9857 9856 1
9858 9758 2
9858 9859 4
9858 9958 4
9858 9857 4
9859 9759 3
9859 9860 4
9859 9959 1
9859 9858 2
9860 9760 2
9860 9861 2
9860 9960 4
9860 9859 1
9861 9761 4
9861 9862 3
9861 9961 3
9861 9860 5
9862 9762 1
9862 9863 4
9862 9962 2
9862 9861 3
9863 9763 4
9863 9864 3
9863 9963 3
9863 9862 3
9864 9764 2
9864 9865 4
9864 9964 4
9864 9863 2
9865 9765 1
9865 9866 2
9865 9965 4
9865 9864 4
9866 9766 1
9866 9867 2
9866 9966 4
9866 9865 3
9867 9767 1
9867 9868 1
9867 9967 1
9867 9866 3
9868 9768 4
9868 9869 5
9868 9968 4
9868 9867 1
9869 9769 4
9869 9870 5
9869 9969 1
9869 9868 3
9870 9770 4
9870 9871 1
9870 9970 1
9870 9869 2
9871 9771 1
9871 9872 5
9871 9971 1
9871 9870 4
9872 9772 4
9872 9873 5
9872 9972 2
9872 9871 2
9873 9773 2
9873 9874 3
9873 9973 2
9873 9872 5
9874 9774 2
9874 9875 2
9874 9974 1
9874 9873 3
9875 9775 3
9875 9876 5
9875 9975 3
9875 9874 5
9876 9776 3
9876 9877 1
9876 9976 4
9876 9875 3
9877 9777 4
9877 9878 1
9877 9977 4
9877 9876 5
9878 9778 3
9878 9879 2
9878 9978 2
9878 9877 1
9879 9779 5
9879 9880 2
9879 9979 1
9879 9878 2
9880 9780 3
9880 9881 2
9880 9980 4
9880 9879 3
9881 9781 4
9881 9882 5
9881 9981 3
9881 9880 3
9882 9782 1
9882 9883 5
9882 9982 1
9882 9881 2
9883 9783 1
9883 9884 3
9883 9983 1
9883 9882 1
9884 9784 3
9884 9885 3
9884 9984 5
9884 9883 5
9885 9785 1
9885 9886 3
9885 9985 1
9885 9884 1
9886 9786 5
9886 9887 2
9886 9986 2
9886 9885 3
9887 9787 4
9887 9888 3
9887 9987 2
9887 9886 2
9888 9788 4
9888 9889 2
9888 9988 2
9888 9887 1
9889 9789 3
9889 9890 4
9889 9989 3
9889 9888 3
9890 9790 2
9890 9891 4
9890 9990 1
9890 9889 1
9891 9791 5
9891 9892 5
9891 9991 3
9891 9890 1
9892 9792 4
9892 9893 3
9892 9992 2
9892 9891 4
9893 9793 4
9893 9894 1
9893 9993 2
9893 9892 1
9894 9794 4
9894 9895 1
9894 9994 3
9894 9893 4
9895 9795 1
9895 9896 1
9895 9995 2
9895 9894 3
9896 9796 5
9896 9897 2
9896 9996 5
9896 9895 2
9897 9797 2
9897 9898 5
9897 9997 4
9897 9896 1
9898 9798 4
9898 9899 5
9898 9998 3
9898 9897 4
9899 9799 5
9899 9999 1
9899 9898 4
9900 9800 4
9900 9901 5
9901 9801 4
9901 9902 3
9901 9900 1
9902 9802 3
9902 9903 5
9902 9901 1
9903 9803 4
9903 9904 2
9903 9902 5
9904 9804 2
9904 9905 1
9904 9903 1
9905 9805 1
9905 9906 3
9905 9904 3
9906 9806 5
9906 9907 1
9906 9905 4
9907 9807 5
9907 9908 5
9907 9906 2
9908 9808 2
9908 9909 1
9908 9907 4
9909 9809 5
9909 9910 2
9909 9908 4
9910 9810 3
9910 9911 4
9910 9909 1
9911 9811 5
9911 9912 5
9911 9910 3
9912 9812 3
9912 9913 1
9912 9911 4
9913 9813 3
9913 9914 3
9913 9912 3
9914 9814 2
9914 9915 3
9914 9913 5
9915 9815 2
9915 9916 3
9915 9914 4
9916 9816 1
9916 9917 4
9916 9915 4
9917 9817 3
9917 9918 1
9917 9916 5
9918 9818 3
9918 9919 4
9918 9917 2
9919 9819 1
9919 9920 4
9919 9918 5
9920 9820 3
9920 9921 4
9920 9919 2
9921 9821 2
9921 9922 4
9921 9920 1
9922 9822 5
9922 9923 2
9922 9921 4
9923 9823 1
9923 9924 2
9923 9922 4
9924 9824 1
9924 9925 1
9924 9923 5
9925 9825 4
9925 9926 5
9925 9924 1
9926 9826 1
9926 9927 1
9926 9925 5
9927 9827 2
9927 9928 4
9927 9926 1
9928 9828 5
9928 9929 1
9928 9927 5
9929 9829 3
9929 9930 5
9929 9928 1
9930 9830 5
9930 9931 1
9930 9929 4
9931 9831 1
9931 9932 1
9931 9930 2
9932 9832 2
9932 9933 4
9932 9931 4
9933 9833 2
9933 9934 5
9933 9932 1
9934 9834 3
9934 9935 5
9934 9933 4
9935 9835 4
9935 9936 4
9935 9934 4
9936 9836 1
9936 9937 1
9936 9935 3
9937 9837 5
9937 9938 4
9937 9936 2
9938 9838 4
9938 9939 5
9938 9937 2
9939 9839 1
9939 9940 1
9939 9938 5
9940 9840 3
9940 9941 4
9940 9939 5
9941 9841 4
9941 9942 3
9941 9940 4
9942 9842 1
9942 9943 4
9942 9941 4
9943 9843 2
9943 9944 3
9943 9942 5
9944 9844 3
9944 9945 4
9944 9943 5
9945 9845 1
9945 9946 5
9945 9944 2
9946 9846 2
9946 9947 1
9946 9945 3
9947 9847 1
9947 9948 2
9947 9946 3
9948 9848 4
9948 9949 2
9948 9947 5
9949 9849 4
9949 9950 3
9949 9948 5
9950 9850 5
9950 9951 2
9950 9949 3
9951 9851 1
9951 9952 1
9951 9950 4
9952 9852 3
9952 9953 1
9952 9951 4
9953 9853 4
9953 9954 3
9953 9952 5
9954 9854 4
9954 9955 4
9954 9953 2
9955 9855 3
9955 9956 5
9955 9954 1
9956 9856 5
9956 9957 2
9956 9955 1
9957 9857 4
9957 9958 4
9957 9956 3
9958 9858 5
9958 9959 4
9958 9957 3
9959 9859 4
9959 9960 4
9959 9958 5
9960 9860 2
9960 9961 3
9960 9959 5
9961 9861 5
9961 9962 3
9961 9960 5
9962 9862 3
9962 9963 2
9962 9961 5
9963 9863 2
9963 9964 3
9963 9962 4
9964 9864 5
9964 9965 5
9964 9963 5
9965 9865 4
9965 9966 1
9965 9964 2
9966 9866 3
9966 9967 2
9966 9965 1
9967 9867 1
9967 9968 5
9967 9966 2
9968 9868 1
9968 9969 4
9968 9967 3
9969 9869 4
9969 9970 5
9969 9968 1
9970 9870 2
9970 9971 4
9970 9969 4
9971 9871 1
9971 9972 5
9971 9970 1
9972 9872 5
9972 9973 4
9972 9971 5
9973 9873 5
9973 9974 2
9973 9972 2
9974 9874 3
9974 9975 2
9974 9973 1
9975 9875 2
9975 9976 1
9975 9974 2
9976 9876 5
9976 9977 4
9976 9975 5
9977 9877 2
9977 9978 1
9977 9976 3
9978 9878 4
9978 9979 5
9978 9977 2
9979 9879 5
9979 9980 4
9979 9978 3
9980 9880 2
9980 9981 2
9980 9979 3
9981 9881 3
9981 9982 2
9981 9980 4
9982 9882 2
9982 9983 1
9982 9981 2
9983 9883 5
9983 9984 3
9983 9982 5
9984 9884 4
9984 9985 3
9984 9983 4
9985 9885 5
9985 9986 1
9985 9984 1
9986 9886 2
9986 9987 5
9986 9985 2
9987 9887 4
9987 9988 5
9987 9986 5
9988 9888 2
9988 9989 3
9988 9987 3
9989 9889 1
9989 9990 4
9989 9988 2
9990 9890 5
9990 9991 2
9990 9989 2
9991 9891 2
9991 9992 5
9991 9990 2
9992 9892 1
9992 9993 4
9992 9991 4
9993 9893 5
9993 9994 4
9993 9992 3
9994 9894 1
9994 9995 2
9994 9993 5
9995 9895 3
9995 9996 4
9995 9994 3
9996 9896 1
9996 9997 3
9996 9995 3
9997 9897 4
9997 9998 4
9997 9996 4
9998 9898 5
9998 9999 1
9998 9997 4
9999 9899 3
9999 9998 2
