# Format: u v length(m)
363 138 9.40
138 363 9.40
138 923 133.35
923 138 133.35
923 1651 252.11
1651 923 252.11
1651 81 309.41
81 1651 309.41
81 3347 155.67
3347 81 155.67
3347 185 77.28
185 3347 77.28
185 1650 140.79
1650 185 140.79
1650 4056 122.05
4056 1650 122.05
4056 710 88.74
710 4056 88.74
710 1294 55.58
1294 710 55.58
1294 1298 309.01
1298 1294 309.01
1298 1648 158.58
1648 1298 158.58
1648 1977 95.77
1977 1648 95.77
1977 2794 561.78
2794 1977 561.78
2794 1642 133.97
1642 2794 133.97
1642 362 10.00
362 1642 10.00
361 924 15.58
924 361 15.58
924 1792 13.87
1792 924 13.87
1792 5142 513.31
5142 1792 513.31
5142 1643 47.00
1643 5142 47.00
1643 4668 83.13
4668 1643 83.13
4668 3313 62.47
3313 4668 62.47
3313 1864 76.89
1864 3313 76.89
1864 1524 131.09
1524 1864 131.09
1524 1711 64.99
1711 1524 64.99
1711 1710 193.39
1710 1711 193.39
1710 5231 58.73
5231 1710 58.73
5231 1637 237.56
1637 5231 237.56
1637 608 41.35
608 1637 41.35
608 1189 44.24
1189 608 44.24
1189 1194 174.18
1194 1189 174.18
1194 1655 123.07
1655 1194 123.07
1655 1200 129.47
1200 1655 129.47
1200 1937 185.27
1937 1200 185.27
1937 1656 86.48
1656 1937 86.48
1656 4414 71.87
4414 1656 71.87
4414 4768 86.42
4768 4414 86.42
4768 1936 28.79
1936 4768 28.79
1936 1652 95.35
1652 1936 95.35
1652 1778 151.53
1778 1652 151.53
1778 400 82.45
400 1778 82.45
400 532 197.14
532 400 197.14
532 160 183.20
160 532 183.20
160 159 4.50
159 160 4.50
159 364 10.80
364 159 10.80
3765 170 16.53
170 3765 16.53
170 3789 136.27
3789 170 136.27
3789 569 536.54
569 3789 536.54
569 1505 198.76
1505 569 198.76
1505 2132 184.48
2132 1505 184.48
2132 2133 126.72
2133 2132 126.72
2133 454 106.98
454 2133 106.98
454 4038 94.63
4038 454 94.63
4038 399 104.66
399 4038 104.66
399 1482 47.22
1482 399 47.22
1482 4523 29.42
4523 1482 29.42
4523 510 37.03
510 4523 37.03
510 3445 12.07
3445 510 12.07
3445 15 64.32
15 3445 64.32
15 1485 74.19
1485 15 74.19
1485 4527 11.37
4527 1485 11.37
4527 2720 98.47
2720 4527 98.47
2720 1503 119.63
1503 2720 119.63
1503 3671 74.96
3671 1503 74.96
3671 1489 92.19
1489 3671 92.19
1489 3075 80.18
3075 1489 80.18
3075 1492 90.21
1492 3075 90.21
1492 740 119.92
740 1492 119.92
740 359 106.67
359 740 106.67
532 533 28.20
533 532 28.20
533 534 16.39
534 533 16.39
534 535 10.62
535 534 10.62
535 536 7.59
536 535 7.59
536 3283 6.60
3283 536 6.60
3283 537 6.19
537 3283 6.19
537 538 6.39
538 537 6.39
538 539 6.41
539 538 6.41
539 3288 5.89
3288 539 5.89
3288 540 6.22
540 3288 6.22
540 541 6.10
541 540 6.10
541 3290 5.54
3290 541 5.54
3290 542 5.58
542 3290 5.58
542 543 6.14
543 542 6.14
543 3294 7.31
3294 543 7.31
3294 544 5.55
544 3294 5.55
544 3307 21.93
3307 544 21.93
3307 3333 75.18
3333 3307 75.18
3333 545 40.61
545 3333 40.61
545 1233 5.71
1233 545 5.71
1233 546 6.58
546 1233 6.58
546 547 5.72
547 546 5.72
547 1232 5.10
1232 547 5.10
1232 548 5.45
548 1232 5.45
548 1231 5.61
1231 548 5.61
1231 549 6.10
549 1231 6.10
549 1230 5.19
1230 549 5.19
1230 550 6.41
550 1230 6.41
550 551 5.92
551 550 5.92
551 923 16.30
923 551 16.30
1263 1264 4.20
1264 1263 4.20
1264 1638 4.06
1638 1264 4.06
1638 3441 4.63
3441 1638 4.63
3441 2806 4.63
2806 3441 4.63
2806 1811 5.18
1811 2806 5.18
1811 2803 4.94
2803 1811 4.94
2803 1812 5.48
1812 2803 5.48
1812 1639 5.78
1639 1812 5.78
1639 2801 5.26
2801 1639 5.26
2801 2800 5.13
2800 2801 5.13
2800 1813 5.24
1813 2800 5.24
1813 2799 4.94
2799 1813 4.94
2799 2798 4.48
2798 2799 4.48
2798 1640 4.14
1640 2798 4.14
1640 2797 4.27
2797 1640 4.27
2797 1239 76.24
1239 2797 76.24
1239 1653 26.54
1653 1239 26.54
1653 1261 24.40
1261 1653 24.40
1261 1228 57.97
1228 1261 57.97
1228 4468 81.88
4468 1228 81.88
4468 1215 87.01
1215 4468 87.01
1215 95 32.96
95 1215 32.96
95 1184 59.57
1184 95 59.57
1184 1732 38.73
1732 1184 38.73
1732 1178 48.38
1178 1732 48.38
1178 1817 85.38
1817 1178 85.38
1817 1156 25.43
1156 1817 25.43
1156 1155 59.70
1155 1156 59.70
1155 1154 21.48
1154 1155 21.48
1154 1131 38.59
1131 1154 38.59
1131 1130 67.32
1130 1131 67.32
1130 1129 73.78
1129 1130 73.78
1129 1734 68.16
1734 1129 68.16
1734 1128 26.02
1128 1734 26.02
1128 1810 34.99
1810 1128 34.99
1810 1127 47.05
1127 1810 47.05
1127 1100 36.27
1100 1127 36.27
1100 4722 54.59
4722 1100 54.59
4722 1088 246.21
1088 4722 246.21
1088 1089 154.77
1089 1088 154.77
1089 1087 38.76
1087 1089 38.76
1087 1654 86.40
1654 1087 86.40
1654 4391 27.39
4391 1654 27.39
4391 576 200.98
576 4391 200.98
576 4223 9.24
4223 576 9.24
4223 1188 33.08
1188 4223 33.08
1188 197 39.47
197 1188 39.47
197 4497 35.10
4497 197 35.10
4497 577 94.75
577 4497 94.75
577 1976 164.45
1976 577 164.45
1976 1068 88.53
1068 1976 88.53
1068 300 53.75
300 1068 53.75
300 3488 88.31
3488 300 88.31
3488 1641 78.73
1641 3488 78.73
1641 4222 79.11
4222 1641 79.11
4222 4479 6.97
4479 4222 6.97
4479 4480 4.18
4480 4479 4.18
4480 4481 5.95
4481 4480 5.95
4481 4482 24.49
4482 4481 24.49
4482 4221 2.87
4221 4482 2.87
4221 4483 3.02
4483 4221 3.02
4483 4484 5.21
4484 4483 5.21
4484 4220 33.81
4220 4484 33.81
4220 4219 67.20
4219 4220 67.20
4219 4212 238.08
4212 4219 238.08
4212 4213 8.72
4213 4212 8.72
4213 4214 46.03
4214 4213 46.03
4214 4485 31.11
4485 4214 31.11
4485 4486 5.50
4486 4485 5.50
1641 3490 8.08
3490 1641 8.08
3490 3487 4.16
3487 3490 4.16
3487 2823 4.73
2823 3487 4.73
2823 3480 5.06
3480 2823 5.06
3480 3479 5.39
3479 3480 5.39
3479 2819 5.72
2819 3479 5.72
2819 2817 4.22
2817 2819 4.22
2817 2816 4.02
2816 2817 4.02
2816 2814 4.58
2814 2816 4.58
2814 2812 5.03
2812 2814 5.03
2812 2811 4.81
2811 2812 4.81
2811 3455 4.84
3455 2811 4.84
3455 3448 6.02
3448 3455 6.02
3448 1642 78.23
1642 3448 78.23
1976 2005 13.49
2005 1976 13.49
2005 2006 6.22
2006 2005 6.22
2006 2007 8.49
2007 2006 8.49
2007 2008 10.83
2008 2007 10.83
2008 2009 9.50
2009 2008 9.50
2009 2010 10.52
2010 2009 10.52
2010 2011 13.19
2011 2010 13.19
2011 2012 11.62
2012 2011 11.62
2012 2013 8.93
2013 2012 8.93
2013 2014 15.98
2014 2013 15.98
2014 2015 9.96
2015 2014 9.96
2015 2016 9.12
2016 2015 9.12
2016 2017 10.82
2017 2016 10.82
2017 2018 10.08
2018 2017 10.08
2018 2019 6.23
2019 2018 6.23
2019 607 5.56
607 2019 5.56
607 2020 7.85
2020 607 7.85
2020 2021 13.75
2021 2020 13.75
2021 2023 15.17
2023 2021 15.17
2023 2024 15.91
2024 2023 15.91
2024 2025 16.57
2025 2024 16.57
2025 302 18.24
302 2025 18.24
302 2026 19.14
2026 302 19.14
2026 2027 18.57
2027 2026 18.57
2027 303 22.81
303 2027 22.81
303 1977 69.50
1977 303 69.50
938 940 5.99
940 938 5.99
940 3312 5.77
3312 940 5.77
3312 3316 5.58
3316 3312 5.58
3316 944 6.87
944 3316 6.87
944 950 8.81
950 944 8.81
950 3321 6.60
3321 950 6.60
3321 3323 8.14
3323 3321 8.14
3323 958 6.13
958 3323 6.13
958 1787 7.84
1787 958 7.84
1787 417 48.89
417 1787 48.89
417 108 79.82
108 417 79.82
108 4739 21.27
4739 108 21.27
4739 1508 45.00
1508 4739 45.00
1508 137 38.43
137 1508 38.43
137 135 49.15
135 137 49.15
135 1909 160.05
1909 135 160.05
1909 3867 44.52
3867 1909 44.52
3867 1507 51.28
1507 3867 51.28
1507 1506 1.97
1506 1507 1.97
1506 5171 36.59
5171 1506 36.59
5171 3878 16.73
3878 5171 16.73
3878 1199 20.84
1199 3878 20.84
1199 5190 128.15
5190 1199 128.15
5190 5204 206.92
5204 5190 206.92
5204 1287 129.26
1287 5204 129.26
1287 3905 44.79
3905 1287 44.79
3905 5214 7.10
5214 3905 7.10
5214 1649 37.44
1649 5214 37.44
1649 5225 45.64
5225 1649 45.64
5225 3919 16.56
3919 5225 16.56
3919 222 176.69
222 3919 176.69
222 1548 30.77
1548 222 30.77
1548 1463 53.77
1463 1548 53.77
1463 4711 46.99
4711 1463 46.99
4711 1851 17.91
1851 4711 17.91
1851 1525 51.33
1525 1851 51.33
1525 252 50.69
252 1525 50.69
252 5245 49.64
5245 252 49.64
5245 1644 36.01
1644 5245 36.01
1644 5255 43.35
5255 1644 43.35
5255 240 21.93
240 5255 21.93
240 5264 233.35
5264 240 233.35
5264 1462 39.58
1462 5264 39.58
1462 5272 40.18
5272 1462 40.18
5272 5280 4.47
5280 5272 4.47
5280 1461 39.11
1461 5280 39.11
1461 5288 37.73
5288 1461 37.73
5288 3364 90.66
3364 5288 90.66
3364 3368 20.63
3368 3364 20.63
3368 3367 6.40
3367 3368 6.40
3367 3366 9.40
3366 3367 9.40
3366 1645 5.69
1645 3366 5.69
1645 3370 5.48
3370 1645 5.48
3370 3369 6.01
3369 3370 6.01
3369 3373 35.41
3373 3369 35.41
3373 3377 7.09
3377 3373 7.09
3377 3376 6.01
3376 3377 6.01
3376 3375 6.29
3375 3376 6.29
3375 3374 9.37
3374 3375 9.37
3374 1646 42.73
1646 3374 42.73
1646 5289 218.36
5289 1646 218.36
5289 5290 6.27
5290 5289 6.27
5290 5291 6.69
5291 5290 6.69
5291 5292 7.51
5292 5291 7.51
5292 5293 7.40
5293 5292 7.40
5293 5294 7.86
5294 5293 7.86
5294 5295 6.69
5295 5294 6.69
5295 5296 6.18
5296 5295 6.18
5296 5297 7.23
5297 5296 7.23
5297 5298 6.63
5298 5297 6.63
5298 5299 7.20
5299 5298 7.20
5299 5300 5.07
5300 5299 5.07
5300 3361 6.31
3361 5300 6.31
4391 4397 13.01
4397 4391 13.01
4397 4398 8.69
4398 4397 8.69
4398 4399 8.28
4399 4398 8.28
4399 4401 9.11
4401 4399 9.11
4401 4402 10.82
4402 4401 10.82
4402 4403 8.51
4403 4402 8.51
4403 4404 9.87
4404 4403 9.87
4404 4405 8.99
4405 4404 8.99
4405 4406 8.82
4406 4405 8.82
4406 4407 8.11
4407 4406 8.11
4407 4409 12.23
4409 4407 12.23
4409 1069 8.99
1069 4409 8.99
1069 4411 7.95
4411 1069 7.95
4411 4413 8.86
4413 4411 8.86
4413 4415 9.53
4415 4413 9.53
4415 1070 9.78
1070 4415 9.78
1070 4419 10.50
4419 1070 10.50
4419 1295 10.51
1295 4419 10.51
1295 1071 12.48
1071 1295 12.48
1071 4421 12.33
4421 1071 12.33
4421 1072 13.21
1072 4421 13.21
1072 1296 12.52
1296 1072 12.52
1296 1073 12.24
1073 1296 12.24
1073 4424 12.17
4424 1073 12.17
4424 1074 15.14
1074 4424 15.14
1074 1297 15.07
1297 1074 15.07
1297 1294 86.86
1294 1297 86.86
1732 1752 9.17
1752 1732 9.17
1752 1754 6.41
1754 1752 6.41
1754 1756 5.17
1756 1754 5.17
1756 1757 5.95
1757 1756 5.95
1757 1758 6.88
1758 1757 6.88
1758 1759 5.07
1759 1758 5.07
1759 1760 6.26
1760 1759 6.26
1760 1761 5.86
1761 1760 5.86
1761 1762 6.54
1762 1761 6.54
1762 1763 6.67
1763 1762 6.67
1763 1651 78.43
1651 1763 78.43
1817 1820 12.42
1820 1817 12.42
1820 1132 9.90
1132 1820 9.90
1132 1822 8.99
1822 1132 8.99
1822 1823 11.43
1823 1822 11.43
1823 1824 9.86
1824 1823 9.86
1824 1825 10.80
1825 1824 10.80
1825 1133 10.39
1133 1825 10.39
1133 1826 8.74
1826 1133 8.74
1826 1827 6.56
1827 1826 6.56
1827 1134 6.72
1134 1827 6.72
1134 1142 3.50
1142 1134 3.50
1142 3362 12.01
3362 1142 12.01
3362 1135 10.34
1135 3362 10.34
1135 1136 11.63
1136 1135 11.63
1136 3363 11.70
3363 1136 11.70
3363 1137 13.91
1137 3363 13.91
1137 3365 13.95
3365 1137 13.95
3365 1138 14.18
1138 3365 14.18
1138 3371 14.21
3371 1138 14.21
3371 1139 14.65
1139 3371 14.65
1139 3372 17.81
3372 1139 17.81
3372 1140 17.89
1140 3372 17.89
1140 1141 19.02
1141 1140 19.02
1141 183 17.34
183 1141 17.34
183 184 20.17
184 183 20.17
184 185 95.79
185 184 95.79
1734 1101 9.01
1101 1734 9.01
1101 1782 7.57
1782 1101 7.57
1782 1783 8.86
1783 1782 8.86
1783 1784 7.40
1784 1783 7.40
1784 1786 9.13
1786 1784 9.13
1786 1785 9.15
1785 1786 9.15
1785 4062 10.17
4062 1785 10.17
4062 1102 9.17
1102 4062 9.17
1102 1103 9.02
1103 1102 9.02
1103 1104 9.67
1104 1103 9.67
1104 1112 13.22
1112 1104 13.22
1112 4063 11.85
4063 1112 11.85
4063 1105 7.64
1105 4063 7.64
1105 4064 8.31
4064 1105 8.31
4064 1106 12.59
1106 4064 12.59
1106 4065 14.81
4065 1106 14.81
4065 1107 12.84
1107 4065 12.84
1107 1108 13.97
1108 1107 13.97
1108 4066 14.49
4066 1108 14.49
4066 1109 14.13
1109 4066 14.13
1109 1110 16.67
1110 1109 16.67
1110 4067 15.99
4067 1110 15.99
4067 1111 15.78
1111 4067 15.78
1111 709 15.98
709 1111 15.98
709 710 123.49
710 709 123.49
1909 1910 16.07
1910 1909 16.07
1910 1911 11.80
1911 1910 11.80
1911 1912 11.89
1912 1911 11.89
1912 1913 12.05
1913 1912 12.05
1913 1914 10.50
1914 1913 10.50
1914 1514 10.85
1514 1914 10.85
1514 5159 8.42
5159 1514 8.42
5159 1915 7.22
1915 5159 7.22
1915 1916 6.40
1916 1915 6.40
1916 1917 12.59
1917 1916 12.59
1917 1918 9.51
1918 1917 9.51
1918 1919 14.16
1919 1918 14.16
1919 1920 18.15
1920 1919 18.15
1920 1921 16.30
1921 1920 16.30
1921 1922 19.52
1922 1921 19.52
1922 1923 21.27
1923 1922 21.27
1923 1924 26.90
1924 1923 26.90
1924 1925 25.69
1925 1924 25.69
1925 1200 78.52
1200 1925 78.52
1199 1320 9.48
1320 1199 9.48
1320 1321 6.72
1321 1320 6.72
1321 1322 4.57
1322 1321 4.57
1322 1323 3.74
1323 1322 3.74
1323 1324 4.11
1324 1323 4.11
1324 1325 3.56
1325 1324 3.56
1325 1326 6.62
1326 1325 6.62
1326 1314 8.82
1314 1326 8.82
1314 1318 46.56
1318 1314 46.56
1318 5175 34.68
5175 1318 34.68
5175 3378 76.07
3378 5175 76.07
3378 1315 14.66
1315 3378 14.66
1315 1316 8.80
1316 1315 8.80
1316 3379 7.06
3379 1316 7.06
3379 1317 7.34
1317 3379 7.34
1317 5173 7.38
5173 1317 7.38
5173 4013 8.10
4013 5173 8.10
4013 5174 8.91
5174 4013 8.91
5174 4830 8.21
4830 5174 8.21
4830 4928 23.69
4928 4830 23.69
4928 1194 112.26
1194 4928 112.26
360 2769 110.12
2769 360 110.12
2769 634 38.50
634 2769 38.50
634 1493 176.12
1493 634 176.12
1493 635 177.76
635 1493 177.76
635 1584 551.44
1584 635 551.44
1584 2606 94.01
2606 1584 94.01
2606 902 98.12
902 2606 98.12
902 1585 125.94
1585 902 125.94
1585 2502 160.47
2502 1585 160.47
2502 4610 316.63
4610 2502 316.63
4610 4611 82.92
4611 4610 82.92
4611 4589 326.51
4589 4611 326.51
4589 2722 171.27
2722 4589 171.27
2722 357 1035.15
357 2722 1035.15
2722 2723 92.06
2723 2722 92.06
2723 2724 29.42
2724 2723 29.42
2724 2725 34.63
2725 2724 34.63
2725 2726 24.92
2726 2725 24.92
2726 2727 24.17
2727 2726 24.17
2727 2728 13.25
2728 2727 13.25
2728 2729 14.14
2729 2728 14.14
2729 2730 7.76
2730 2729 7.76
2730 2731 8.20
2731 2730 8.20
2731 2732 8.37
2732 2731 8.37
2732 2733 7.86
2733 2732 7.86
2733 2734 6.99
2734 2733 6.99
2734 2735 8.63
2735 2734 8.63
2735 2736 10.70
2736 2735 10.70
2736 2760 20.43
2760 2736 20.43
2760 1516 4.95
1516 2760 4.95
1516 2759 3.25
2759 1516 3.25
2759 1517 3.59
1517 2759 3.59
1517 2758 4.41
2758 1517 4.41
2758 75 2.43
75 2758 2.43
75 2757 6.26
2757 75 6.26
2757 4313 8.67
4313 2757 8.67
4313 2756 9.23
2756 4313 9.23
2756 2755 11.48
2755 2756 11.48
2755 2754 10.57
2754 2755 10.57
2754 2753 11.38
2753 2754 11.38
2753 2752 14.86
2752 2753 14.86
2752 2751 10.69
2751 2752 10.69
2751 2750 12.48
2750 2751 12.48
2750 2749 12.67
2749 2750 12.67
2749 2748 11.86
2748 2749 11.86
2748 2747 10.76
2747 2748 10.76
2747 2746 10.39
2746 2747 10.39
2746 2745 9.49
2745 2746 9.49
2745 2721 14.46
2721 2745 14.46
4549 2437 7.27
2437 4549 7.27
2437 4550 5.22
4550 2437 5.22
4550 4551 4.70
4551 4550 4.70
4551 2996 4.69
2996 4551 4.69
2996 4552 4.60
4552 2996 4.60
4552 4553 4.86
4553 4552 4.86
4553 2981 5.18
2981 4553 5.18
2981 4554 5.62
4554 2981 5.62
4554 2978 6.11
2978 4554 6.11
2978 4555 5.93
4555 2978 5.93
4555 4556 6.71
4556 4555 6.71
4556 2972 6.37
2972 4556 6.37
2972 4557 7.05
4557 2972 7.05
4557 4558 10.14
4558 4557 10.14
4558 2964 8.59
2964 4558 8.59
2964 4559 7.99
4559 2964 7.99
4559 2959 7.13
2959 4559 7.13
2959 1662 7.00
1662 2959 7.00
1422 1421 11.46
1421 1422 11.46
1421 1420 4.94
1420 1421 4.94
1420 1419 4.62
1419 1420 4.62
1419 1418 4.93
1418 1419 4.93
1418 1417 5.01
1417 1418 5.01
1417 1416 4.56
1416 1417 4.56
1416 1415 5.77
1415 1416 5.77
1415 1414 4.37
1414 1415 4.37
1414 1413 4.17
1413 1414 4.17
1413 1412 4.01
1412 1413 4.01
1412 1411 3.31
1411 1412 3.31
1411 1410 4.18
1410 1411 4.18
1410 1393 6.62
1393 1410 6.62
1393 1663 44.91
1663 1393 44.91
1663 61 42.03
61 1663 42.03
61 4173 7.49
4173 61 7.49
1665 2458 7.57
2458 1665 7.57
2458 2457 6.00
2457 2458 6.00
2457 2453 5.37
2453 2457 5.37
2453 2456 5.68
2456 2453 5.68
2456 2455 6.75
2455 2456 6.75
2455 2454 6.38
2454 2455 6.38
2454 2449 5.97
2449 2454 5.97
2449 2452 6.07
2452 2449 6.07
2452 2450 6.53
2450 2452 6.53
2450 2451 4.90
2451 2450 4.90
2451 2448 4.83
2448 2451 4.83
2448 2438 3.86
2438 2448 3.86
2438 2447 5.31
2447 2438 5.31
2447 2446 4.69
2446 2447 4.69
2446 2445 6.40
2445 2446 6.40
2445 2444 7.14
2444 2445 7.14
2444 2439 7.49
2439 2444 7.49
2439 2443 7.56
2443 2439 7.56
2443 2442 7.07
2442 2443 7.07
2442 2441 7.25
2441 2442 7.25
2441 2440 7.40
2440 2441 7.40
2440 1666 7.33
1666 2440 7.33
4590 3053 5.69
3053 4590 5.69
3053 4591 4.01
4591 3053 4.01
4591 4592 4.00
4592 4591 4.00
4592 3048 4.00
3048 4592 4.00
3048 4593 4.01
4593 3048 4.01
4593 3044 4.00
3044 4593 4.00
3044 3042 4.00
3042 3044 4.00
3042 3037 4.00
3037 3042 4.00
3037 3034 4.00
3034 3037 4.00
3034 4594 4.00
4594 3034 4.00
4594 3022 4.01
3022 4594 4.01
3022 4595 3.99
4595 3022 3.99
4595 3000 4.01
3000 4595 4.01
3000 2993 4.01
2993 3000 4.01
2993 2992 4.00
2992 2993 4.00
2992 4596 4.01
4596 2992 4.01
4596 2980 4.00
2980 4596 4.00
4038 4039 17.21
4039 4038 17.21
4039 3113 11.99
3113 4039 11.99
3113 4040 10.53
4040 3113 10.53
4040 4041 12.08
4041 4040 12.08
4041 4042 12.45
4042 4041 12.45
4042 4043 9.86
4043 4042 9.86
4043 2067 9.48
2067 4043 9.48
2067 4044 10.29
4044 2067 10.29
4044 4045 8.49
4045 4044 8.49
4045 4046 9.16
4046 4045 9.16
4046 4017 25.29
4017 4046 25.29
4017 4047 8.10
4047 4017 8.10
4047 525 17.98
525 4047 17.98
525 4048 25.60
4048 525 25.60
1673 2630 15.49
2630 1673 15.49
2630 2962 88.69
2962 2630 88.69
2962 1575 9.96
1575 2962 9.96
1575 2955 14.70
2955 1575 14.70
2955 1596 10.73
1596 2955 10.73
1596 2943 12.11
2943 1596 12.11
2943 2937 15.34
2937 2943 15.34
2937 1597 15.91
1597 2937 15.91
1597 2761 16.57
2761 1597 16.57
2761 2925 15.67
2925 2761 15.67
2925 2921 14.06
2921 2925 14.06
2921 2762 13.41
2762 2921 13.41
2762 1598 18.72
1598 2762 18.72
1598 2603 17.60
2603 1598 17.60
2603 903 16.16
903 2603 16.16
903 1599 23.49
1599 903 23.49
1599 1585 102.70
1585 1599 102.70
454 455 19.00
455 454 19.00
455 456 19.35
456 455 19.35
456 457 68.33
457 456 68.33
457 458 21.64
458 457 21.64
458 459 18.36
459 458 18.36
459 460 16.36
460 459 16.36
460 461 13.99
461 460 13.99
461 462 14.73
462 461 14.73
462 463 14.71
463 462 14.71
463 464 14.93
464 463 14.93
464 465 15.58
465 464 15.58
465 466 16.92
466 465 16.92
466 467 15.26
467 466 15.26
467 468 12.62
468 467 12.62
468 469 15.46
469 468 15.46
469 470 13.89
470 469 13.89
2074 2075 7.50
2075 2074 7.50
2075 2076 4.37
2076 2075 4.37
2076 2077 5.18
2077 2076 5.18
2077 2078 4.88
2078 2077 4.88
2078 2079 6.93
2079 2078 6.93
2079 2080 6.36
2080 2079 6.36
2080 2081 6.30
2081 2080 6.30
2081 1012 49.25
1012 2081 49.25
1012 259 3.73
259 1012 3.73
259 1672 74.10
1672 259 74.10
1672 1671 59.03
1671 1672 59.03
1671 1670 60.57
1670 1671 60.57
1670 0 14.49
0 1670 14.49
0 1669 46.93
1669 0 46.93
1669 365 59.64
365 1669 59.64
365 1 14.41
1 365 14.41
1 366 45.42
366 1 45.42
366 367 61.06
367 366 61.06
367 1668 59.99
1668 367 59.99
1668 140 59.73
140 1668 59.73
140 2168 11.51
2168 140 11.51
2168 1677 44.10
1677 2168 44.10
1677 2163 46.05
2163 1677 46.05
2163 1329 15.36
1329 2163 15.36
1329 1313 57.59
1313 1329 57.59
1313 1310 16.02
1310 1313 16.02
1310 139 27.86
139 1310 27.86
1937 1951 61.89
1951 1937 61.89
1951 4742 17.84
4742 1951 17.84
4742 1952 16.65
1952 4742 16.65
1952 1953 16.48
1953 1952 16.48
1953 1954 13.74
1954 1953 13.74
1954 2162 13.10
2162 1954 13.10
2162 1955 12.09
1955 2162 12.09
1955 4741 11.39
4741 1955 11.39
4741 1956 12.09
1956 4741 12.09
1956 2779 8.06
2779 1956 8.06
2779 2778 6.47
2778 2779 6.47
2778 1957 9.15
1957 2778 9.15
1957 2777 8.95
2777 1957 8.95
2777 1958 10.12
1958 2777 10.12
1958 2776 9.94
2776 1958 9.94
2776 2775 10.49
2775 2776 10.49
2775 1959 6.06
1959 2775 6.06
1959 1960 6.03
1960 1959 6.03
1960 2774 4.91
2774 1960 4.91
2774 1961 6.78
1961 2774 6.78
1961 2773 6.80
2773 1961 6.80
2773 1962 8.06
1962 2773 8.06
1962 1940 8.57
1940 1962 8.57
1940 1963 12.11
1963 1940 12.11
1963 1964 6.95
1964 1963 6.95
1964 2772 24.11
2772 1964 24.11
4253 4263 81.05
4263 4253 81.05
4263 3264 133.72
3264 4263 133.72
3264 4369 80.16
4369 3264 80.16
4369 4972 77.96
4972 4369 77.96
4972 1797 25.37
1797 4972 25.37
1797 4949 65.39
4949 1797 65.39
4949 645 96.82
645 4949 96.82
645 5025 65.70
5025 645 65.70
5025 1795 24.96
1795 5025 24.96
1795 1731 65.66
1731 1795 65.66
1731 1844 193.38
1844 1731 193.38
1844 5074 80.68
5074 1844 80.68
5074 1793 3.69
1793 5074 3.69
1793 5076 40.02
5076 1793 40.02
5076 1847 39.17
1847 5076 39.17
1847 5095 43.05
5095 1847 43.05
5095 5096 23.85
5096 5095 23.85
5096 4649 181.79
4649 5096 181.79
4649 1565 82.33
1565 4649 82.33
1565 1566 25.23
1566 1565 25.23
1566 1791 90.22
1791 1566 90.22
1791 5143 8.66
5143 1791 8.66
5143 5144 8.70
5144 5143 8.70
5144 5145 8.69
5145 5144 8.69
5145 5146 8.07
5146 5145 8.07
5146 5147 7.83
5147 5146 7.83
5147 3289 8.09
3289 5147 8.09
1524 5234 65.55
5234 1524 65.55
5234 1538 10.73
1538 5234 10.73
1538 1539 11.11
1539 1538 11.11
1539 1540 10.45
1540 1539 10.45
1540 5233 15.67
5233 1540 15.67
5233 1541 40.17
1541 5233 40.17
1541 1542 72.75
1542 1541 72.75
1542 5232 57.81
5232 1542 57.81
5232 1464 9.40
1464 5232 9.40
1464 1466 33.55
1466 1464 33.55
1466 1467 9.97
1467 1466 9.97
1467 1543 13.21
1543 1467 13.21
1543 1544 11.47
1544 1543 11.47
1544 1815 5.58
1815 1544 5.58
1815 1545 6.99
1545 1815 6.99
1545 1546 7.45
1546 1545 7.45
1546 1547 6.30
1547 1546 6.30
1547 1548 8.42
1548 1547 8.42
4299 3688 21.58
3688 4299 21.58
3688 3689 7.76
3689 3688 7.76
3689 1509 11.41
1509 3689 11.41
1509 141 92.17
141 1509 92.17
141 3709 40.34
3709 141 40.34
3709 332 151.07
332 3709 151.07
332 3744 35.09
3744 332 35.09
3744 1729 24.67
1729 3744 24.67
1729 990 27.30
990 1729 27.30
990 319 32.68
319 990 32.68
319 481 193.19
481 319 193.19
481 1755 41.62
1755 481 41.62
1755 480 41.80
480 1755 41.80
480 351 8.55
351 480 8.55
351 4809 83.43
4809 351 83.43
4809 575 7.60
575 4809 7.60
575 3970 41.46
3970 575 41.46
3970 4831 41.79
4831 3970 41.79
4831 792 7.78
792 4831 7.78
792 4036 41.37
4036 792 41.37
4036 1870 41.65
1870 4036 41.65
1870 4244 7.34
4244 1870 7.34
4244 80 50.10
80 4244 50.10
80 1884 33.49
1884 80 33.49
1884 1882 8.26
1882 1884 8.26
1882 744 19.21
744 1882 19.21
744 745 32.34
745 744 32.34
745 1048 32.37
1048 745 32.37
1048 3214 30.04
3214 1048 30.04
3214 746 11.33
746 3214 11.33
746 747 36.01
747 746 36.01
747 4437 36.84
4437 747 36.84
4437 4356 19.28
4356 4437 19.28
4356 4931 59.66
4931 4356 59.66
4931 3221 48.36
3221 4931 48.36
3221 4932 11.48
4932 3221 11.48
4932 4357 30.45
4357 4932 30.45
4357 4935 30.68
4935 4357 30.68
4935 4389 11.11
4389 4935 11.11
4389 4965 80.26
4965 4389 80.26
4965 4936 22.61
4936 4965 22.61
4936 739 27.20
739 4936 27.20
739 4937 28.14
4937 739 28.14
4937 1908 15.51
1908 4937 15.51
1908 5010 158.79
5010 1908 158.79
5010 4994 10.99
4994 5010 10.99
4994 4372 39.36
4372 4994 39.36
4372 1796 16.17
1796 4372 16.17
1796 1733 25.50
1733 1796 25.50
1733 4377 55.10
4377 1733 55.10
4377 5036 83.98
5036 4377 83.98
5036 1828 49.35
1828 5036 49.35
1828 1794 41.42
1794 1828 41.42
1794 5044 42.60
5044 1794 42.60
5044 1674 6.49
1674 5044 6.49
1674 1680 36.90
1680 1674 36.90
1680 4388 20.43
4388 1680 20.43
4388 1679 15.27
1679 4388 15.27
1679 1687 50.87
1687 1679 50.87
1687 289 66.09
289 1687 66.09
289 76 25.32
76 289 25.32
76 77 17.54
77 76 17.54
77 280 50.91
280 77 50.91
280 281 34.49
281 280 34.49
281 4620 7.26
4620 281 7.26
4620 3824 23.57
3824 4620 23.57
3824 279 43.78
279 3824 43.78
279 278 4.64
278 279 4.64
278 1555 12.04
1555 278 12.04
1555 1554 25.83
1554 1555 25.83
4019 4018 28.98
4018 4019 28.98
4018 3994 26.99
3994 4018 26.99
3994 2073 8.96
2073 3994 8.96
2073 1468 19.22
1468 2073 19.22
1468 2087 22.08
2087 1468 22.08
2087 3172 54.25
3172 2087 54.25
3172 2169 44.37
2169 3172 44.37
2169 29 5.57
29 2169 5.57
29 2174 38.02
2174 29 38.02
2174 2184 42.97
2184 2174 42.97
2184 2183 12.18
2183 2184 12.18
2183 4012 32.97
4012 2183 32.97
4012 4165 34.02
4165 4012 34.02
4165 4035 14.71
4035 4165 14.71
4035 205 31.99
205 4035 31.99
205 4680 28.77
4680 205 28.77
4680 1684 16.02
1684 4680 16.02
1684 206 39.58
206 1684 39.58
206 793 111.99
793 206 111.99
793 4036 42.86
4036 793 42.86
4036 820 40.86
820 4036 40.86
820 843 4.44
843 820 4.44
843 858 4.15
858 843 4.15
858 822 7.72
822 858 7.72
822 823 6.10
823 822 6.10
823 824 6.25
824 823 6.25
824 825 6.40
825 824 6.40
825 826 6.80
826 825 6.80
826 4848 6.14
4848 826 6.14
4848 827 6.62
827 4848 6.62
827 828 5.44
828 827 5.44
828 829 7.00
829 828 7.00
829 3960 6.47
3960 829 6.47
1586 4087 10.61
4087 1586 10.61
4087 1587 4.97
1587 4087 4.97
1587 4090 5.61
4090 1587 5.61
4090 1588 4.45
1588 4090 4.45
1588 4088 5.11
4088 1588 5.11
4088 1589 4.09
1589 4088 4.09
1589 4086 4.06
4086 1589 4.06
4086 2244 4.04
2244 4086 4.04
2244 1590 3.52
1590 2244 3.52
1590 1591 11.08
1591 1590 11.08
1591 2243 13.24
2243 1591 13.24
2243 1491 25.28
1491 2243 25.28
1491 2233 23.48
2233 1491 23.48
2233 2232 7.29
2232 2233 7.29
2232 1488 11.62
1488 2232 11.62
1488 3075 72.15
3075 1488 72.15
3075 2655 71.38
2655 3075 71.38
2655 1780 9.61
1780 2655 9.61
1185 2905 17.58
2905 1185 17.58
2905 1186 11.21
1186 2905 11.21
1186 2903 10.12
2903 1186 10.12
2903 2902 9.49
2902 2903 9.49
2902 2901 14.34
2901 2902 14.34
2901 2900 6.86
2900 2901 6.86
2900 4703 7.22
4703 2900 7.22
4703 2904 9.12
2904 4703 9.12
2904 2906 8.46
2906 2904 8.46
2906 1781 8.19
1781 2906 8.19
1781 2907 8.37
2907 1781 8.37
2907 2908 29.52
2908 2907 29.52
2908 4498 13.70
4498 2908 13.70
4498 4499 67.14
4499 4498 67.14
4499 4704 5.33
4704 4499 5.33
4704 2917 6.09
2917 4704 6.09
2917 2919 3.73
2919 2917 3.73
2919 4705 3.74
4705 2919 3.74
4705 2923 3.76
2923 4705 3.76
2923 2926 3.60
2926 2923 3.60
2926 4706 6.28
4706 2926 6.28
4706 1494 24.83
1494 4706 24.83
1494 3848 84.65
3848 1494 84.65
3848 1583 3.30
1583 3848 3.30
1583 2982 3.79
2982 1583 3.79
2982 2983 8.29
2983 2982 8.29
2983 3543 5.61
3543 2983 5.61
3543 3002 4.05
3002 3543 4.05
3002 3544 5.01
3544 3002 5.01
3544 3017 4.77
3017 3544 4.77
3017 3545 5.40
3545 3017 5.40
3545 675 3.61
675 3545 3.61
675 673 3.49
673 675 3.49
673 3548 4.07
3548 673 4.07
3548 672 4.71
672 3548 4.71
672 3549 4.46
3549 672 4.46
3549 3552 4.33
3552 3549 4.33
3552 671 4.02
671 3552 4.02
671 670 4.12
670 671 4.12
670 3352 4.53
3352 670 4.53
851 4864 6.42
4864 851 6.42
4864 850 5.82
850 4864 5.82
850 4863 5.01
4863 850 5.01
4863 849 5.20
849 4863 5.20
849 848 6.02
848 849 6.02
848 4862 5.77
4862 848 5.77
4862 847 6.21
847 4862 6.21
847 846 6.02
846 847 6.02
846 845 5.13
845 846 5.13
845 4861 4.86
4861 845 4.86
4861 844 5.01
844 4861 5.01
844 1868 5.03
1868 844 5.03
1868 1869 5.07
1869 1868 5.07
1869 4859 4.75
4859 1869 4.75
4859 4240 5.35
4240 4859 5.35
4240 4867 5.37
4867 4240 5.37
4867 4239 1.00
4239 4867 1.00
4239 4241 5.53
4241 4239 5.53
4241 830 6.64
830 4241 6.64
830 821 5.90
821 830 5.90
821 4238 6.04
4238 821 6.04
4238 4858 5.55
4858 4238 5.55
4858 4243 6.27
4243 4858 6.27
4243 4242 6.37
4242 4243 6.37
4242 4244 6.41
4244 4242 6.41
2984 2994 5.22
2994 2984 5.22
2994 2995 6.17
2995 2994 6.17
2995 2997 6.22
2997 2995 6.22
2997 2998 6.02
2998 2997 6.02
2998 2999 6.43
2999 2998 6.43
2999 3001 6.12
3001 2999 6.12
3001 3003 7.22
3003 3001 7.22
3003 3005 6.51
3005 3003 6.51
3005 4813 5.86
4813 3005 5.86
4813 3008 8.43
3008 4813 8.43
1555 1556 7.09
1556 1555 7.09
1556 1557 7.09
1557 1556 7.09
1557 4624 7.08
4624 1557 7.08
4624 1558 7.09
1558 4624 7.09
1558 4627 7.08
4627 1558 7.08
4627 1559 7.09
1559 4627 7.09
1559 4630 7.08
4630 1559 7.08
4630 1560 7.09
1560 4630 7.09
1560 4633 7.08
4633 1560 7.08
4633 4634 3.07
4634 4633 3.07
4634 1561 4.04
1561 4634 4.04
1561 4636 7.08
4636 1561 7.08
4636 1562 7.09
1562 4636 7.09
1562 4639 7.08
4639 1562 7.08
4639 1563 7.09
1563 4639 7.09
1563 4643 7.08
4643 1563 7.08
4643 1564 7.08
1564 4643 7.08
1564 4648 7.08
4648 1564 7.08
4648 4650 7.08
4650 4648 7.08
4650 1565 7.09
1565 4650 7.09
1828 1829 7.81
1829 1828 7.81
1829 1830 6.19
1830 1829 6.19
1830 5037 6.32
5037 1830 6.32
5037 1831 6.37
1831 5037 6.37
1831 1832 5.16
1832 1831 5.16
1832 5038 6.01
5038 1832 6.01
5038 1833 6.20
1833 5038 6.20
1833 1834 6.16
1834 1833 6.16
1834 1835 5.91
1835 1834 5.91
1835 1836 5.46
1836 1835 5.46
1836 5039 4.02
5039 1836 4.02
5039 754 5.33
754 5039 5.33
1795 5018 27.62
5018 1795 27.62
5018 5017 4.13
5017 5018 4.13
5017 4999 18.17
4999 5017 18.17
4999 4995 10.38
4995 4999 10.38
4995 1730 6.34
1730 4995 6.34
608 609 119.77
609 608 119.77
609 610 26.86
610 609 26.86
610 611 21.10
611 610 21.10
611 4663 15.93
4663 611 15.93
4663 612 14.13
612 4663 14.13
612 4661 11.36
4661 612 11.36
4661 613 13.98
613 4661 13.98
613 4659 15.50
4659 613 15.50
4659 614 17.34
614 4659 17.34
614 4656 8.10
4656 614 8.10
4656 615 9.80
615 4656 9.80
615 4652 14.01
4652 615 14.01
4652 616 14.70
616 4652 14.70
616 4993 7.48
4993 616 7.48
4993 4647 2.51
4647 4993 2.51
4647 4981 6.87
4981 4647 6.87
4981 1899 6.33
1899 4981 6.33
1899 4980 8.37
4980 1899 8.37
4980 1797 26.48
1797 4980 26.48
614 4358 7.17
4358 614 7.17
4358 4359 4.84
4359 4358 4.84
4359 3287 5.35
3287 4359 5.35
3287 3286 5.75
3286 3287 5.75
3286 4360 5.99
4360 3286 5.99
4360 3284 5.30
3284 4360 5.30
3284 3281 4.75
3281 3284 4.75
3281 4361 4.86
4361 3281 4.86
4361 4362 5.44
4362 4361 5.44
4362 3277 5.27
3277 4362 5.27
3277 4363 3.90
4363 3277 3.90
4363 3274 5.44
3274 4363 5.44
3274 4364 5.07
4364 3274 5.07
4364 3272 4.82
3272 4364 4.82
3272 4365 5.24
4365 3272 5.24
4365 4366 5.39
4366 4365 5.39
4366 3269 6.27
3269 4366 6.27
3269 4367 6.31
4367 3269 6.31
4367 4368 6.40
4368 4367 6.40
4368 3266 6.59
3266 4368 6.59
3266 4369 9.99
4369 3266 9.99
713 714 9.72
714 713 9.72
714 715 7.27
715 714 7.27
715 716 6.65
716 715 6.65
716 717 3.46
717 716 3.46
717 718 4.85
718 717 4.85
718 719 7.89
719 718 7.89
719 720 6.88
720 719 6.88
720 1391 41.62
1391 720 41.62
1391 1798 34.14
1798 1391 34.14
1798 3551 18.53
3551 1798 18.53
3551 3525 39.90
3525 3551 39.90
3525 1800 41.72
1800 3525 41.72
1800 4026 25.84
4026 1800 25.84
4026 4164 9.16
4164 4026 9.16
4164 4027 3.75
4027 4164 3.75
4027 78 2.60
78 4027 2.60
78 4162 3.52
4162 78 3.52
4162 4161 3.56
4161 4162 3.56
4161 4011 2.87
4011 4161 2.87
2851 3547 5.59
3547 2851 5.59
3547 2852 4.35
2852 3547 4.35
2852 2853 4.67
2853 2852 4.67
2853 1423 4.11
1423 2853 4.11
1423 1424 4.08
1424 1423 4.08
1424 3546 4.07
3546 1424 4.07
3546 1425 5.14
1425 3546 5.14
1425 1426 46.79
1426 1425 46.79
1426 1799 33.62
1799 1426 33.62
1799 3517 22.78
3517 1799 22.78
3517 1285 14.39
1285 3517 14.39
1285 2870 14.63
2870 1285 14.63
2870 2871 12.01
2871 2870 12.01
2871 1427 11.47
1427 2871 11.47
1427 1801 25.91
1801 1427 25.91
1801 2171 27.13
2171 1801 27.13
2171 2867 3.24
2867 2171 3.24
2867 2866 3.63
2866 2867 3.63
2866 2864 3.87
2864 2866 3.87
2864 2172 3.91
2172 2864 3.91
2172 2865 5.47
2865 2172 5.47
3928 3929 8.70
3929 3928 8.70
3929 4836 6.68
4836 3929 6.68
4836 3930 6.63
3930 4836 6.63
3930 3931 6.84
3931 3930 6.84
3931 3932 6.84
3932 3931 6.84
3932 3933 6.41
3933 3932 6.41
3933 3934 8.19
3934 3933 8.19
3934 4868 3.56
4868 3934 3.56
4868 4837 2.46
4837 4868 2.46
4837 3935 5.84
3935 4837 5.84
3935 4838 6.98
4838 3935 6.98
4838 3936 4.71
3936 4838 4.71
3936 3970 43.34
3970 3936 43.34
3970 570 40.43
570 3970 40.43
570 4682 163.75
4682 570 163.75
4682 3971 68.30
3971 4682 68.30
3971 1800 24.81
1800 3971 24.81
1800 4149 58.18
4149 1800 58.18
4149 4148 6.90
4148 4149 6.90
4148 1801 25.63
1801 4148 25.63
1801 3212 47.17
3212 1801 47.17
3212 2175 12.54
2175 3212 12.54
2175 1628 46.16
1628 2175 46.16
1628 1469 20.93
1469 1628 20.93
1469 1634 20.58
1634 1469 20.58
1634 3491 9.36
3491 1634 9.36
3491 3977 24.10
3977 3491 24.10
3977 3978 30.42
3978 3977 30.42
3978 4015 24.08
4015 3978 24.08
4015 2069 21.73
2069 4015 21.73
2069 2068 7.03
2068 2069 7.03
2068 4016 14.93
4016 2068 14.93
4016 4017 9.08
4017 4016 9.08
4017 2066 25.27
2066 4017 25.27
2066 519 4.78
519 2066 4.78
519 4279 34.55
4279 519 34.55
4279 397 20.30
397 4279 20.30
397 1482 5.60
1482 397 5.60
1482 4278 26.79
4278 1482 26.79
4278 4274 48.75
4274 4278 48.75
4274 470 14.29
470 4274 14.29
470 4099 6.76
4099 470 6.76
4099 1026 7.07
1026 4099 7.07
1026 2074 95.67
2074 1026 95.67
2074 1965 62.80
1965 2074 62.80
1965 2602 23.37
2602 1965 23.37
2602 2592 8.13
2592 2602 8.13
2592 1481 34.85
1481 2592 34.85
1481 2549 41.45
2549 1481 41.45
2549 2548 6.16
2548 2549 6.16
2548 2539 5.55
2539 2548 5.55
1658 1362 3.98
1362 1658 3.98
1362 1361 2.82
1361 1362 2.82
1361 1360 3.02
1360 1361 3.02
1360 1359 3.15
1359 1360 3.15
1359 1343 3.69
1343 1359 3.69
1343 1358 7.18
1358 1343 7.18
1358 1357 2.18
1357 1358 2.18
1357 1342 2.19
1342 1357 2.19
1342 1356 2.66
1356 1342 2.66
1356 1355 2.23
1355 1356 2.23
1355 1354 2.27
1354 1355 2.27
1354 1352 2.90
1352 1354 2.90
1352 1351 2.93
1351 1352 2.93
1351 1341 2.57
1341 1351 2.57
1341 1353 4.58
1353 1341 4.58
1353 1350 2.24
1350 1353 2.24
1350 1349 2.83
1349 1350 2.83
1349 1348 3.07
1348 1349 3.07
1348 1347 3.02
1347 1348 3.02
1347 1344 3.02
1344 1347 3.02
1344 1346 3.24
1346 1344 3.24
1346 1345 3.65
1345 1346 3.65
1345 1339 5.29
1339 1345 5.29
1339 1330 74.98
1330 1339 74.98
1330 1338 48.68
1338 1330 48.68
1338 1372 9.98
1372 1338 9.98
1372 1337 10.99
1337 1372 10.99
1337 1371 10.53
1371 1337 10.53
1371 1373 6.21
1373 1371 6.21
1373 1374 6.91
1374 1373 6.91
1374 1375 6.72
1375 1374 6.72
1375 1376 5.37
1376 1375 5.37
1376 1659 21.71
1659 1376 21.71
5320 5322 6.19
5322 5320 6.19
5322 5323 5.51
5323 5322 5.51
5323 1386 4.76
1386 5323 4.76
1386 5324 4.53
5324 1386 4.53
5324 1387 4.81
1387 5324 4.81
1387 5325 4.89
5325 1387 4.89
5325 1388 5.39
1388 5325 5.39
1388 5326 5.88
5326 1388 5.88
5326 5327 6.51
5327 5326 6.51
5327 1389 5.76
1389 5327 5.76
1389 5328 5.00
5328 1389 5.00
5328 5329 6.28
5329 5328 6.28
74 4312 170.80
4312 74 170.80
4312 75 41.78
75 4312 41.78
75 2744 39.29
2744 75 39.29
2744 4324 94.84
4324 2744 94.84
4324 1664 41.10
1664 4324 41.10
1664 1422 42.89
1422 1664 42.89
1422 2405 169.66
2405 1422 169.66
2405 2406 18.31
2406 2405 18.31
2406 1662 45.58
1662 2406 45.58
1662 2416 36.09
2416 1662 36.09
2416 4563 53.97
4563 2416 53.97
4563 1666 265.09
1666 4563 265.09
1666 2470 85.88
2470 1666 85.88
2470 2515 199.10
2515 2470 199.10
2515 1667 39.53
1667 2515 39.53
1667 2528 46.23
2528 1667 46.23
2528 2514 18.93
2514 2528 18.93
2514 1660 32.92
1660 2514 32.92
1660 3845 18.64
3845 1660 18.64
3845 3844 11.07
3844 3845 11.07
3844 3843 9.24
3843 3844 9.24
3843 3846 13.92
3846 3843 13.92
3846 2082 119.30
2082 3846 119.30
2082 2083 24.11
2083 2082 24.11
2083 2986 3.74
2986 2083 3.74
2986 2985 2.75
2985 2986 2.75
2985 2084 6.87
2084 2985 6.87
1673 2629 15.87
2629 1673 15.87
2629 2661 86.40
2661 2629 86.40
2661 1490 14.68
1490 2661 14.68
1490 2660 17.07
2660 1490 17.07
2660 3094 10.23
3094 2660 10.23
3094 901 62.51
901 3094 62.51
901 1503 22.36
1503 901 22.36
1503 900 22.97
900 1503 22.97
900 981 45.00
981 900 45.00
981 3095 15.62
3095 981 15.62
3095 1501 28.96
1501 3095 28.96
1501 4684 26.17
4684 1501 26.17
4684 872 4.44
872 4684 4.44
872 972 6.46
972 872 6.46
972 969 4.52
969 972 4.52
969 968 7.88
968 969 7.88
968 884 4.63
884 968 4.63
884 895 6.26
895 884 6.26
895 959 13.07
959 895 13.07
158 3764 5.07
3764 158 5.07
3764 157 3.64
157 3764 3.64
157 3763 57.95
3763 157 57.95
3763 3762 12.49
3762 3763 12.49
3762 3754 39.20
3754 3762 39.20
3754 1328 79.61
1328 3754 79.61
1328 156 47.82
156 1328 47.82
156 3831 32.71
3831 156 32.71
3361 1802 52.01
1802 3361 52.01
1802 5310 40.41
5310 1802 40.41
5310 2790 4.93
2790 5310 4.93
2790 3276 8.96
3276 2790 8.96
3276 784 123.56
784 3276 123.56
1294 1293 63.80
1293 1294 63.80
1293 3904 26.51
3904 1293 26.51
3904 1292 20.39
1292 3904 20.39
1292 3903 17.01
3903 1292 17.01
3903 4396 16.46
4396 3903 16.46
4396 1291 20.34
1291 4396 20.34
1291 4394 15.69
4394 1291 15.69
4394 3902 13.43
3902 4394 13.43
3902 1290 13.03
1290 3902 13.03
1290 3901 14.71
3901 1290 14.71
3901 1289 13.57
1289 3901 13.57
1289 3900 11.66
3900 1289 11.66
3900 4393 12.58
4393 3900 12.58
4393 1288 9.66
1288 4393 9.66
1288 4392 12.27
4392 1288 12.27
4392 3899 9.73
3899 4392 9.73
3899 3898 10.36
3898 3899 10.36
3898 1649 8.83
1649 3898 8.83
1649 5215 9.24
5215 1649 9.24
5215 4448 7.85
4448 5215 7.85
4448 5205 21.93
5205 4448 21.93
5205 1189 84.03
1189 5205 84.03
4299 3682 20.16
3682 4299 20.16
3682 552 9.06
552 3682 9.06
552 3678 10.16
3678 552 10.16
3678 4280 9.65
4280 3678 9.65
4280 553 9.44
553 4280 9.44
553 904 9.90
904 553 9.90
904 554 9.44
554 904 9.44
554 555 7.72
555 554 7.72
555 556 7.51
556 555 7.51
556 3651 7.82
3651 556 7.82
3651 557 8.04
557 3651 8.04
557 558 11.28
558 557 11.28
558 559 10.19
559 558 10.19
559 560 11.43
560 559 11.43
560 561 13.01
561 560 13.01
561 3650 11.86
3650 561 11.86
3650 562 12.28
562 3650 12.28
562 563 15.16
563 562 15.16
563 564 15.95
564 563 15.95
564 3649 16.48
3649 564 16.48
3649 565 23.21
565 3649 23.21
565 566 17.72
566 565 17.72
566 567 21.68
567 566 21.68
567 568 22.27
568 567 22.27
568 569 75.20
569 568 75.20
21 2858 4.38
2858 21 4.38
2858 2856 3.81
2856 2858 3.81
2856 22 5.68
22 2856 5.68
22 23 6.22
23 22 6.22
23 24 5.39
24 23 5.39
24 25 5.72
25 24 5.72
25 2855 5.37
2855 25 5.37
2855 26 5.00
26 2855 5.00
26 27 4.81
27 26 4.81
27 2854 4.91
2854 27 4.91
2854 28 4.15
28 2854 4.15
28 29 5.02
29 28 5.02
4011 79 7.36
79 4011 7.36
79 4012 36.73
4012 79 36.73
3936 4835 5.69
4835 3936 5.69
4835 3937 4.91
3937 4835 4.91
3937 3938 5.84
3938 3937 5.84
3938 4834 6.45
4834 3938 6.45
4834 3939 6.59
3939 4834 6.59
3939 3940 7.17
3940 3939 7.17
3940 3941 5.67
3941 3940 5.67
3941 3942 6.18
3942 3941 6.18
3942 3943 5.74
3943 3942 5.74
3943 4833 5.13
4833 3943 5.13
4833 575 5.46
575 4833 5.46
575 4832 4.92
4832 575 4.92
4832 4351 3.83
4351 4832 3.83
4351 574 5.92
574 4351 5.92
574 4350 7.25
4350 574 7.25
4350 4349 5.96
4349 4350 5.96
4349 573 6.00
573 4349 6.00
573 572 7.48
572 573 7.48
572 4338 7.17
4338 572 7.17
4338 571 6.12
571 4338 6.12
571 570 7.70
570 571 7.70
1723 3803 21.56
3803 1723 21.56
3803 178 4.73
178 3803 4.73
178 3802 4.41
3802 178 4.41
3802 179 4.88
179 3802 4.88
179 3801 4.51
3801 179 4.51
3801 180 5.01
180 3801 5.01
180 3800 4.99
3800 180 4.99
3800 181 3.75
181 3800 3.75
181 182 5.37
182 181 5.37
182 3799 56.31
3799 182 56.31
3799 1602 8.67
1602 3799 8.67
1601 3698 47.05
3698 1601 47.05
3698 3699 6.87
3699 3698 6.87
3699 3838 7.76
3838 3699 7.76
3838 3696 14.27
3696 3838 14.27
3696 3695 21.35
3695 3696 21.35
3695 1695 25.46
1695 3695 25.46
1695 1510 51.57
1510 1695 51.57
1510 1511 6.61
1511 1510 6.61
1511 1509 34.58
1509 1511 34.58
1509 3681 12.60
3681 1509 12.60
3681 3680 11.45
3680 3681 11.45
3680 3679 108.28
3679 3680 108.28
3679 3596 152.37
3596 3679 152.37
3596 3587 29.63
3587 3596 29.63
3587 1721 27.75
1721 3587 27.75
1721 3595 28.47
3595 1721 28.47
3595 3578 30.56
3578 3595 30.56
3578 1441 274.09
1441 3578 274.09
1441 1443 52.20
1443 1441 52.20
1443 1775 25.55
1775 1443 25.55
1775 3503 21.77
3503 1775 21.77
3503 3502 7.06
3502 3503 7.06
3502 1272 22.85
1272 3502 22.85
3018 3011 3.77
3011 3018 3.77
3011 3010 2.89
3010 3011 2.89
3010 3009 3.29
3009 3010 3.29
3009 3013 3.44
3013 3009 3.44
3013 3012 3.16
3012 3013 3.16
3012 1604 54.39
1604 3012 54.39
1604 2977 3.93
2977 1604 3.93
2977 3847 4.09
3847 2977 4.09
3847 2975 5.16
2975 3847 5.16
2975 1605 5.36
1605 2975 5.36
1605 2971 5.23
2971 1605 5.23
2971 1606 6.04
1606 2971 6.04
1606 2969 7.54
2969 1606 7.54
2969 2967 6.20
2967 2969 6.20
2967 1607 6.55
1607 2967 6.55
1607 2961 6.65
2961 1607 6.65
2961 2960 5.69
2960 2961 5.69
2960 1608 4.73
1608 2960 4.73
1608 2957 5.13
2957 1608 5.13
2957 2954 6.03
2954 2957 6.03
2954 1609 5.74
1609 2954 5.74
1609 2951 4.74
2951 1609 4.74
2951 1610 4.63
1610 2951 4.63
1610 2944 4.70
2944 1610 4.70
2944 2767 5.82
2767 2944 5.82
2767 2941 6.12
2941 2767 6.12
2941 2768 4.92
2768 2941 4.92
2768 2769 14.85
2769 2768 14.85
4687 4719 6.53
4719 4687 6.53
4719 1001 4.82
1001 4719 4.82
1001 1002 5.35
1002 1001 5.35
1002 1003 5.70
1003 1002 5.70
1003 1004 6.10
1004 1003 6.10
1004 1005 6.18
1005 1004 6.18
1005 1006 6.44
1006 1005 6.44
1006 1007 7.01
1007 1006 7.01
1007 1008 6.49
1008 1007 6.49
1008 1009 6.88
1009 1008 6.88
1009 3826 6.43
3826 1009 6.43
993 2305 142.15
2305 993 142.15
2305 2234 75.52
2234 2305 75.52
2234 1491 27.61
1491 2234 27.61
1491 1685 41.74
1685 1491 41.74
1685 1614 10.35
1614 1685 10.35
1614 2333 5.94
2333 1614 5.94
2333 3071 108.02
3071 2333 108.02
3071 1487 27.00
1487 3071 27.00
1487 1686 4.46
1686 1487 4.46
1686 3683 15.81
3683 1686 15.81
3683 2276 36.00
2276 3683 36.00
2276 3827 23.57
3827 2276 23.57
3827 3019 4.11
3019 3827 4.11
3019 3015 2.88
3015 3019 2.88
3015 3014 2.78
3014 3015 2.78
3014 2367 5.24
2367 3014 5.24
2367 3007 3.70
3007 2367 3.70
3007 3006 3.70
3006 3007 3.70
3006 3004 2.86
3004 3006 2.86
3004 3828 4.14
3828 3004 4.14
3828 3829 43.23
3829 3828 43.23
972 973 4.10
973 972 4.10
973 894 3.95
894 973 3.95
894 974 4.49
974 894 4.49
974 975 5.97
975 974 5.97
975 976 4.90
976 975 4.90
976 977 4.12
977 976 4.12
977 978 4.66
978 977 4.66
978 893 4.26
893 978 4.26
893 979 4.88
979 893 4.88
979 980 4.88
980 979 4.88
980 949 6.18
949 980 6.18
924 925 31.03
925 924 31.03
925 926 5.25
926 925 5.25
926 3310 7.94
3310 926 7.94
3310 3309 5.20
3309 3310 5.20
3309 929 4.42
929 3309 4.42
929 3306 4.60
3306 929 4.60
3306 3303 5.35
3303 3306 5.35
3303 1549 5.96
1549 3303 5.96
1549 3299 5.11
3299 1549 5.11
3299 3296 5.85
3296 3299 5.85
3296 1550 14.29
1550 3296 14.29
1550 3292 4.48
3292 1550 4.48
3292 3291 4.21
3291 3292 4.21
3291 3289 17.57
3289 3291 17.57
3289 2789 29.68
2789 3289 29.68
1566 3282 9.70
3282 1566 9.70
3282 1567 5.84
1567 3282 5.84
1567 3280 5.19
3280 1567 5.19
3280 3279 5.64
3279 3280 5.64
3279 1568 4.99
1568 3279 4.99
1568 3278 4.92
3278 1568 4.92
3278 2785 5.38
2785 3278 5.38
2785 1569 4.64
1569 2785 4.64
1569 3273 5.55
3273 1569 5.55
3273 1570 5.54
1570 3273 5.54
1570 3271 4.82
3271 1570 4.82
3271 3823 4.27
3823 3271 4.27
3823 3268 3.65
3268 3823 3.65
3268 1571 3.56
1571 3268 3.56
1571 3444 3.58
3444 1571 3.58
320 321 8.34
321 320 8.34
321 322 6.46
322 321 6.46
322 323 7.15
323 322 7.15
323 324 8.24
324 323 8.24
324 325 6.56
325 324 6.56
325 326 6.34
326 325 6.34
326 327 7.08
327 326 7.08
327 4743 6.05
4743 327 6.05
4743 2772 7.41
2772 4743 7.41
3829 3481 84.16
3481 3829 84.16
996 3109 8.07
3109 996 8.07
3109 3108 4.38
3108 3109 4.38
3108 3107 3.77
3107 3108 3.77
3107 3106 3.81
3106 3107 3.81
3106 3105 3.20
3105 3106 3.20
3105 3103 2.89
3103 3105 2.89
3103 3102 3.81
3102 3103 3.81
3102 3101 3.62
3101 3102 3.62
3101 3099 3.69
3099 3101 3.69
3099 3098 3.50
3098 3099 3.50
3098 3097 4.74
3097 3098 4.74
3097 3095 4.67
3095 3097 4.67
1600 995 6.06
995 1600 6.06
995 883 3.95
883 995 3.95
883 996 5.02
996 883 5.02
996 1502 28.12
1502 996 28.12
1502 1635 1.64
1635 1502 1.64
1635 1501 3.01
1501 1635 3.01
1501 971 8.93
971 1501 8.93
971 999 10.86
999 971 10.86
999 1000 7.63
1000 999 7.63
1000 997 9.20
997 1000 9.20
997 993 3.50
993 997 3.50
160 1723 34.10
1723 160 34.10
1723 3808 5.20
3808 1723 5.20
3808 1724 3.82
1724 3808 3.82
1724 3811 5.09
3811 1724 5.09
3811 1725 5.29
1725 3811 5.29
1725 1726 5.19
1726 1725 5.19
1726 3807 4.65
3807 1726 4.65
3807 1727 5.10
1727 3807 5.10
1727 3806 4.33
3806 1727 4.33
3806 1728 4.72
1728 3806 4.72
1728 3805 55.04
3805 1728 55.04
3805 3825 76.91
3825 3805 76.91
3825 1601 42.04
1601 3825 42.04
1710 3255 45.12
3255 1710 45.12
3255 3257 36.30
3257 3255 36.30
3257 3259 36.99
3259 3257 36.99
3259 3261 31.59
3261 3259 31.59
3261 640 17.19
640 3261 17.19
640 3262 12.31
3262 640 12.31
3262 639 10.49
639 3262 10.49
639 3265 9.69
3265 639 9.69
3265 3267 16.78
3267 3265 16.78
185 186 81.44
186 185 81.44
186 187 29.11
187 186 29.11
187 3866 18.90
3866 187 18.90
3866 3348 16.77
3348 3866 16.77
3348 3865 18.69
3865 3348 18.69
3865 3349 17.84
3349 3865 17.84
3349 3864 14.64
3864 3349 14.64
3864 3863 13.97
3863 3864 13.97
3863 3350 13.17
3350 3863 13.17
3350 3862 11.17
3862 3350 11.17
3862 118 10.30
118 3862 10.30
118 3351 6.24
3351 118 6.24
3351 3859 9.05
3859 3351 9.05
3859 188 10.21
188 3859 10.21
188 3858 10.91
3858 188 10.91
3858 3353 11.35
3353 3858 11.35
3353 3354 14.19
3354 3353 14.19
3354 3857 6.46
3857 3354 6.46
3857 3355 9.88
3355 3857 9.88
3355 443 7.72
443 3355 7.72
443 3356 8.83
3356 443 8.83
3356 442 7.22
442 3356 7.22
442 1508 6.94
1508 442 6.94
1508 441 5.69
441 1508 5.69
441 1966 7.43
1966 441 7.43
1966 1967 7.25
1967 1966 7.25
1967 1968 6.05
1968 1967 6.05
1968 4740 11.34
4740 1968 11.34
4740 136 4.20
136 4740 4.20
136 1652 81.13
1652 136 81.13
136 148 4.35
148 136 4.35
148 149 4.81
149 148 4.81
149 439 5.95
439 149 5.95
439 150 5.59
150 439 5.59
150 151 5.62
151 150 5.62
151 152 6.99
152 151 6.99
152 440 6.05
440 152 6.05
440 153 5.85
153 440 5.85
153 154 5.47
154 153 5.47
154 155 5.62
155 154 5.62
155 137 7.85
137 155 7.85
608 617 62.47
617 608 62.47
617 618 82.48
618 617 82.48
618 4671 26.10
4671 618 26.10
4671 619 14.24
619 4671 14.24
619 4672 17.50
4672 619 17.50
4672 620 15.77
620 4672 15.77
620 4675 15.83
4675 620 15.83
4675 4681 15.16
4681 4675 15.16
4681 621 13.54
621 4681 13.54
621 622 6.54
622 621 6.54
622 4683 6.50
4683 622 6.50
4683 623 6.21
623 4683 6.21
623 4688 5.56
4688 623 5.56
4688 5226 5.49
5226 4688 5.49
5226 624 5.65
624 5226 5.65
624 5227 5.30
5227 624 5.30
5227 1837 8.60
1837 5227 8.60
1837 5230 6.13
5230 1837 6.13
5230 912 19.57
912 5230 19.57
912 1467 1.07
1467 912 1.07
1467 911 5.67
911 1467 5.67
911 913 7.54
913 911 7.54
913 1463 4.06
1463 913 4.06
1463 4713 6.55
4713 1463 6.55
4713 4714 7.08
4714 4713 7.08
4714 4715 9.50
4715 4714 9.50
4715 625 7.54
625 4715 7.54
625 5229 6.87
5229 625 6.87
5229 215 4.06
215 5229 4.06
215 626 4.06
626 215 4.06
626 216 14.29
216 626 14.29
216 627 13.10
627 216 13.10
627 217 13.37
217 627 13.37
217 628 11.28
628 217 11.28
628 239 10.89
239 628 10.89
239 218 2.39
218 239 2.39
218 629 12.59
629 218 12.59
629 219 16.35
219 629 16.35
219 630 15.92
630 219 15.92
630 631 19.16
631 630 19.16
631 220 17.19
220 631 17.19
220 632 17.19
632 220 17.19
632 221 22.61
221 632 22.61
221 633 33.44
633 221 33.44
633 1298 59.66
1298 633 59.66
4691 4692 6.65
4692 4691 6.65
4692 4098 3.30
4098 4692 3.30
4098 4095 3.94
4095 4098 3.94
4095 4693 3.54
4693 4095 3.54
4693 4093 3.11
4093 4693 3.11
4093 4694 3.69
4694 4093 3.69
4694 4092 3.67
4092 4694 3.67
4092 4091 2.50
4091 4092 2.50
4091 4695 3.42
4695 4091 3.42
4695 4089 3.89
4089 4695 3.89
4089 4696 3.73
4696 4089 3.73
4696 4697 4.88
4697 4696 4.88
4697 1591 4.34
1591 4697 4.34
1591 4698 6.48
4698 1591 6.48
4698 4085 4.51
4085 4698 4.51
4085 4699 3.56
4699 4085 3.56
4699 4084 3.56
4084 4699 3.56
4084 4700 4.50
4700 4084 4.50
4700 4083 3.87
4083 4700 3.87
4083 4701 5.04
4701 4083 5.04
4701 4702 4.41
4702 4701 4.41
4702 4082 5.64
4082 4702 5.64
4082 4081 3.61
4081 4082 3.61
4081 1685 4.46
1685 4081 4.46
49 4854 5.93
4854 49 5.93
4854 50 4.78
50 4854 4.78
50 51 5.70
51 50 5.70
51 4855 6.15
4855 51 6.15
4855 52 5.65
52 4855 5.65
52 53 6.09
53 52 6.09
53 54 5.03
54 53 5.03
54 4856 4.94
4856 54 4.94
4856 55 4.58
55 4856 4.58
55 56 5.15
56 55 5.15
56 4857 5.35
4857 56 5.35
4857 3952 6.74
3952 4857 6.74
510 511 13.85
511 510 13.85
511 512 7.49
512 511 7.49
512 513 8.20
513 512 8.20
513 396 6.79
396 513 6.79
396 514 11.12
514 396 11.12
514 515 11.54
515 514 11.54
515 2065 11.85
2065 515 11.85
2065 516 9.38
516 2065 9.38
516 517 8.45
517 516 8.45
517 518 10.64
518 517 10.64
518 519 15.07
519 518 15.07
710 722 89.64
722 710 89.64
722 3897 24.52
3897 722 24.52
3897 4057 24.40
4057 3897 24.40
4057 3896 22.63
3896 4057 22.63
3896 4058 21.32
4058 3896 21.32
4058 3895 18.90
3895 4058 18.90
3895 4059 18.38
4059 3895 18.38
4059 3894 16.56
3894 4059 16.56
3894 4060 15.77
4060 3894 15.77
4060 3893 14.56
3893 4060 14.56
3893 4061 13.53
4061 3893 13.53
4061 3892 9.92
3892 4061 9.92
3892 1788 9.31
1788 3892 9.31
1788 1789 10.92
1789 1788 10.92
1789 5158 40.84
5158 1789 40.84
5158 1507 5.85
1507 5158 5.85
1507 1926 10.89
1926 1507 10.89
1926 5172 8.13
5172 1926 8.13
5172 1927 13.90
1927 5172 13.90
1927 1514 3.94
1514 1927 3.94
1514 1928 26.90
1928 1514 26.90
1928 5148 19.68
5148 1928 19.68
5148 4428 12.54
4428 5148 12.54
4428 1929 65.04
1929 4428 65.04
1929 1930 20.22
1930 1929 20.22
1930 1931 16.59
1931 1930 16.59
1931 1932 14.99
1932 1931 14.99
1932 1933 19.15
1933 1932 19.15
1933 1934 20.68
1934 1933 20.68
1934 1935 12.84
1935 1934 12.84
1935 1936 19.22
1936 1935 19.22
374 375 24.12
375 374 24.12
375 376 19.83
376 375 19.83
376 3386 6.62
3386 376 6.62
3386 377 18.44
377 3386 18.44
377 378 12.36
378 377 12.36
378 379 10.54
379 378 10.54
379 3384 7.32
3384 379 7.32
3384 380 7.89
380 3384 7.89
380 381 8.63
381 380 8.63
381 4548 8.67
4548 381 8.67
4548 382 8.52
382 4548 8.52
382 383 6.93
383 382 6.93
383 4547 8.44
4547 383 8.44
4547 384 9.31
384 4547 9.31
384 385 14.77
385 384 14.77
385 386 8.04
386 385 8.04
386 387 10.62
387 386 10.62
387 388 9.30
388 387 9.30
388 4531 10.05
4531 388 10.05
4531 389 10.71
389 4531 10.71
389 4532 12.62
4532 389 12.62
4532 390 12.49
390 4532 12.49
390 391 12.59
391 390 12.59
391 392 15.35
392 391 15.35
392 393 14.70
393 392 14.70
393 394 15.49
394 393 15.49
394 395 17.57
395 394 17.57
395 396 12.89
396 395 12.89
396 4533 16.93
4533 396 16.93
4533 397 16.62
397 4533 16.62
397 399 44.68
399 397 44.68
471 472 6.32
472 471 6.32
472 473 4.66
473 472 4.66
473 474 5.60
474 473 5.60
474 475 6.07
475 474 6.07
475 476 6.16
476 475 6.16
476 477 6.73
477 476 6.73
477 478 5.49
478 477 5.49
478 4802 5.90
4802 478 5.90
4802 479 5.79
479 4802 5.79
479 4803 5.25
4803 479 5.25
4803 480 6.69
480 4803 6.69
2949 4812 6.37
4812 2949 6.37
4812 2968 4.66
2968 4812 4.66
2968 2970 6.21
2970 2968 6.21
2970 2973 5.72
2973 2970 5.72
2973 2974 6.59
2974 2973 6.59
2974 2976 6.58
2976 2974 6.58
2976 2979 6.68
2979 2976 6.68
2979 3040 5.01
3040 2979 5.01
3040 4811 4.95
4811 3040 4.95
4811 2987 5.84
2987 4811 5.84
2987 2984 6.20
2984 2987 6.20
481 501 6.22
501 481 6.22
501 502 4.86
502 501 4.86
502 503 5.31
503 502 5.31
503 504 6.70
504 503 6.70
504 505 6.43
505 504 6.43
505 506 6.20
506 505 6.20
506 507 5.85
507 506 5.85
507 4800 5.14
4800 507 5.14
4800 508 5.25
508 4800 5.25
508 509 5.74
509 508 5.74
509 471 6.33
471 509 6.33
2107 2108 11.08
2108 2107 11.08
2108 2109 8.18
2109 2108 8.18
2109 3159 4.12
3159 2109 4.12
3159 2110 4.78
2110 3159 4.78
2110 2111 5.94
2111 2110 5.94
2111 2112 5.20
2112 2111 5.20
2112 2113 4.80
2113 2112 4.80
2113 2114 5.06
2114 2113 5.06
2114 3142 5.54
3142 2114 5.54
3142 2115 4.74
2115 3142 4.74
2115 2116 7.28
2116 2115 7.28
2116 2117 4.86
2117 2116 4.86
2117 2118 4.45
2118 2117 4.45
2118 2119 5.54
2119 2118 5.54
2119 2120 6.44
2120 2119 6.44
2120 2121 7.36
2121 2120 7.36
2121 2122 7.95
2122 2121 7.95
2122 2123 7.29
2123 2122 7.29
2123 2124 8.28
2124 2123 8.28
2124 3492 9.40
3492 2124 9.40
3492 2125 9.44
2125 3492 9.44
2125 2126 12.03
2126 2125 12.03
2126 2127 14.70
2127 2126 14.70
2127 2128 14.40
2128 2127 14.40
2128 2129 17.50
2129 2128 17.50
2129 2130 19.72
2130 2129 19.72
2130 2131 20.02
2131 2130 20.02
2131 2132 69.39
2132 2131 69.39
2133 2134 97.48
2134 2133 97.48
2134 2135 19.51
2135 2134 19.51
2135 2136 18.61
2136 2135 18.61
2136 2137 16.51
2137 2136 16.51
2137 2138 17.83
2138 2137 17.83
2138 2139 14.11
2139 2138 14.11
2139 2140 13.36
2140 2139 13.36
2140 2141 14.21
2141 2140 14.21
2141 2142 11.92
2142 2141 11.92
2142 3734 6.35
3734 2142 6.35
3734 2144 9.76
2144 3734 9.76
2144 2145 7.26
2145 2144 7.26
2145 2146 7.15
2146 2145 7.15
2146 2147 6.27
2147 2146 6.27
2147 2148 6.61
2148 2147 6.61
2148 2149 6.13
2149 2148 6.13
2149 3732 6.06
3732 2149 6.06
3732 2150 5.93
2150 3732 5.93
2150 2151 6.12
2151 2150 6.12
2151 2152 5.41
2152 2151 5.41
2152 2153 4.54
2153 2152 4.54
2153 2154 6.93
2154 2153 6.93
2345 2059 13.84
2059 2345 13.84
2059 2347 70.65
2347 2059 70.65
4733 2355 4.87
2355 4733 4.87
2355 4731 6.35
4731 2355 6.35
4731 4732 5.58
4732 4731 5.58
4732 2356 6.25
2356 4732 6.25
2356 4730 7.24
4730 2356 7.24
4730 2357 7.54
2357 4730 7.54
2357 4094 5.88
4094 2357 5.88
4094 2358 5.31
2358 4094 5.31
2358 4096 5.34
4096 2358 5.34
4096 2359 5.13
2359 4096 5.13
2359 4097 5.23
4097 2359 5.23
311 2037 7.35
2037 311 7.35
2037 2038 6.31
2038 2037 6.31
2038 2039 5.99
2039 2038 5.99
2039 2040 6.15
2040 2039 6.15
2040 4735 5.28
4735 2040 5.28
4735 2041 4.51
2041 4735 4.51
2041 2042 4.04
2042 2041 4.04
2042 2043 4.69
2043 2042 4.69
2043 2044 5.39
2044 2043 5.39
2044 2045 5.40
2045 2044 5.40
2045 2046 10.15
2046 2045 10.15
4684 4 7.88
4 4684 7.88
4 5 8.55
5 4 8.55
5 1502 9.36
1502 5 9.36
1502 899 5.84
899 1502 5.84
899 3102 6.10
3102 899 6.10
3102 3104 3.56
3104 3102 3.56
3104 6 8.17
6 3104 8.17
6 3100 5.90
3100 6 5.90
3100 7 8.82
7 3100 8.82
7 4500 11.10
4500 7 11.10
4500 8 10.68
8 4500 10.68
8 4501 12.67
4501 8 12.67
4501 9 13.01
9 4501 13.01
9 4502 13.13
4502 9 13.13
4502 10 13.02
10 4502 13.02
10 4503 12.67
4503 10 12.67
4503 11 13.88
11 4503 13.88
11 12 14.12
12 11 14.12
12 4504 17.05
4504 12 17.05
4504 13 15.36
13 4504 15.36
13 4505 19.79
4505 13 19.79
4505 14 17.30
14 4505 17.30
14 4534 37.99
4534 14 37.99
4534 1486 13.96
1486 4534 13.96
1486 15 71.68
15 1486 71.68
30 31 7.58
31 30 7.58
31 32 5.65
32 31 5.65
32 33 5.92
33 32 5.92
33 34 5.74
34 33 5.74
34 35 5.74
35 34 5.74
35 36 4.77
36 35 4.77
36 37 6.25
37 36 6.25
37 38 5.93
38 37 5.93
38 39 6.13
39 38 6.13
39 2830 5.07
2830 39 5.07
2830 376 6.90
376 2830 6.90
4894 4893 5.48
4893 4894 5.48
4893 1871 4.54
1871 4893 4.54
1871 4892 5.33
4892 1871 5.33
4892 1872 5.67
1872 4892 5.67
1872 4252 5.22
4252 1872 5.22
4252 1873 5.15
1873 4252 5.15
1873 4891 4.76
4891 1873 4.76
4891 1874 5.52
1874 4891 5.52
1874 4890 4.91
4890 1874 4.91
4890 1875 4.95
1875 4890 4.95
1875 4889 4.41
4889 1875 4.41
4889 1876 4.59
1876 4889 4.59
1876 1031 5.58
1031 1876 5.58
1941 1942 5.87
1942 1941 5.87
1942 1943 4.86
1943 1942 4.86
1943 1944 6.43
1944 1943 6.43
1944 1945 7.29
1945 1944 7.29
1945 1946 8.04
1946 1945 8.04
1946 1947 8.88
1947 1946 8.88
1947 1948 6.34
1948 1947 6.34
1948 1949 6.11
1949 1948 6.11
1949 1950 6.10
1950 1949 6.10
1950 1938 7.69
1938 1950 7.69
138 3331 85.51
3331 138 85.51
3331 1331 74.75
1331 3331 74.75
1331 159 84.95
159 1331 84.95
1778 169 25.56
169 1778 25.56
169 168 15.19
168 169 15.19
168 167 10.22
167 168 10.22
167 166 11.65
166 167 11.65
166 4412 8.66
4412 166 8.66
4412 165 7.85
165 4412 7.85
165 4416 4.90
4416 165 4.90
4416 164 5.14
164 4416 5.14
164 4410 5.17
4410 164 5.17
4410 163 5.61
163 4410 5.61
163 4417 7.07
4417 163 7.07
4417 162 7.29
162 4417 7.29
162 4408 6.71
4408 162 6.71
4408 161 6.80
161 4408 6.80
161 4400 13.16
4400 161 13.16
4400 4395 16.67
4395 4400 16.67
4395 1603 31.64
1603 4395 31.64
1603 3722 29.62
3722 1603 29.62
3722 1611 7.50
1611 3722 7.50
1611 4355 5.22
4355 1611 5.22
4355 4354 3.57
4354 4355 3.57
4354 4353 4.48
4353 4354 4.48
4353 4352 5.38
4352 4353 5.38
4352 1612 5.16
1612 4352 5.16
1612 4348 5.93
4348 1612 5.93
4348 1512 5.24
1512 4348 5.24
1512 908 4.06
908 1512 4.06
908 1511 2.05
1511 908 2.05
1511 4299 18.21
4299 1511 18.21
332 333 6.65
333 332 6.65
333 334 7.95
334 333 7.95
334 3735 6.43
3735 334 6.43
3735 335 7.15
335 3735 7.15
335 336 7.63
336 335 7.63
336 337 7.89
337 336 7.89
337 338 6.83
338 337 6.83
338 339 6.38
339 338 6.38
339 340 6.60
340 339 6.60
340 341 5.56
341 340 5.56
341 331 5.86
331 341 5.86
990 992 7.96
992 990 7.96
992 998 5.85
998 992 5.85
998 991 7.01
991 998 7.01
991 3743 6.32
3743 991 6.32
3743 994 5.25
994 3743 5.25
994 1010 6.79
1010 994 6.79
1010 1011 7.44
1011 1010 7.44
1733 1735 8.03
1735 1733 8.03
1735 1312 5.37
1312 1735 5.37
1312 1736 3.71
1736 1312 3.71
1736 1309 4.20
1309 1736 4.20
1309 1737 5.21
1737 1309 5.21
1737 1738 3.80
1738 1737 3.80
1738 1308 5.06
1308 1738 5.06
1308 1307 4.88
1307 1308 4.88
1307 1739 6.04
1739 1307 6.04
1739 1730 6.45
1730 1739 6.45
1730 1740 7.92
1740 1730 7.92
1740 1741 4.89
1741 1740 4.89
1741 1742 5.59
1742 1741 5.59
1742 1743 4.83
1743 1742 4.83
1743 1744 6.31
1744 1743 6.31
1744 4996 6.05
4996 1744 6.05
4996 1751 5.64
1751 4996 5.64
1751 1753 5.43
1753 1751 5.43
1753 4997 5.82
4997 1753 5.82
4997 1745 6.17
1745 4997 6.17
1745 1746 6.14
1746 1745 6.14
1746 4998 6.38
4998 1746 6.38
4998 1747 4.40
1747 4998 4.40
1747 1731 7.24
1731 1747 7.24
1711 5234 8.80
5234 1711 8.80
5234 1999 75.81
1999 5234 75.81
1999 2000 13.69
2000 1999 13.69
2000 2001 7.46
2001 2000 7.46
2001 5235 7.63
5235 2001 7.63
5235 2002 6.14
2002 5235 6.14
2002 1644 3.34
1644 2002 3.34
1644 1998 8.48
1998 1644 8.48
1998 1997 8.61
1997 1998 8.61
1997 1996 9.43
1996 1997 9.43
1996 1995 7.92
1995 1996 7.92
1995 1994 6.62
1994 1995 6.62
1994 1993 8.07
1993 1994 8.07
1993 1992 9.76
1992 1993 9.76
1992 1991 12.14
1991 1992 12.14
1991 1990 11.76
1990 1991 11.76
1990 1989 10.93
1989 1990 10.93
1989 1988 8.77
1988 1989 8.77
1988 270 6.09
270 1988 6.09
270 1987 3.35
1987 270 3.35
1987 1986 12.52
1986 1987 12.52
1986 1985 12.24
1985 1986 12.24
1985 1984 11.43
1984 1985 11.43
1984 1983 14.19
1983 1984 14.19
1983 1982 14.23
1982 1983 14.23
1982 1981 14.87
1981 1982 14.87
1981 1980 14.67
1980 1981 14.67
1980 1979 17.96
1979 1980 17.96
1979 1978 24.06
1978 1979 24.06
1978 1977 75.22
1977 1978 75.22
1795 2003 30.75
2003 1795 30.75
2003 2004 6.76
2004 2003 6.76
2004 4170 7.15
4170 2004 7.15
4563 4564 9.50
4564 4563 9.50
4564 4565 7.13
4565 4564 7.13
4565 4566 7.51
4566 4565 7.51
4566 2953 8.06
2953 4566 8.06
2953 2950 6.93
2950 2953 6.93
2950 4567 6.92
4567 2950 6.92
4567 4568 7.31
4568 4567 7.31
4568 4569 5.17
4569 4568 5.17
4569 4570 4.38
4570 4569 4.38
4570 4571 7.51
4571 4570 7.51
4571 4572 6.37
4572 4571 6.37
4572 4573 7.05
4573 4572 7.05
4573 4574 6.51
4574 4573 6.51
4574 4575 6.56
4575 4574 6.56
4575 4576 6.44
4576 4575 6.44
4576 4577 6.06
4577 4576 6.06
4577 4578 7.83
4578 4577 7.83
4579 2393 8.47
2393 4579 8.47
2393 4580 5.59
4580 2393 5.59
4580 4581 6.45
4581 4580 6.45
4581 2915 7.50
2915 4581 7.50
2915 4582 6.55
4582 2915 6.55
4582 4583 6.97
4583 4582 6.97
4583 4584 7.80
4584 4583 7.80
4584 4585 7.09
4585 4584 7.09
4585 4586 6.92
4586 4585 6.92
4586 2910 6.44
2910 4586 6.44
2910 2909 7.14
2909 2910 7.14
2909 4587 7.56
4587 2909 7.56
4587 4588 7.99
4588 4587 7.99
4588 2392 7.04
2392 4588 7.04
2392 4589 18.60
4589 2392 18.60
1642 3380 83.95
3380 1642 83.95
3380 1461 38.49
1461 3380 38.49
1461 3345 37.35
3345 1461 37.35
3345 1643 85.19
1643 3345 85.19
577 588 11.82
588 577 11.82
588 589 7.01
589 588 7.01
589 590 6.38
590 589 6.38
590 591 6.61
591 590 6.61
591 592 5.56
592 591 5.56
592 593 5.32
593 592 5.32
593 594 5.74
594 593 5.74
594 595 6.04
595 594 6.04
595 596 4.50
596 595 4.50
596 597 4.47
597 596 4.47
597 598 3.75
598 597 3.75
598 599 5.72
599 598 5.72
599 600 5.64
600 599 5.64
600 601 5.39
601 600 5.39
601 602 5.51
602 601 5.51
602 603 5.09
603 602 5.09
603 604 4.87
604 603 4.87
604 605 5.06
605 604 5.06
605 606 5.22
606 605 5.22
606 607 6.80
607 606 6.80
1426 1428 8.31
1428 1426 8.31
1428 1429 6.39
1429 1428 6.39
1429 1430 6.90
1430 1429 6.90
1430 1431 6.70
1431 1430 6.70
1431 1432 6.05
1432 1431 6.05
1432 3516 8.12
3516 1432 8.12
3516 1433 21.82
1433 3516 21.82
1433 1434 27.33
1434 1433 27.33
1434 1435 6.72
1435 1434 6.72
1435 1436 7.03
1436 1435 7.03
1436 1437 5.97
1437 1436 5.97
1437 1438 5.36
1438 1437 5.36
1438 1439 5.56
1439 1438 5.56
1439 1440 5.05
1440 1439 5.05
1440 1441 6.51
1441 1440 6.51
1443 1444 10.38
1444 1443 10.38
1444 1445 7.97
1445 1444 7.97
1445 1446 6.79
1446 1445 6.79
1446 1447 6.18
1447 1446 6.18
1447 1448 5.27
1448 1447 5.27
1448 1449 10.66
1449 1448 10.66
1449 1450 10.53
1450 1449 10.53
1450 3202 5.30
3202 1450 5.30
3202 1451 4.69
1451 3202 4.69
1451 1452 6.01
1452 1451 6.01
1452 3195 5.77
3195 1452 5.77
3195 1453 4.62
1453 3195 4.62
1453 1269 4.65
1269 1453 4.65
81 82 19.11
82 81 19.11
82 83 100.42
83 82 100.42
83 84 33.07
84 83 33.07
84 85 21.92
85 84 21.92
85 86 16.84
86 85 16.84
86 1157 16.09
1157 86 16.09
1157 87 15.57
87 1157 15.57
87 1158 15.32
1158 87 15.32
1158 1161 10.62
1161 1158 10.62
1161 88 5.78
88 1161 5.78
88 89 13.41
89 88 13.41
89 90 12.67
90 89 12.67
90 1159 14.14
1159 90 14.14
1159 91 11.85
91 1159 11.85
91 1160 9.60
1160 91 9.60
1160 1179 6.50
1179 1160 6.50
1179 1181 5.85
1181 1179 5.85
1181 1760 5.17
1760 1181 5.17
1760 1183 8.31
1183 1760 8.31
1183 92 8.61
92 1183 8.61
92 1187 8.44
1187 92 8.44
1187 93 8.27
93 1187 8.27
93 4467 9.14
4467 93 9.14
4467 94 7.96
94 4467 7.96
94 4469 10.74
4469 94 10.74
4469 95 7.64
95 4469 7.64
81 407 98.64
407 81 98.64
407 96 24.24
96 407 24.24
96 97 19.51
97 96 19.51
97 406 13.75
406 97 13.75
406 98 16.19
98 406 16.19
98 99 18.08
99 98 18.08
99 405 14.05
405 99 14.05
405 100 14.00
100 405 14.00
100 404 12.78
404 100 12.78
404 101 14.71
101 404 14.71
101 438 2.70
438 101 2.70
438 403 9.66
403 438 9.66
403 102 11.95
102 403 11.95
102 402 12.56
402 102 12.56
402 103 12.34
103 402 12.34
103 3344 10.23
3344 103 10.23
3344 3339 9.84
3339 3344 9.84
3339 408 7.06
408 3339 7.06
408 3332 6.97
3332 408 6.97
3332 104 7.50
104 3332 7.50
104 3328 9.61
3328 104 9.61
3328 105 9.94
105 3328 9.94
105 106 8.99
106 105 8.99
106 107 12.44
107 106 12.44
108 109 9.33
109 108 9.33
109 110 9.09
110 109 9.09
110 111 8.93
111 110 8.93
111 112 10.01
112 111 10.01
112 113 11.36
113 112 11.36
113 114 10.29
114 113 10.29
114 115 10.62
115 114 10.62
115 116 8.55
116 115 8.55
116 117 12.51
117 116 12.51
117 3354 7.11
3354 117 7.11
118 119 9.61
119 118 9.61
119 120 6.11
120 119 6.11
120 121 6.83
121 120 6.83
121 122 6.72
122 121 6.72
122 123 6.30
123 122 6.30
123 124 5.66
124 123 5.66
124 3861 5.96
3861 124 5.96
3861 125 4.95
125 3861 4.95
125 126 5.55
126 125 5.55
126 127 4.62
127 126 4.62
127 128 5.33
128 127 5.33
128 3860 6.00
3860 128 6.00
3860 129 5.52
129 3860 5.52
129 130 5.39
130 129 5.39
130 131 5.90
131 130 5.90
131 132 5.46
132 131 5.46
132 133 5.65
133 132 5.65
133 134 5.10
134 133 5.10
134 135 6.58
135 134 6.58
141 3692 15.06
3692 141 15.06
3692 142 17.98
142 3692 17.98
142 3710 6.26
3710 142 6.26
3710 143 14.78
143 3710 14.78
143 144 18.11
144 143 18.11
144 145 17.54
145 144 17.54
145 146 18.87
146 145 18.87
146 1512 13.83
1512 146 13.83
1512 1513 5.55
1513 1512 5.55
1513 147 14.85
147 1513 14.85
147 3693 14.71
3693 147 14.71
3693 1695 23.62
1695 3693 23.62
3826 898 11.86
898 3826 11.86
898 937 4.99
937 898 4.99
937 897 4.64
897 937 4.64
897 939 5.38
939 897 5.38
939 896 3.40
896 939 3.40
896 941 3.88
941 896 3.88
941 1504 16.74
1504 941 16.74
1504 943 15.23
943 1504 15.23
943 945 10.10
945 943 10.10
945 947 3.85
947 945 3.85
947 948 4.69
948 947 4.69
948 951 5.22
951 948 5.22
951 949 6.34
949 951 6.34
895 960 6.53
960 895 6.53
960 961 7.32
961 960 7.32
961 962 9.40
962 961 9.40
962 963 10.05
963 962 10.05
963 964 9.34
964 963 9.34
964 965 8.81
965 964 8.81
965 966 7.53
966 965 7.53
966 967 5.64
967 966 5.64
967 1600 11.42
1600 967 11.42
1034 1035 5.11
1035 1034 5.11
1035 1036 6.84
1036 1035 6.84
1036 1037 5.29
1037 1036 5.29
1037 4877 6.38
4877 1037 6.38
4877 4878 6.31
4878 4877 6.31
4878 4879 6.17
4879 4878 6.17
4879 1038 6.61
1038 4879 6.61
1038 4880 6.83
4880 1038 6.83
4880 4876 6.73
4876 4880 6.73
4876 4881 4.47
4881 4876 4.47
4881 1032 6.16
1032 4881 6.16
1031 1049 5.72
1049 1031 5.72
1049 1050 4.16
1050 1049 4.16
1050 1051 4.33
1051 1050 4.33
1051 1052 5.21
1052 1051 5.21
1052 4895 5.46
4895 1052 5.46
4895 1053 5.73
1053 4895 5.73
1053 1054 5.93
1054 1053 5.93
1054 1055 6.36
1055 1054 6.36
1055 4251 5.66
4251 1055 5.66
4251 1056 5.31
1056 4251 5.31
1056 1057 5.02
1057 1056 5.02
1057 4896 4.50
4896 1057 4.50
4896 1033 5.65
1033 4896 5.65
5312 4281 7.79
4281 5312 7.79
4281 5313 6.86
5313 4281 6.86
5313 5314 6.12
5314 5313 6.12
5314 5315 7.93
5315 5314 7.93
5315 1385 6.51
1385 5315 6.51
1385 5316 6.21
5316 1385 6.21
5316 5317 7.23
5317 5316 7.23
5317 5318 6.68
5318 5317 6.68
5318 5319 6.20
5319 5318 6.20
5319 5320 8.56
5320 5319 8.56
1602 3804 8.28
3804 1602 8.28
3804 3767 30.37
3767 3804 30.37
3767 1327 32.58
1327 3767 32.58
1327 3768 75.08
3768 1327 75.08
3768 171 9.87
171 3768 9.87
171 3831 9.22
3831 171 9.22
3831 904 118.08
904 3831 118.08
904 3670 39.29
3670 904 39.29
3670 3666 43.08
3666 3670 43.08
3666 3609 255.56
3609 3666 255.56
3609 1722 64.03
1722 3609 64.03
1722 3567 30.69
3567 1722 30.69
3567 3647 30.15
3647 3567 30.15
3647 1460 302.34
1460 3647 302.34
1460 2107 52.81
2107 1460 52.81
2107 4037 47.49
4037 2107 47.49
4037 3150 34.93
3150 4037 34.93
3150 4009 76.92
4009 3150 76.92
4009 2070 59.92
2070 4009 59.92
2070 4015 20.19
4015 2070 20.19
4015 3984 26.11
3984 4015 26.11
3984 4048 27.80
4048 3984 27.80
4048 531 25.84
531 4048 25.84
531 4025 50.58
4025 531 50.58
4025 3114 19.70
3114 4025 19.70
3114 3425 48.01
3425 3114 48.01
3425 1182 17.18
1182 3425 17.18
1182 2055 36.96
2055 1182 36.96
2055 2051 8.21
2051 2055 8.21
2051 379 38.94
379 2051 38.94
379 4530 3.45
4530 379 3.45
4530 48 40.90
48 4530 40.90
48 1600 134.84
1600 48 134.84
949 4720 74.00
4720 949 74.00
4720 889 37.49
889 4720 37.49
889 888 3.93
888 889 3.93
888 887 3.79
887 888 3.79
887 885 3.68
885 887 3.68
885 886 8.36
886 885 8.36
886 890 3.43
890 886 3.43
890 891 3.64
891 890 3.64
891 892 4.14
892 891 4.14
892 4727 23.60
4727 892 23.60
4727 4728 7.76
4728 4727 7.76
4728 2771 34.57
2771 4728 34.57
2771 4691 27.47
4691 2771 27.47
4691 4729 6.79
4729 4691 6.79
4729 4097 6.83
4097 4729 6.83
4097 1586 55.08
1586 4097 55.08
1586 2046 52.34
2046 1586 52.34
2046 4010 46.96
4010 2046 46.96
4010 2249 40.17
2249 4010 40.17
2249 3081 65.43
3081 2249 65.43
626 214 4.77
214 626 4.77
214 1887 7.46
1887 214 7.46
1887 1888 8.61
1888 1887 8.61
1888 1889 10.56
1889 1888 10.56
1889 1892 10.48
1892 1889 10.48
1892 1895 8.87
1895 1892 8.87
1895 1897 12.02
1897 1895 12.02
1897 213 10.05
213 1897 10.05
213 4712 9.32
4712 213 9.32
4712 1851 13.20
1851 4712 13.20
1525 1526 11.82
1526 1525 11.82
1526 1527 10.14
1527 1526 10.14
1527 5228 8.48
5228 1527 8.48
5228 1528 8.46
1528 5228 8.46
1528 1529 9.12
1529 1528 9.12
1529 1530 9.79
1530 1529 9.79
1530 1531 9.50
1531 1530 9.50
1531 1532 8.03
1532 1531 8.03
1532 1464 6.51
1464 1532 6.51
1464 1533 5.93
1533 1464 5.93
1533 1534 19.20
1534 1533 19.20
1534 1535 11.79
1535 1534 11.79
1535 1536 10.87
1536 1535 10.87
1536 1465 8.91
1465 1536 8.91
1465 909 1.39
909 1465 1.39
909 1537 9.82
1537 909 9.82
1537 621 13.02
621 1537 13.02
1815 1816 6.38
1816 1815 6.38
1816 1818 3.65
1818 1816 3.65
1818 1819 3.93
1819 1818 3.93
1819 4710 4.12
4710 1819 4.12
4710 1821 3.25
1821 4710 3.25
1821 4709 3.15
4709 1821 3.15
4709 4708 3.66
4708 4709 3.66
4708 4707 3.80
4707 4708 3.80
4707 1518 3.65
1518 4707 3.65
1518 1838 5.26
1838 1518 5.26
1838 1839 3.20
1839 1838 3.20
1839 1837 5.89
1837 1839 5.89
1837 1840 6.35
1840 1837 6.35
1840 1841 5.09
1841 1840 5.09
1841 1842 6.93
1842 1841 6.93
1842 910 5.67
910 1842 5.67
910 1466 1.00
1466 910 1.00
1466 1845 5.92
1845 1466 5.92
1845 1846 6.31
1846 1845 6.31
1846 1848 6.31
1848 1846 6.31
1848 1849 6.11
1849 1848 6.11
1849 1850 5.96
1850 1849 5.96
1850 1852 5.01
1852 1850 5.01
1852 4711 6.25
4711 1852 6.25
1200 4927 69.38
4927 1200 69.38
4927 4926 20.60
4926 4927 20.60
4926 4013 10.38
4013 4926 10.38
4013 3298 11.79
3298 4013 11.79
3298 3381 7.96
3381 3298 7.96
3381 3302 9.18
3302 3381 9.18
3302 3382 8.65
3382 3302 8.65
3382 5191 94.55
5191 3382 94.55
5191 3327 33.42
3327 5191 33.42
3327 3336 45.93
3336 3327 45.93
3336 3338 7.29
3338 3336 7.29
3338 3340 4.72
3340 3338 4.72
3340 3342 5.18
3342 3340 5.18
3342 3341 5.25
3341 3342 5.25
3341 3343 6.92
3343 3341 6.92
3343 1287 20.43
1287 3343 20.43
4037 4072 8.68
4072 4037 8.68
4072 3161 5.07
3161 4072 5.07
3161 4071 3.65
4071 3161 3.65
4071 3164 4.51
3164 4071 4.51
3164 4070 4.21
4070 3164 4.21
4070 3168 4.02
3168 4070 4.02
3168 4069 3.89
4069 3168 3.89
4069 3171 4.15
3171 4069 4.15
3171 4068 3.92
4068 3171 3.92
4068 3173 5.72
3173 4068 5.72
3173 3174 4.42
3174 3173 4.42
3174 3181 4.43
3181 3174 4.43
3181 3188 4.42
3188 3181 4.42
3188 3190 4.42
3190 3188 4.42
3190 3192 4.43
3192 3190 4.43
3192 3194 4.21
3194 3192 4.21
3194 3197 4.93
3197 3194 4.93
3197 3199 4.71
3199 3197 4.71
3199 3200 4.60
3200 3199 4.60
3200 1271 7.15
1271 3200 7.15
1271 3206 6.14
3206 1271 6.14
3206 3493 3.75
3493 3206 3.75
3493 3210 4.48
3210 3493 4.48
3210 3209 5.15
3209 3210 5.15
3209 3208 6.22
3208 3209 6.22
3208 3207 5.16
3207 3208 5.16
3207 3205 5.60
3205 3207 5.60
3205 3204 7.24
3204 3205 7.24
2984 4810 9.13
4810 2984 9.13
4810 1755 40.95
1755 4810 40.95
1755 471 42.26
471 1755 42.26
471 713 144.42
713 471 144.42
713 207 22.81
207 713 22.81
207 2850 72.03
2850 207 72.03
2850 2851 6.61
2851 2850 6.61
2851 2096 30.62
2096 2851 30.62
2096 1433 27.15
1433 2096 27.15
1433 3510 23.45
3510 1433 23.45
3510 3509 10.73
3509 3510 10.73
3509 1775 19.92
1775 3509 19.92
1775 1449 26.10
1449 1775 26.10
1449 1270 25.97
1270 1449 25.97
1270 4068 33.88
4068 1270 33.88
1884 4245 7.01
4245 1884 7.01
4245 1885 6.19
1885 4245 6.19
1885 4246 5.83
4246 1885 5.83
4246 4250 5.92
4250 4246 5.92
4250 1886 5.44
1886 4250 5.44
1886 4247 5.70
4247 1886 5.70
4247 1890 5.09
1890 4247 5.09
1890 4248 4.90
4248 1890 4.90
4248 4249 6.39
4249 4248 6.39
4249 1891 4.60
1891 4249 4.60
1891 4860 3.43
4860 1891 3.43
4860 1869 4.09
1869 4860 4.09
4223 189 5.06
189 4223 5.06
189 190 5.00
190 189 5.00
190 191 6.54
191 190 6.54
191 4224 6.06
4224 191 6.06
4224 192 5.85
192 4224 5.85
192 193 5.65
193 192 5.65
193 194 5.40
194 193 5.40
194 195 5.82
195 194 5.82
195 196 5.58
196 195 5.58
196 4225 4.52
4225 196 4.52
4225 1299 5.10
1299 4225 5.10
197 198 6.26
198 197 6.26
198 199 6.75
199 198 6.75
199 4226 7.99
4226 199 7.99
4226 200 6.12
200 4226 6.12
200 201 7.60
201 200 7.60
201 4227 6.42
4227 201 6.42
4227 202 6.55
202 4227 6.55
202 4228 6.40
4228 202 6.40
4228 203 6.08
203 4228 6.08
203 204 8.80
204 203 8.80
923 927 16.65
927 923 16.65
927 928 5.00
928 927 5.00
928 930 6.05
930 928 6.05
930 931 6.70
931 930 6.70
931 1229 6.58
1229 931 6.58
1229 932 6.41
932 1229 6.41
932 933 5.70
933 932 5.70
933 934 6.22
934 933 6.22
934 1234 5.20
1234 934 5.20
1234 935 5.81
935 1234 5.81
935 936 4.85
936 935 4.85
936 1698 28.98
1698 936 28.98
1698 1699 7.63
1699 1698 7.63
1699 1700 3.97
1700 1699 3.97
1700 1701 4.08
1701 1700 4.08
1701 1702 6.85
1702 1701 6.85
1702 1703 6.30
1703 1702 6.30
1703 1704 6.21
1704 1703 6.21
1704 1705 5.60
1705 1704 5.60
1705 1706 5.96
1706 1705 5.96
1706 1707 5.89
1707 1706 5.89
1707 1708 4.58
1708 1707 4.58
1708 1709 7.18
1709 1708 7.18
1709 1653 6.37
1653 1709 6.37
1653 1712 5.38
1712 1653 5.38
1712 1713 4.23
1713 1712 4.23
1713 1714 5.24
1714 1713 5.24
1714 1715 5.83
1715 1714 5.83
1715 1716 5.31
1716 1715 5.31
1716 1717 6.28
1717 1716 6.28
1717 1235 5.93
1235 1717 5.93
1235 1718 5.11
1718 1235 5.11
1718 1719 4.57
1719 1718 4.57
1719 1720 4.26
1720 1719 4.26
1720 1236 4.38
1236 1720 4.38
1236 1636 3.73
1636 1236 3.73
1636 1237 4.57
1237 1636 4.57
1237 1238 4.33
1238 1237 4.33
1238 138 75.63
138 1238 75.63
1651 1647 83.72
1647 1651 83.72
1647 107 59.81
107 1647 59.81
107 938 17.05
938 107 17.05
938 4425 17.89
4425 938 17.89
4425 400 66.69
400 4425 66.69
1652 1941 79.69
1941 1652 79.69
1941 1969 5.92
1969 1941 5.92
1969 1970 5.56
1970 1969 5.56
1970 398 7.18
398 1970 7.18
398 1971 5.92
1971 398 5.92
1971 1972 7.67
1972 1971 7.67
1972 1973 7.13
1973 1972 7.13
1973 1974 8.63
1974 1973 8.63
1974 1975 5.85
1975 1974 5.85
1975 401 5.20
401 1975 5.20
401 1939 6.11
1939 401 6.11
2880 2154 5.97
2154 2880 5.97
2154 2879 3.37
2879 2154 3.37
2879 1030 10.05
1030 2879 10.05
1030 1582 22.55
1582 1030 22.55
1582 2877 6.73
2877 1582 6.73
2877 2164 6.60
2164 2877 6.60
2164 3127 4.92
3127 2164 4.92
3127 2165 7.96
2165 3127 7.96
2165 2166 6.69
2166 2165 6.69
2166 2167 6.39
2167 2166 6.39
2167 2168 7.59
2168 2167 7.59
1272 3498 22.89
3498 1272 22.89
3498 1273 4.93
1273 3498 4.93
1273 1274 5.44
1274 1273 5.44
1274 1275 6.36
1275 1274 6.36
1275 1286 5.43
1286 1275 5.43
1286 3497 5.00
3497 1286 5.00
3497 3496 6.41
3496 3497 6.41
3496 1276 9.34
1276 3496 9.34
4497 4496 17.81
4496 4497 17.81
4496 4495 8.82
4495 4496 8.82
4495 4494 10.48
4494 4495 10.48
4494 4493 9.54
4493 4494 9.54
4493 4492 9.37
4492 4493 9.37
4492 3462 8.15
3462 4492 8.15
3462 3461 7.72
3461 3462 7.72
3461 4491 8.30
4491 3461 8.30
4491 4490 8.47
4490 4491 8.47
4490 1299 11.58
1299 4490 11.58
1299 1300 14.01
1300 1299 14.01
1300 1319 13.52
1319 1300 13.52
1319 299 15.39
299 1319 15.39
299 1311 15.31
1311 299 15.31
1311 1301 16.47
1301 1311 16.47
1301 301 18.67
301 1301 18.67
301 1302 19.24
1302 301 19.24
1302 304 23.58
304 1302 23.58
304 1303 23.34
1303 304 23.34
1303 305 26.19
305 1303 26.19
305 1304 27.39
1304 305 27.39
1304 1298 60.05
1298 1304 60.05
1340 1332 24.28
1332 1340 24.28
1332 1381 7.55
1381 1332 7.55
1381 1380 4.98
1380 1381 4.98
1380 1379 5.49
1379 1380 5.49
1379 1378 6.62
1378 1379 6.62
1378 1377 8.32
1377 1378 8.32
1377 1382 8.65
1382 1377 8.65
1382 1383 5.73
1383 1382 5.73
1383 1333 6.14
1333 1383 6.14
1333 1384 6.32
1384 1333 6.32
1384 1334 44.21
1334 1384 44.21
1334 1335 78.41
1335 1334 78.41
1335 1365 8.77
1365 1335 8.77
1365 1364 7.65
1364 1365 7.65
1364 1363 9.50
1363 1364 9.50
1363 1366 6.30
1366 1363 6.30
1366 1367 7.22
1367 1366 7.22
1367 1368 6.06
1368 1367 6.06
1368 1369 7.57
1369 1368 7.57
1369 2371 5.61
2371 1369 5.61
2371 1336 7.22
1336 2371 7.22
1390 1392 47.35
1392 1390 47.35
1392 1402 13.81
1402 1392 13.81
1402 1394 21.46
1394 1402 21.46
1394 1403 12.47
1403 1394 12.47
1403 1404 10.16
1404 1403 10.16
1404 1405 12.21
1405 1404 12.21
1405 2752 16.97
2752 1405 16.97
2752 1396 25.92
1396 2752 25.92
1396 1395 23.92
1395 1396 23.92
1395 1397 17.92
1397 1395 17.92
1397 1401 14.26
1401 1397 14.26
1401 1398 10.65
1398 1401 10.65
1398 1399 11.92
1399 1398 11.92
1399 1400 11.01
1400 1399 11.01
1400 4321 6.19
4321 1400 6.19
4321 1406 3.01
1406 4321 3.01
1406 1664 23.05
1664 1406 23.05
1847 1853 9.73
1853 1847 9.73
1853 1854 12.51
1854 1853 12.51
1854 1855 10.16
1855 1854 10.16
1855 637 2.32
637 1855 2.32
637 636 3.89
636 637 3.89
636 1856 4.58
1856 636 4.58
1856 1857 11.03
1857 1856 11.03
1857 5128 1.46
5128 1857 1.46
5128 1858 7.96
1858 5128 7.96
1858 1859 8.86
1859 1858 8.86
1859 5108 6.25
5108 1859 6.25
5108 1860 8.73
1860 5108 8.73
1860 1861 8.34
1861 1860 8.34
1861 3304 12.45
3304 1861 12.45
3304 1862 12.03
1862 3304 12.03
1862 1863 14.03
1863 1862 14.03
1863 1865 11.15
1865 1863 11.15
1865 3308 10.85
3308 1865 10.85
3308 1866 13.83
1866 3308 13.83
1866 3311 10.77
3311 1866 10.77
3311 5109 14.17
5109 3311 14.17
5109 1867 12.65
1867 5109 12.65
1867 1864 103.09
1864 1867 103.09
4011 208 6.08
208 4011 6.08
208 4028 5.88
4028 208 5.88
4028 4029 6.92
4029 4028 6.92
4029 209 5.62
209 4029 5.62
209 4030 6.03
4030 209 6.03
4030 4031 6.19
4031 4030 6.19
4031 4032 7.00
4032 4031 7.00
4032 210 6.25
210 4032 6.25
210 4033 4.98
4033 210 4.98
4033 4034 5.23
4034 4033 5.23
4034 4035 6.96
4035 4034 6.96
2171 4140 5.43
4140 2171 5.43
4140 4141 4.43
4141 4140 4.43
4141 4142 4.93
4142 4141 4.93
4142 2868 4.64
2868 4142 4.64
2868 4143 4.63
4143 2868 4.63
4143 4144 4.27
4144 4143 4.27
4144 4145 4.89
4145 4144 4.89
4145 4147 3.80
4147 4145 3.80
4147 2869 4.79
2869 4147 4.79
2869 4148 5.33
4148 2869 5.33
4053 4124 6.52
4124 4053 6.52
4124 4054 5.20
4054 4124 5.20
4054 4122 5.20
4122 4054 5.20
4122 1268 5.20
1268 4122 5.20
1268 4119 5.21
4119 1268 5.21
4119 4055 5.20
4055 4119 5.20
4055 4115 5.21
4115 4055 5.21
4115 4114 5.19
4114 4115 5.19
4114 3119 15.09
3119 4114 15.09
3119 2347 28.92
2347 3119 28.92
2347 1182 38.71
1182 2347 38.71
1182 2058 20.91
2058 1182 20.91
2058 4103 16.27
4103 2058 16.27
4103 4546 6.99
4546 4103 6.99
4546 385 35.01
385 4546 35.01
385 1486 59.96
1486 385 59.96
1486 1485 4.93
1485 1486 4.93
1485 4524 50.74
4524 1485 50.74
4524 4508 4.90
4508 4524 4.90
4508 1265 43.91
1265 4508 43.91
1265 2705 6.84
2705 1265 6.84
2705 2704 60.89
2704 2705 60.89
2704 2694 5.52
2694 2704 5.52
2694 1484 38.83
1484 2694 38.83
1484 2666 39.95
2666 1484 39.95
2666 2616 10.55
2616 2666 10.55
2616 1483 40.98
1483 2616 40.98
1483 2988 9.93
2988 1483 9.93
2988 1572 7.23
1572 2988 7.23
1572 2364 7.11
2364 1572 7.11
2364 2363 7.02
2363 2364 7.02
2363 1573 6.33
1573 2363 6.33
1573 2763 7.23
2763 1573 7.23
2763 2361 6.40
2361 2763 6.40
2361 1574 8.75
1574 2361 8.75
1574 2965 6.95
2965 1574 6.95
2965 2764 7.39
2764 2965 7.39
2764 2963 5.63
2963 2764 5.63
2963 1575 8.45
1575 2963 8.45
4127 4126 8.58
4126 4127 8.58
4126 4125 4.18
4125 4126 4.18
4125 4123 4.17
4123 4125 4.17
4123 4121 4.18
4121 4123 4.18
4121 4120 4.17
4120 4121 4.17
4120 4118 4.18
4118 4120 4.18
4118 4117 4.17
4117 4118 4.17
4117 4116 4.18
4116 4117 4.18
4116 4113 4.18
4113 4116 4.18
4113 4019 4.17
4019 4113 4.17
2184 2861 4.07
2861 2184 4.07
2861 4146 3.19
4146 2861 3.19
4146 2185 3.84
2185 4146 3.84
2185 2860 4.20
2860 2185 4.20
2860 2186 4.41
2186 2860 4.41
2186 2187 4.17
2187 2186 4.17
2187 2188 5.25
2188 2187 5.25
2188 2859 4.51
2859 2188 4.51
2859 2189 4.33
2189 2859 4.33
2189 2190 4.80
2190 2189 4.80
2190 2191 4.39
2191 2190 4.39
2191 2857 4.15
2857 2191 4.15
2857 2192 4.59
2192 2857 4.59
2192 2193 4.90
2193 2192 4.90
2193 2173 4.77
2173 2193 4.77
4137 4138 5.90
4138 4137 5.90
4138 4136 4.14
4136 4138 4.14
4136 4135 4.14
4135 4136 4.14
4135 4134 4.14
4134 4135 4.14
4134 4133 4.14
4133 4134 4.14
4133 4132 4.13
4132 4133 4.13
4132 4131 4.14
4131 4132 4.14
4131 4130 4.13
4130 4131 4.13
4130 4129 4.14
4129 4130 4.14
4129 4128 4.14
4128 4129 4.14
4128 3978 4.14
3978 4128 4.14
2173 2865 3.56
2865 2173 3.56
2865 2194 3.63
2194 2865 3.63
2194 2195 4.25
2195 2194 4.25
2195 2196 4.56
2196 2195 4.56
2196 2197 4.91
2197 2196 4.91
2197 2198 5.15
2198 2197 5.15
2198 2199 4.72
2199 2198 4.72
2199 2200 4.90
2200 2199 4.90
2200 2863 4.69
2863 2200 4.69
2863 2201 4.85
2201 2863 4.85
2201 2202 5.02
2202 2201 5.02
2202 2203 4.87
2203 2202 4.87
2203 2204 4.79
2204 2203 4.79
2204 2862 4.81
2862 2204 4.81
2862 2175 4.53
2175 2862 4.53
309 368 1.90
368 309 1.90
368 3835 9.15
3835 368 9.15
3835 2825 7.21
2825 3835 7.21
2825 1266 6.94
1266 2825 6.94
1266 2826 6.86
2826 1266 6.86
2826 3836 5.81
3836 2826 5.81
3836 1267 7.35
1267 3836 7.35
1267 2827 8.06
2827 1267 8.06
2827 3837 8.26
3837 2827 8.26
3837 743 10.21
743 3837 10.21
743 17 4.89
17 743 4.89
17 18 6.39
18 17 6.39
18 19 7.24
19 18 7.24
19 20 6.81
20 19 6.81
4149 4150 5.07
4150 4149 5.07
4150 4151 4.44
4151 4150 4.44
4151 4152 4.37
4152 4151 4.37
4152 4153 4.73
4153 4152 4.73
4153 4154 5.04
4154 4153 5.04
4154 4155 4.85
4155 4154 4.85
4155 4156 5.27
4156 4155 5.27
4156 4157 5.39
4157 4156 5.39
4157 4158 5.42
4158 4157 5.42
4158 4160 5.30
4160 4158 5.30
4160 4159 5.28
4159 4160 5.28
4159 4163 5.24
4163 4159 5.24
4163 4161 6.29
4161 4163 6.29
3978 3464 6.30
3464 3978 6.30
3464 3979 4.64
3979 3464 4.64
3979 3980 6.15
3980 3979 6.15
3980 3981 6.62
3981 3980 6.62
3981 3982 7.84
3982 3981 7.84
3982 3983 6.24
3983 3982 6.24
3983 3984 7.98
3984 3983 7.98
3984 3985 8.57
3985 3984 8.57
3985 3986 5.87
3986 3985 5.87
3986 3987 6.92
3987 3986 6.92
3987 3988 6.31
3988 3987 6.31
3988 3465 6.72
3465 3988 6.72
3465 3989 5.94
3989 3465 5.94
3989 3468 5.75
3468 3989 5.75
3468 2071 6.22
2071 3468 6.22
2071 3990 5.86
3990 2071 5.86
3990 3991 7.93
3991 3990 7.93
3991 3992 8.54
3992 3991 8.54
3992 2072 6.13
2072 3992 6.13
2072 3993 5.57
3993 2072 5.57
3993 3994 7.21
3994 3993 7.21
4139 4004 25.06
4004 4139 25.06
4004 4137 3.97
4137 4004 3.97
4137 3977 23.07
3977 4137 23.07
3977 4005 25.49
4005 3977 25.49
4005 2091 3.88
2091 4005 3.88
2091 2090 3.54
2090 2091 3.54
2090 2088 5.99
2088 2090 5.99
2088 4006 5.50
4006 2088 5.50
4006 4007 6.83
4007 4006 6.83
4007 2089 6.55
2089 4007 6.55
2089 4008 6.84
4008 2089 6.84
4008 4009 7.30
4009 4008 7.30
2347 2348 28.44
2348 2347 28.44
4019 3121 4.74
3121 4019 4.74
3121 4020 4.75
4020 3121 4.75
4020 3118 4.74
3118 4020 4.74
3118 4021 4.74
4021 3118 4.74
4021 4022 4.74
4022 4021 4.74
4022 3116 4.74
3116 4022 4.74
3116 4023 4.73
4023 3116 4.73
4023 4024 4.75
4024 4023 4.75
4024 4025 4.73
4025 4024 4.73
3971 3972 8.09
3972 3971 8.09
3972 3973 9.68
3973 3972 9.68
3973 3974 7.93
3974 3973 7.93
3974 3975 8.45
3975 3974 8.45
3975 3976 6.55
3976 3975 6.55
3976 4026 3.77
4026 3976 3.77
79 2876 7.35
2876 79 7.35
2876 2176 4.88
2176 2876 4.88
2176 2177 4.32
2177 2176 4.32
2177 2178 5.88
2178 2177 5.88
2178 2179 5.81
2179 2178 5.81
2179 2180 5.21
2180 2179 5.21
2180 2875 4.39
2875 2180 4.39
2875 2181 4.27
2181 2875 4.27
2181 2874 4.01
2874 2181 4.01
2874 2182 4.50
2182 2874 4.50
2182 2183 4.71
2183 2182 4.71
981 982 5.95
982 981 5.95
982 983 3.75
983 982 3.75
983 3096 4.03
3096 983 4.03
3096 984 4.91
984 3096 4.91
984 985 4.57
985 984 4.57
985 871 4.54
871 985 4.54
871 986 6.85
986 871 6.85
986 987 5.78
987 986 5.78
987 988 6.59
988 987 6.59
988 989 6.80
989 988 6.80
989 993 6.39
993 989 6.39
4449 4898 4.85
4898 4449 4.85
4898 4450 4.07
4450 4898 4.07
4450 4451 4.94
4451 4450 4.94
4451 4452 5.59
4452 4451 5.59
4452 4453 5.17
4453 4452 5.17
4453 4454 5.89
4454 4453 5.89
4454 4455 5.33
4455 4454 5.33
4455 4456 5.73
4456 4455 5.73
4456 4457 5.85
4457 4456 5.85
4457 4458 5.80
4458 4457 5.80
4458 4459 4.72
4459 4458 4.72
4459 4437 5.87
4437 4459 5.87
4253 4899 6.36
4899 4253 6.36
4899 4261 5.68
4261 4899 5.68
4261 4260 6.74
4260 4261 6.74
4260 4262 6.65
4262 4260 6.65
4262 4255 6.22
4255 4262 6.22
4255 4257 6.35
4257 4255 6.35
4257 4256 6.06
4256 4257 6.06
4256 4259 5.84
4259 4256 5.84
4259 4258 6.02
4258 4259 6.02
4258 4254 9.44
4254 4258 9.44
4254 4449 5.40
4449 4254 5.40
4449 4897 5.61
4897 4449 5.61
4897 3236 4.57
3236 4897 4.57
3236 3232 5.43
3232 3236 5.43
3232 3230 5.50
3230 3232 5.50
3230 3228 5.49
3228 3230 5.49
3228 3225 5.77
3225 3228 5.77
3225 3222 5.63
3222 3225 5.63
3222 3218 6.04
3218 3222 6.04
3218 3217 5.56
3217 3218 5.56
3217 3215 5.36
3215 3217 5.36
3215 3216 4.76
3216 3215 4.76
3216 3214 5.29
3214 3216 5.29
3051 3050 13.41
3050 3051 13.41
3050 3049 5.67
3049 3050 5.67
3049 3045 5.67
3045 3049 5.67
3045 3043 5.67
3043 3045 5.67
3043 3038 5.67
3038 3043 5.67
3038 3030 5.66
3030 3038 5.66
3030 3023 5.67
3023 3030 5.67
3023 3016 5.67
3016 3023 5.67
3016 2366 5.67
2366 3016 5.67
2366 2365 5.67
2365 2366 5.67
2365 2989 2.69
2989 2365 2.69
2989 2980 4.52
2980 2989 4.52
1194 1034 78.37
1034 1194 78.37
1034 1198 6.93
1198 1034 6.93
1198 16 4.98
16 1198 4.98
16 4875 4.13
4875 16 4.13
4875 4874 5.57
4874 4875 5.57
4874 4873 5.02
4873 4874 5.02
4873 4014 6.86
4014 4873 6.86
4014 4872 7.03
4872 4014 7.03
4872 4871 6.13
4871 4872 6.13
4871 4870 6.34
4870 4871 6.34
4870 4869 6.23
4869 4870 6.23
4869 1790 5.39
1790 4869 5.39
3119 4111 5.27
4111 3119 5.27
4111 4110 5.27
4110 4111 5.27
4110 4109 5.26
4109 4110 5.26
4109 4108 5.26
4108 4109 5.26
4108 4107 5.26
4107 4108 5.26
4107 4106 5.27
4106 4107 5.27
4106 4105 5.27
4105 4106 5.27
4105 4104 5.26
4104 4105 5.26
4104 2348 5.26
2348 4104 5.26
2348 2349 4.00
2349 2348 4.00
2349 3110 4.01
3110 2349 4.01
3110 3111 4.01
3111 3110 4.01
3111 2350 4.01
2350 3111 4.01
2350 3112 4.01
3112 2350 4.01
3112 2351 4.01
2351 3112 4.01
2351 3114 4.00
3114 2351 4.00
3185 3180 5.79
3180 3185 5.79
3180 3179 4.90
3179 3180 4.90
3179 3178 5.32
3178 3179 5.32
3178 3177 5.19
3177 3178 5.19
3177 3176 5.10
3176 3177 5.10
3176 3184 5.10
3184 3176 5.10
3184 3183 5.10
3183 3184 5.10
3183 3187 5.11
3187 3183 5.11
3187 3189 5.10
3189 3187 5.10
3189 3191 5.11
3191 3189 5.11
3191 3193 5.10
3193 3191 5.10
3193 3196 5.11
3196 3193 5.11
3196 3198 5.10
3198 3196 5.10
3198 3201 5.10
3201 3198 5.10
3201 3203 5.10
3203 3201 5.10
3203 3211 5.10
3211 3203 5.10
3211 3212 5.11
3212 3211 5.11
3240 3239 5.19
3239 3240 5.19
3239 3238 5.20
3238 3239 5.20
3238 3237 5.20
3237 3238 5.20
3237 3235 5.20
3235 3237 5.20
3235 3234 5.20
3234 3235 5.20
3234 3231 5.20
3231 3234 5.20
3231 3229 5.20
3229 3231 5.20
3229 3227 5.20
3227 3229 5.20
3227 3224 5.20
3224 3227 5.20
3224 3223 5.20
3223 3224 5.20
3223 3219 5.21
3219 3223 5.21
3219 3220 5.62
3220 3219 5.62
3220 3221 4.86
3221 3220 4.86
2955 1576 6.77
1576 2955 6.77
1576 2948 4.10
2948 1576 4.10
2948 2945 4.76
2945 2948 4.76
2945 2942 3.17
2942 2945 3.17
2942 2940 3.47
2940 2942 3.47
2940 1577 4.32
1577 2940 4.32
1577 2936 2.77
2936 1577 2.77
2936 2934 3.21
2934 2936 3.21
2934 2932 3.10
2932 2934 3.10
2932 1578 3.10
1578 2932 3.10
1578 2931 2.78
2931 1578 2.78
2931 2929 3.41
2929 2931 3.41
2929 2927 3.75
2927 2929 3.75
2927 1579 2.69
1579 2927 2.69
1579 2922 4.08
2922 1579 4.08
2922 1580 4.75
1580 2922 4.75
1580 2920 5.24
2920 1580 5.24
2920 2918 4.44
2918 2920 4.44
2918 1581 5.26
1581 2918 5.26
1581 2765 6.40
2765 1581 6.40
2765 2766 5.88
2766 2765 5.88
2766 1584 13.02
1584 2766 13.02
4369 4370 6.43
4370 4369 6.43
4370 4371 6.42
4371 4370 6.42
4371 3263 6.43
3263 4371 6.43
3263 4373 6.42
4373 3263 6.42
4373 3252 6.43
3252 4373 6.43
3252 4374 6.43
4374 3252 6.43
4374 3249 6.43
3249 4374 6.43
3249 4375 6.43
4375 3249 6.43
4375 3243 6.43
3243 4375 6.43
3243 4376 6.43
4376 3243 6.43
4376 3240 6.43
3240 4376 6.43
2781 707 1.23
707 2781 1.23
707 708 2.85
708 707 2.85
708 706 2.72
706 708 2.72
706 4210 11.10
4210 706 11.10
4210 1497 3.62
1497 4210 3.62
1497 698 12.81
698 1497 12.81
698 3093 26.11
3093 698 26.11
3093 3089 90.34
3089 3093 90.34
3089 668 3.18
668 3089 3.18
668 3090 3.60
3090 668 3.60
3090 3091 3.72
3091 3090 3.72
3091 3085 91.04
3085 3091 91.04
3085 2259 22.45
2259 3085 22.45
2259 1498 63.95
1498 2259 63.95
1498 2250 28.12
2250 1498 28.12
2250 2 10.24
2 2250 10.24
2 2246 19.75
2246 2 19.75
2246 2247 7.01
2247 2246 7.01
2247 3078 5.70
3078 2247 5.70
3078 3081 13.28
3081 3078 13.28
3150 3153 7.97
3153 3150 7.97
3153 3154 5.34
3154 3153 5.34
3154 3155 5.97
3155 3154 5.97
3155 3156 6.14
3156 3155 6.14
3156 3151 5.53
3151 3156 5.53
3151 3152 5.34
3152 3151 5.34
3152 3148 4.72
3148 3152 4.72
3148 3149 3.94
3149 3148 3.94
3149 3147 4.10
3147 3149 4.10
3147 3141 5.08
3141 3147 5.08
3141 3140 4.81
3140 3141 4.81
3140 2116 7.23
2116 3140 7.23
2116 3139 9.41
3139 2116 9.41
3139 3138 3.75
3138 3139 3.75
3138 3137 5.34
3137 3138 5.34
3137 3136 4.68
3136 3137 4.68
3136 3135 5.35
3135 3136 5.35
3135 3134 5.09
3134 3135 5.09
3134 3133 4.75
3133 3134 4.75
3133 3129 5.09
3129 3133 5.09
3129 3126 6.90
3126 3129 6.90
3126 3125 7.51
3125 3126 7.51
3125 3124 14.73
3124 3125 14.73
3124 3123 9.89
3123 3124 9.89
3123 3122 13.94
3122 3123 13.94
3122 3120 16.18
3120 3122 16.18
3120 3117 17.02
3117 3120 17.02
3117 3115 23.92
3115 3117 23.92
3115 3113 26.86
3113 3115 26.86
3113 399 76.36
399 3113 76.36
2794 2793 12.84
2793 2794 12.84
2793 2792 5.12
2792 2793 5.12
2792 2791 3.61
2791 2792 3.61
2791 3400 4.06
3400 2791 4.06
3400 3399 4.55
3399 3400 4.55
3399 3398 3.77
3398 3399 3.77
3398 3397 3.98
3397 3398 3.98
3397 3396 4.63
3396 3397 4.63
3396 3395 3.73
3395 3396 3.73
3395 3393 3.39
3393 3395 3.39
3393 3392 3.75
3392 3393 3.75
3392 3391 4.02
3391 3392 4.02
3391 3390 4.24
3390 3391 4.24
3390 3388 4.56
3388 3390 4.56
3388 3387 3.46
3387 3388 3.46
3387 3383 44.74
3383 3387 44.74
3383 1462 37.49
1462 3383 37.49
1462 3346 37.92
3346 1462 37.92
3346 5256 14.04
5256 3346 14.04
5256 3337 7.57
3337 5256 7.57
3337 3335 6.62
3335 3337 6.62
3335 3334 5.35
3334 3335 5.35
3334 3330 5.95
3330 3334 5.95
3330 3329 5.41
3329 3330 5.41
3329 3326 5.61
3326 3329 5.61
3326 3325 5.75
3325 3326 5.75
3325 3324 5.02
3324 3325 5.02
3324 3322 5.44
3322 3324 5.44
3322 3320 6.22
3320 3322 6.22
3320 3319 5.47
3319 3320 5.47
3319 3318 7.55
3318 3319 7.55
3318 3317 5.85
3317 3318 5.85
3317 3315 4.96
3315 3317 4.96
3315 3314 8.21
3314 3315 8.21
3314 3313 11.14
3313 3314 11.14
2980 2526 2.09
2526 2980 2.09
2526 4597 13.04
4597 2526 13.04
4597 2362 8.81
2362 4597 8.81
2362 2527 6.55
2527 2362 6.55
2527 4598 6.25
4598 2527 6.25
4598 1667 7.96
1667 4598 7.96
3856 679 4.36
679 3856 4.36
679 1495 16.57
1495 679 16.57
1495 3046 7.82
3046 1495 7.82
3046 3039 9.47
3039 3046 9.47
3488 2821 5.93
2821 3488 5.93
2821 2820 4.44
2820 2821 4.44
2820 3474 3.97
3474 2820 3.97
3474 3473 4.56
3473 3474 4.56
3473 3472 4.84
3472 3473 4.84
3472 3466 3.81
3466 3472 3.81
3466 3463 4.65
3463 3466 4.65
3463 2815 4.70
2815 3463 4.70
2815 2813 3.47
2813 2815 3.47
2813 3454 4.26
3454 2813 4.26
3454 2810 4.72
2810 3454 4.72
2810 2809 4.62
2809 2810 4.62
2809 2808 6.26
2808 2809 6.26
2808 3443 36.57
3443 2808 36.57
3443 2807 6.23
2807 3443 6.23
2807 2805 5.44
2805 2807 5.44
2805 2804 5.52
2804 2805 5.52
2804 2802 4.66
2802 2804 4.66
2802 3423 4.74
3423 2802 4.74
3423 3421 3.90
3421 3423 3.90
3421 3419 3.96
3419 3421 3.96
3419 3416 4.63
3416 3419 4.63
3416 3414 4.10
3414 3416 4.10
3414 2795 4.73
2795 3414 4.73
2795 2796 4.55
2796 2795 4.55
2796 3407 3.87
3407 2796 3.87
3407 3408 4.36
3408 3407 4.36
3408 3405 6.06
3405 3408 6.06
3405 2794 6.79
2794 3405 6.79
4840 3961 5.63
3961 4840 5.63
3961 4839 6.27
4839 3961 6.27
4839 3962 6.97
3962 4839 6.97
3962 3963 6.45
3963 3962 6.45
3963 3964 6.53
3964 3963 6.53
3964 3965 6.50
3965 3964 6.50
3965 3966 4.96
3966 3965 4.96
3966 3967 5.83
3967 3966 5.83
3967 3968 6.45
3968 3967 6.45
3968 3969 5.07
3969 3968 5.07
3969 4838 6.02
4838 3969 6.02
3089 669 5.22
669 3089 5.22
669 4203 5.41
4203 669 5.41
4203 4202 4.40
4202 4203 4.40
4202 4201 3.95
4201 4202 3.95
4201 4200 2.86
4200 4201 2.86
4200 4199 3.23
4199 4200 3.23
4199 4198 4.34
4198 4199 4.34
4198 4196 4.54
4196 4198 4.54
4196 4195 3.32
4195 4196 3.32
4195 4193 3.05
4193 4195 3.05
4193 1496 59.69
1496 4193 59.69
1496 3545 20.33
3545 1496 20.33
1763 4460 6.90
4460 1763 6.90
4460 4461 5.32
4461 4460 5.32
4461 4462 5.42
4462 4461 5.42
4462 4463 5.22
4463 4462 5.22
4463 4464 7.21
4464 4463 7.21
4464 4465 2.96
4465 4464 2.96
4465 4466 4.11
4466 4465 4.11
4466 93 7.10
93 4466 7.10
1731 5026 8.58
5026 1731 8.58
5026 1748 7.40
1748 5026 7.40
1748 1749 8.94
1749 1748 8.94
1749 1750 9.22
1750 1749 9.22
1750 5027 9.06
5027 1750 9.06
5027 4167 9.58
4167 5027 9.58
4167 4168 9.10
4168 4167 9.10
4168 5028 10.16
5028 4168 10.16
5028 4169 13.19
4169 5028 13.19
4169 4170 11.35
4170 4169 11.35
4170 3267 15.37
3267 4170 15.37
3267 5029 4.51
5029 3267 4.51
5029 1521 4.84
1521 5029 4.84
1521 1039 6.86
1039 1521 6.86
1039 5030 5.49
5030 1039 5.49
5030 1522 6.11
1522 5030 6.11
1522 5031 6.11
5031 1522 6.11
5031 1044 6.59
1044 5031 6.59
1044 1058 5.83
1058 1044 5.83
1058 5032 7.37
5032 1058 7.37
5032 1059 7.47
1059 5032 7.47
1059 5033 6.30
5033 1059 6.30
5033 3285 5.78
3285 5033 5.78
3285 5034 6.27
5034 3285 6.27
5034 5035 6.14
5035 5034 6.14
5035 1523 6.04
1523 5035 6.04
1523 1524 23.29
1524 1523 23.29
3081 2245 10.63
2245 3081 10.63
2245 3087 7.36
3087 2245 7.36
3087 3088 7.61
3088 3087 7.61
3088 3082 6.09
3082 3088 6.09
3082 3083 5.98
3083 3082 5.98
3083 3084 7.47
3084 3083 7.47
3084 3079 7.62
3079 3084 7.62
3079 3076 7.00
3076 3079 7.00
3076 3074 6.96
3074 3076 6.96
3074 3072 5.52
3072 3074 5.52
3072 3720 4.39
3720 3072 4.39
3720 3070 5.77
3070 3720 5.77
3070 3067 6.54
3067 3070 6.54
3067 3063 5.76
3063 3067 5.76
3063 3064 6.08
3064 3063 6.08
3064 3065 5.74
3065 3064 5.74
3065 3068 6.24
3068 3065 6.24
3068 3071 8.98
3071 3068 8.98
2776 4414 87.80
4414 2776 87.80
4414 4420 37.52
4420 4414 37.52
4420 4422 9.49
4422 4420 9.49
4422 4423 6.96
4423 4422 6.96
4423 4426 8.47
4426 4423 8.47
4426 4427 8.27
4427 4426 8.27
4427 4429 7.85
4429 4427 7.85
4429 4428 11.83
4428 4429 11.83
4428 4430 4.44
4430 4428 4.44
4430 4431 3.43
4431 4430 3.43
4431 4432 3.58
4432 4431 3.58
4432 4433 3.41
4433 4432 3.41
4433 4434 4.01
4434 4433 4.01
4434 4435 4.13
4435 4434 4.13
4435 4436 4.01
4436 4435 4.01
4436 4438 3.07
4438 4436 3.07
4438 4439 3.70
4439 4438 3.70
4439 4440 3.67
4440 4439 3.67
4440 4441 3.73
4441 4440 3.73
4441 4442 3.79
4442 4441 3.79
4442 4443 3.46
4443 4442 3.46
4443 4444 3.84
4444 4443 3.84
4444 4445 3.89
4445 4444 3.89
4445 4446 3.38
4446 4445 3.38
4446 4447 4.33
4447 4446 4.33
4447 1909 5.07
1909 4447 5.07
4472 4471 19.66
4471 4472 19.66
4471 4470 5.27
4470 4471 5.27
4470 1190 8.59
1190 4470 8.59
1190 1191 3.88
1191 1190 3.88
1191 1192 4.55
1192 1191 4.55
1192 1193 4.65
1193 1192 4.65
1193 1195 4.83
1195 1193 4.83
1195 1196 4.45
1196 1195 4.45
1196 1197 4.73
1197 1196 4.73
1197 1305 4.09
1305 1197 4.09
1305 1370 4.66
1370 1305 4.66
1370 1442 5.09
1442 1370 5.09
1442 1515 4.97
1515 1442 4.97
1515 1210 5.88
1210 1515 5.88
1210 4468 6.85
4468 1210 6.85
3481 3018 44.62
3018 3481 44.62
3018 3027 89.57
3027 3018 89.57
3027 3026 4.08
3026 3027 4.08
3026 3025 3.05
3025 3026 3.05
3025 3352 53.98
3352 3025 53.98
4809 4808 5.67
4808 4809 5.67
4808 3944 4.93
3944 4808 4.93
3944 3945 5.89
3945 3944 5.89
3945 3946 6.39
3946 3945 6.39
3946 3947 6.82
3947 3946 6.82
3947 3948 6.09
3948 3947 6.09
3948 4807 6.23
4807 3948 6.23
4807 3949 6.70
3949 4807 6.70
3949 3950 6.37
3950 3949 6.37
3950 4806 6.01
4806 3950 6.01
4806 3951 5.84
3951 4806 5.84
3951 3213 163.27
3213 3951 163.27
3213 3556 30.52
3556 3213 30.52
3556 1798 18.77
1798 3556 18.77
1798 3536 56.93
3536 1798 56.93
3536 3524 8.83
3524 3536 8.83
3524 1799 23.24
1799 3524 23.24
1799 1276 39.43
1276 1799 39.43
1276 3495 41.77
3495 1276 41.77
3495 4673 7.78
4673 3495 7.78
4673 4674 7.63
4674 4673 7.63
4674 4676 6.40
4676 4674 6.40
4676 4677 6.12
4677 4676 6.12
4677 3494 5.22
3494 4677 5.22
3494 4678 5.90
4678 3494 5.90
4678 4679 9.09
4679 4678 9.09
1643 3305 34.78
3305 1643 34.78
3305 3301 4.61
3301 3305 4.61
3301 3300 6.16
3300 3301 6.16
3300 3297 3.78
3297 3300 3.78
3297 3295 4.15
3295 3297 4.15
3295 3293 4.56
3293 3295 4.56
3293 5107 4.76
5107 3293 4.76
5107 1858 5.63
1858 5107 5.63
1655 3952 79.00
3952 1655 79.00
3952 3953 6.75
3953 3952 6.75
3953 4851 5.39
4851 3953 5.39
4851 3954 5.68
3954 4851 5.68
3954 3955 5.21
3955 3954 5.21
3955 4850 5.77
4850 3955 5.77
4850 3956 6.00
3956 4850 6.00
3956 3957 6.12
3957 3956 6.12
3957 4849 5.67
4849 3957 5.67
4849 3958 6.27
3958 4849 6.27
3958 3959 6.52
3959 3958 6.52
3959 3960 6.75
3960 3959 6.75
1189 4909 77.96
4909 1189 77.96
4909 4911 5.52
4911 4909 5.52
4911 4910 3.24
4910 4911 3.24
4910 1306 4.23
1306 4910 4.23
1306 4908 4.18
4908 1306 4.18
4908 4907 4.81
4907 4908 4.81
4907 4900 5.32
4900 4907 5.32
4900 4906 5.92
4906 4900 5.92
4906 4905 5.63
4905 4906 5.63
4905 4901 5.63
4901 4905 5.63
4901 4904 5.01
4904 4901 5.01
4904 4903 5.59
4903 4904 5.59
4903 4902 5.32
4902 4903 5.32
4902 4253 4.53
4253 4902 4.53
711 5086 10.21
5086 711 10.21
5086 712 5.89
712 5086 5.89
712 738 11.73
738 712 11.73
738 921 6.22
921 738 6.22
921 922 7.19
922 921 7.19
922 5075 5.93
5075 922 5.93
5075 1847 5.08
1847 5075 5.08
2789 3275 31.59
3275 2789 31.59
3275 3270 33.17
3270 3275 33.17
3270 3260 11.75
3260 3270 11.75
3260 3258 4.79
3258 3260 4.79
3258 721 2.43
721 3258 2.43
721 1551 11.94
1551 721 11.94
1551 4487 8.26
4487 1551 8.26
4487 3248 9.32
3248 4487 9.32
3248 1552 4.42
1552 3248 4.42
1552 3246 5.05
3246 1552 5.05
3246 3245 6.00
3245 3246 6.00
3245 1553 4.71
1553 3245 4.71
1553 3242 4.96
3242 1553 4.96
3242 1554 6.65
1554 3242 6.65
1797 4979 27.29
4979 1797 27.29
4979 4971 5.79
4971 4979 5.79
4971 1900 16.72
1900 4971 16.72
1900 4390 10.38
4390 1900 10.38
4390 4950 8.93
4950 4390 8.93
4950 1901 5.42
1901 4950 5.42
1901 1902 5.35
1902 1901 5.35
1902 1903 6.16
1903 1902 6.16
1903 1904 6.32
1904 1903 6.32
1904 1905 6.34
1905 1904 6.34
1905 4951 5.86
4951 1905 5.86
4951 1906 5.44
1906 4951 5.44
1906 1907 5.13
1907 1906 5.13
1907 1908 6.25
1908 1907 6.25
1667 2966 7.32
2966 1667 7.32
2966 4599 8.58
4599 2966 8.58
4599 4600 7.74
4600 4599 7.74
4600 2958 6.62
2958 4600 6.62
2958 2956 4.93
2956 2958 4.93
2956 4601 5.75
4601 2956 5.75
4601 4602 13.42
4602 4601 13.42
4602 4603 15.97
4603 4602 15.97
4603 4604 13.69
4604 4603 13.69
4604 2928 15.58
2928 4604 15.58
2928 4605 17.06
4605 2928 17.06
4605 2916 17.91
2916 4605 17.91
2916 4606 17.21
4606 2916 17.21
4606 4607 16.10
4607 4606 16.10
4607 2485 20.38
2485 4607 20.38
2485 4608 23.36
4608 2485 23.36
4608 2484 23.07
2484 4608 23.07
2484 4609 27.71
4609 2484 27.71
4609 2483 46.15
2483 4609 46.15
2483 4610 41.63
4610 2483 41.63
1780 3020 10.52
3020 1780 10.52
3020 2635 77.58
2635 3020 77.58
2635 2360 37.81
2360 2635 37.81
2360 2952 57.91
2952 2360 57.91
2952 2947 9.54
2947 2952 9.54
2947 1592 8.39
1592 2947 8.39
1592 2939 7.03
2939 1592 7.03
2939 2938 7.94
2938 2939 7.94
2938 2933 9.10
2933 2938 9.10
2933 1593 10.92
1593 2933 10.92
1593 2930 17.31
2930 1593 17.31
2930 1594 16.30
1594 2930 16.30
1594 2924 15.97
2924 1594 15.97
2924 1595 19.66
1595 2924 19.66
1595 2604 20.90
2604 1595 20.90
2604 2605 26.37
2605 2604 26.37
2605 2765 43.38
2765 2605 43.38
2765 2606 75.58
2606 2765 75.58
2084 2085 5.91
2085 2084 5.91
2085 2991 5.38
2991 2085 5.38
2991 2086 5.88
2086 2991 5.88
2086 2574 20.67
2574 2086 20.67
2574 2607 106.04
2607 2574 106.04
2607 1483 39.61
1483 2607 39.61
1483 2617 38.50
2617 1483 38.50
2617 1673 15.21
1673 2617 15.21
1673 2634 16.61
2634 1673 16.61
2634 2648 180.77
2648 2634 180.77
2648 3033 70.88
3033 2648 70.88
3033 2652 6.05
2652 3033 6.05
2652 1780 11.22
1780 2652 11.22
1780 2651 10.49
2651 1780 10.49
2651 4273 97.40
4273 2651 97.40
4273 1492 32.97
1492 4273 32.97
1492 4272 24.37
4272 1492 24.37
4272 2306 45.27
2306 4272 45.27
2306 2286 75.06
2286 2306 75.06
2286 3610 20.05
3610 2286 20.05
328 3737 7.83
3737 328 7.83
3737 329 6.65
329 3737 6.65
329 330 6.74
330 329 6.74
330 1729 24.79
1729 330 24.79
1729 1011 26.34
1011 1729 26.34
1011 3738 4.81
3738 1011 4.81
3738 3739 7.39
3739 3738 7.39
3739 331 18.19
331 3739 18.19
331 3608 74.42
3608 331 74.42
3608 2101 25.46
2101 3608 25.46
2101 1721 31.71
1721 2101 31.71
1721 3579 27.85
3579 1721 27.85
3579 3561 28.47
3561 3579 28.47
3561 3560 8.91
3560 3561 8.91
3560 1722 31.27
1722 3560 31.27
1722 3559 6.74
3559 1722 6.74
3559 3558 7.74
3558 3559 7.74
3558 1696 8.22
1696 3558 8.22
1696 3557 7.58
3557 1696 7.58
3557 1697 10.60
1697 3557 10.60
1697 1505 98.18
1505 1697 98.18
1505 3731 98.62
3731 1505 98.62
3731 2880 6.22
2880 3731 6.22
4611 4612 89.83
4612 4611 89.83
4612 2391 27.40
2391 4612 27.40
2391 4613 20.10
4613 2391 20.10
4613 2911 16.63
2911 4613 16.63
2911 2912 16.83
2912 2911 16.83
2912 4614 16.08
4614 2912 16.08
4614 2913 16.18
2913 4614 16.18
2913 4615 16.07
4615 2913 16.07
4615 4578 15.63
4578 4615 15.63
4578 4616 12.28
4616 4578 12.28
4616 2914 12.70
2914 4616 12.70
2914 4617 12.29
4617 2914 12.29
4617 4618 11.53
4618 4617 11.53
4618 4579 8.85
4579 4618 8.85
4579 4562 11.48
4562 4579 11.48
4562 2935 7.77
2935 4562 7.77
2935 4561 8.45
4561 2935 8.45
4561 2946 7.04
2946 4561 7.04
2946 4560 8.28
4560 2946 8.28
4560 1662 9.83
1662 4560 9.83
616 4651 6.44
4651 616 6.44
4651 4653 6.32
4653 4651 6.32
4653 4654 6.31
4654 4653 6.31
4654 4655 6.10
4655 4654 6.10
4655 4657 6.02
4657 4655 6.02
4657 4658 6.08
4658 4657 6.08
4658 4660 6.47
4660 4658 6.47
4660 4662 6.35
4662 4660 6.35
4662 4664 5.74
4664 4662 5.74
4664 4665 6.37
4665 4664 6.37
4665 4666 6.70
4666 4665 6.70
4666 4667 6.94
4667 4666 6.94
4667 4669 8.26
4669 4667 8.26
4669 4670 9.58
4670 4669 9.58
4670 1710 16.62
1710 4670 16.62
4668 1866 15.73
1866 4668 15.73
1866 5060 60.74
5060 1866 60.74
5060 5062 5.71
5062 5060 5.71
5062 5061 4.03
5061 5062 4.03
5061 638 3.84
638 5061 3.84
638 5059 6.76
5059 638 6.76
5059 5058 5.32
5058 5059 5.32
5058 5052 6.37
5052 5058 6.37
5052 5057 6.65
5057 5052 6.65
5057 5053 6.93
5053 5057 6.93
5053 5056 6.51
5056 5053 6.51
5056 5055 5.59
5055 5056 5.59
5055 5054 4.52
5054 5055 4.52
5054 1844 5.16
1844 5054 5.16
4620 4621 6.82
4621 4620 6.82
4621 4622 6.84
4622 4621 6.84
4622 4623 6.84
4623 4622 6.84
4623 4625 6.82
4625 4623 6.82
4625 4626 6.84
4626 4625 6.84
4626 4628 6.82
4628 4626 6.82
4628 4629 6.83
4629 4628 6.83
4629 4631 6.83
4631 4629 6.83
4631 4632 6.83
4632 4631 6.83
4632 4634 6.83
4634 4632 6.83
4634 4635 6.83
4635 4634 6.83
4635 4637 6.83
4637 4635 6.83
4637 4638 6.83
4638 4637 6.83
4638 4640 6.84
4640 4638 6.84
4640 4641 6.83
4641 4640 6.83
4641 4642 6.84
4642 4641 6.84
4642 4644 6.83
4644 4642 6.83
4644 4645 6.83
4645 4644 6.83
4645 4646 6.83
4646 4645 6.83
4646 4649 6.83
4649 4646 6.83
1680 732 6.39
732 1680 6.39
732 731 5.44
731 732 5.44
731 1681 4.22
1681 731 4.22
1681 730 4.38
730 1681 4.38
730 1682 4.17
1682 730 4.17
1682 729 4.03
729 1682 4.03
729 1678 5.91
1678 729 5.91
1678 1675 4.50
1675 1678 4.50
1675 676 6.44
676 1675 6.44
676 1676 6.24
1676 676 6.24
1676 677 4.97
677 1676 4.97
677 678 4.06
678 677 4.06
678 711 3.46
711 678 3.46
711 1814 3.38
1814 711 3.38
1814 1690 3.39
1690 1814 3.39
1690 737 4.57
737 1690 4.57
737 1689 4.51
1689 737 4.51
1689 736 4.36
736 1689 4.36
736 1691 5.03
1691 736 5.03
1691 1688 4.66
1688 1691 4.66
1688 735 4.95
735 1688 4.95
735 1693 4.68
1693 735 4.68
1693 734 4.83
734 1693 4.83
734 1692 4.51
1692 734 4.51
1692 1694 4.71
1694 1692 4.71
1694 733 3.93
733 1694 3.93
733 1687 5.09
1687 733 5.09
4263 4275 6.01
4275 4263 6.01
4275 4265 5.08
4265 4275 5.08
4265 4276 4.71
4276 4265 4.71
4276 4266 4.56
4266 4276 4.56
4266 4267 5.11
4267 4266 5.11
4267 4264 5.59
4264 4267 5.59
4264 4269 6.82
4269 4264 6.82
4269 4268 5.68
4268 4269 5.68
4268 4277 5.04
4277 4268 5.04
4277 4270 5.79
4270 4277 5.79
4270 4271 5.87
4271 4270 5.87
4271 4254 5.54
4254 4271 5.54
358 1659 71.24
1659 358 71.24
1659 1340 83.24
1340 1659 83.24
1340 357 260.36
357 1340 260.36
359 1493 76.09
1493 359 76.09
1493 741 178.01
741 1493 178.01
741 1185 24.57
1185 741 24.57
1185 4477 11.02
4477 1185 11.02
4478 1494 17.66
1494 4478 17.66
1494 360 63.56
360 1494 63.56
1868 4865 4.64
4865 1868 4.64
4865 1893 5.59
1893 4865 5.59
1893 4866 6.10
4866 1893 6.10
4866 1894 6.17
1894 4866 6.17
1894 1896 6.24
1896 1894 6.24
1896 1898 6.97
1898 1896 6.97
1898 942 7.50
942 1898 7.50
942 946 8.09
946 942 8.09
946 952 6.98
952 946 6.98
952 953 8.32
953 952 8.32
1674 5043 6.51
5043 1674 6.51
5043 761 4.48
761 5043 4.48
761 5042 5.56
5042 761 5.56
5042 760 5.05
760 5042 5.05
760 759 6.52
759 760 6.52
759 758 5.95
758 759 5.95
758 5041 5.23
5041 758 5.23
5041 757 6.00
757 5041 6.00
757 756 5.96
756 757 5.96
756 5040 6.43
5040 756 6.43
5040 755 6.32
755 5040 6.32
755 754 6.31
754 755 6.31
4486 4215 18.51
4215 4486 18.51
4215 4217 54.20
4217 4215 54.20
4217 4476 9.29
4476 4217 9.29
784 783 6.85
783 784 6.85
783 782 5.40
782 783 5.40
782 781 5.46
781 782 5.46
781 780 6.00
780 781 6.00
780 779 5.66
779 780 5.66
779 778 7.19
778 779 7.19
778 777 6.26
777 778 6.26
777 776 6.44
776 777 6.44
776 775 5.36
775 776 5.36
775 4216 5.62
4216 775 5.62
4216 4486 5.83
4486 4216 5.83
792 4841 6.17
4841 792 6.17
4841 791 5.29
791 4841 5.29
791 790 5.54
790 791 5.54
790 4842 5.53
4842 790 5.53
4842 789 5.15
789 4842 5.15
789 788 5.44
788 789 5.44
788 4843 5.78
4843 788 5.78
4843 787 5.07
787 4843 5.07
787 786 5.14
786 787 5.14
786 4844 4.81
4844 786 4.81
4844 785 4.12
785 4844 4.12
785 793 6.69
793 785 6.69
1870 802 4.92
802 1870 4.92
802 801 5.71
801 802 5.71
801 800 5.60
800 801 5.60
800 799 6.62
799 800 6.62
799 798 5.80
798 799 5.80
798 797 6.67
797 798 6.67
797 796 6.69
796 797 6.69
796 795 6.16
795 796 6.16
795 4845 5.57
4845 795 5.57
4845 794 5.23
794 4845 5.23
794 793 5.96
793 794 5.96
4831 811 5.49
811 4831 5.49
811 810 5.20
810 811 5.20
810 809 6.63
809 810 6.63
809 808 6.63
808 809 6.63
808 807 6.64
807 808 6.64
807 806 6.63
806 807 6.63
806 805 6.64
805 806 6.64
805 804 6.63
804 805 6.63
804 803 5.33
803 804 5.33
803 570 7.12
570 803 7.12
820 819 6.28
819 820 6.28
819 4847 4.69
4847 819 4.69
4847 818 5.46
818 4847 5.46
818 817 6.26
817 818 6.26
817 816 6.04
816 817 6.04
816 815 5.87
815 816 5.87
815 814 5.91
814 815 5.91
814 813 5.25
813 814 5.25
813 4846 4.93
4846 813 4.93
4846 812 5.25
812 4846 5.25
812 792 6.76
792 812 6.76
4831 842 5.07
842 4831 5.07
842 841 5.61
841 842 5.61
841 840 4.94
840 841 4.94
840 839 4.41
839 840 4.41
839 838 5.27
838 839 5.27
838 837 6.52
837 838 6.52
837 836 6.13
836 837 6.13
836 835 6.00
835 836 6.00
835 834 5.16
834 835 5.16
834 833 4.55
833 834 4.55
833 832 5.54
832 833 5.54
832 3936 6.14
3936 832 6.14
858 857 7.36
857 858 7.36
857 856 5.94
856 857 5.94
856 855 5.39
855 856 5.39
855 4852 6.08
4852 855 6.08
4852 831 5.48
831 4852 5.48
831 854 6.81
854 831 6.81
854 853 6.36
853 854 6.36
853 852 6.56
852 853 6.56
852 4853 6.47
4853 852 6.47
4853 49 8.22
49 4853 8.22
1870 870 6.52
870 1870 6.52
870 869 4.81
869 870 4.81
869 868 5.49
868 869 5.49
868 867 5.63
867 868 5.63
867 866 4.88
866 867 4.88
866 865 5.30
865 866 5.30
865 864 5.29
864 865 5.29
864 863 5.15
863 864 5.15
863 862 4.40
862 863 4.40
862 861 4.35
861 862 4.35
861 860 4.53
860 861 4.53
860 859 4.58
859 860 4.58
859 843 6.17
843 859 6.17
4487 4488 6.49
4488 4487 6.49
4488 4489 5.52
4489 4488 5.52
4489 3444 4.44
3444 4489 4.44
368 369 10.75
369 368 10.75
369 370 6.72
370 369 6.72
370 371 8.09
371 370 8.09
371 372 10.31
372 371 10.31
372 373 7.81
373 372 7.81
373 374 6.90
374 373 6.90
2335 2336 4.04
2336 2335 4.04
2336 2338 5.88
2338 2336 5.88
2338 2339 5.36
2339 2338 5.36
2339 2341 5.31
2341 2339 5.31
2341 2342 5.91
2342 2341 5.91
2342 2343 6.29
2343 2342 6.29
2343 2824 6.84
2824 2343 6.84
2824 2060 4.68
2060 2824 4.68
2060 2345 14.09
2345 2060 14.09
993 882 4.87
882 993 4.87
882 881 6.06
881 882 6.06
881 880 5.03
880 881 5.03
880 879 5.14
879 880 5.14
879 878 6.06
878 879 6.06
878 877 5.44
877 878 5.44
877 876 4.32
876 877 4.32
876 875 5.54
875 876 5.54
875 874 4.66
874 875 4.66
874 873 4.39
873 874 4.39
873 872 6.19
872 873 6.19
941 954 6.36
954 941 6.36
954 955 5.14
955 954 5.14
955 956 6.26
956 955 6.26
956 957 5.83
957 956 5.83
957 959 4.86
959 957 4.86
959 1504 13.85
1504 959 13.85
1504 4100 11.73
4100 1504 11.73
4100 4685 5.67
4685 4100 5.67
4685 4101 5.45
4101 4685 5.45
4101 4102 6.15
4102 4101 6.15
4102 4686 7.32
4686 4102 7.32
4686 4687 21.32
4687 4686 21.32
640 667 5.00
667 640 5.00
667 641 2.94
641 667 2.94
641 666 3.19
666 641 3.19
666 665 3.65
665 666 3.65
665 664 3.88
664 665 3.88
664 663 3.52
663 664 3.52
663 662 3.92
662 663 3.92
662 661 4.06
661 662 4.06
661 642 3.33
642 661 3.33
642 660 4.34
660 642 4.34
660 659 2.68
659 660 2.68
659 643 4.26
643 659 4.26
643 658 3.94
658 643 3.94
658 657 4.24
657 658 4.24
657 656 4.56
656 657 4.56
656 655 4.34
655 656 4.34
655 654 4.41
654 655 4.41
654 653 4.40
653 654 4.40
653 652 3.57
652 653 3.57
652 651 3.63
651 652 3.63
651 644 4.16
644 651 4.16
644 650 4.15
650 644 4.15
650 649 5.16
649 650 5.16
649 648 5.89
648 649 5.89
648 647 5.53
647 648 5.53
647 646 5.65
646 647 5.65
646 645 5.49
645 646 5.49
1741 4995 6.72
4995 1741 6.72
4995 4372 36.99
4372 4995 36.99
4949 4948 7.52
4948 4949 7.52
4948 4947 6.29
4947 4948 6.29
4947 4946 5.91
4946 4947 5.91
4946 4945 6.18
4945 4946 6.18
4945 4944 6.48
4944 4945 6.48
4944 4943 6.36
4943 4944 6.36
4943 4942 6.13
4942 4943 6.13
4942 4941 5.67
4941 4942 5.67
4941 4940 5.54
4940 4941 5.54
4940 4939 4.49
4939 4940 4.49
4939 4938 4.34
4938 4939 4.34
4938 4952 5.99
4952 4938 5.99
4952 4390 5.55
4390 4952 5.55
4390 4953 12.61
4953 4390 12.61
4953 739 24.39
739 4953 24.39
3264 3256 6.97
3256 3264 6.97
3256 3254 6.96
3254 3256 6.96
3254 3253 6.97
3253 3254 6.97
3253 3251 6.97
3251 3253 6.97
3251 3250 6.96
3250 3251 6.96
3250 3247 6.96
3247 3250 6.96
3247 3244 6.96
3244 3247 6.96
3244 3241 6.96
3241 3244 6.96
3241 3240 6.97
3240 3241 6.97
3240 4357 45.75
4357 3240 45.75
3352 1496 21.97
1496 3352 21.97
1496 3851 21.90
3851 1496 21.90
3851 1495 19.74
1495 3851 19.74
1495 4171 3.41
4171 1495 3.41
4171 58 16.90
58 4171 16.90
58 3852 9.23
3852 58 9.23
3081 1180 38.61
1180 3081 38.61
1180 1500 55.03
1500 1180 55.03
1500 3633 22.76
3633 1500 22.76
3633 3634 10.21
3634 3633 10.21
3634 3630 5.51
3630 3634 5.51
3630 3024 4.70
3024 3630 4.70
3024 3021 5.41
3021 3024 5.41
3021 3481 7.26
3481 3021 7.26
3039 680 6.18
680 3039 6.18
680 60 5.03
60 680 5.03
60 681 5.25
681 60 5.25
681 59 5.52
59 681 5.52
59 682 4.64
682 59 4.64
682 58 6.72
58 682 6.72
3683 3686 8.28
3686 3683 8.28
3686 3691 3.55
3691 3686 3.55
3691 3694 3.28
3694 3691 3.28
3694 3056 3.62
3056 3694 3.62
3056 3057 2.73
3057 3056 2.73
3057 3697 3.28
3697 3057 3.28
3697 3610 8.00
3610 3697 8.00
3610 3058 9.25
3058 3610 9.25
3058 3700 3.11
3700 3058 3.11
3700 1487 2.41
1487 3700 2.41
1487 3060 2.68
3060 1487 2.68
3060 3702 2.98
3702 3060 2.98
3702 3061 2.47
3061 3702 2.47
3061 3704 3.48
3704 3061 3.48
3704 3062 5.77
3062 3704 5.77
3062 3706 5.87
3706 3062 5.87
3706 3720 3.85
3720 3706 3.85
3720 3721 7.69
3721 3720 7.69
3721 3080 3.06
3080 3721 3.06
3080 3723 3.80
3723 3080 3.80
3723 4619 3.54
4619 3723 3.54
4619 4076 3.99
4076 4619 3.99
4076 3730 3.84
3730 4076 3.84
3730 2284 1.87
2284 3730 1.87
2284 4077 2.59
4077 2284 2.59
4077 3733 3.62
3733 4077 3.62
3733 4078 3.80
4078 3733 3.80
4078 3736 3.63
3736 4078 3.63
3736 4079 4.51
4079 3736 4.51
4079 3746 4.27
3746 4079 4.27
3746 4080 4.13
4080 3746 4.13
4080 3747 3.76
3747 4080 3.76
3747 3740 6.73
3740 3747 6.73
3740 4010 10.80
4010 3740 10.80
4010 3741 9.61
3741 4010 9.61
3741 3742 5.23
3742 3741 5.23
3742 3745 6.40
3745 3742 6.40
3745 3748 5.87
3748 3745 5.87
3748 1685 107.06
1685 3748 107.06
1685 1617 13.52
1617 1685 13.52
1617 4690 24.28
4690 1617 24.28
4690 1488 31.49
1488 4690 31.49
1488 2228 11.28
2228 1488 11.28
2228 3648 49.47
3648 2228 49.47
3648 1489 65.05
1489 3648 65.05
1489 3092 158.95
3092 1489 158.95
3092 2665 33.97
2665 3092 33.97
2665 1490 16.68
1490 2665 16.68
1490 2656 16.61
2656 1490 16.61
2656 2684 68.39
2684 2656 68.39
2684 1484 40.77
1484 2684 40.77
1484 2675 38.03
2675 1484 38.03
2675 2695 4.10
2695 2675 4.10
2695 2584 104.33
2584 2695 104.33
2584 2031 15.17
2031 2584 15.17
2031 2032 9.89
2032 2031 9.89
2032 2033 8.47
2033 2032 8.47
2033 1481 8.27
1481 2033 8.27
1481 1613 1.07
1613 1481 1.07
1613 2022 9.19
2022 1613 9.19
2022 2550 10.12
2550 2022 10.12
2550 2028 11.64
2028 2550 11.64
2028 2029 21.62
2029 2028 21.62
2029 1657 108.01
1657 2029 108.01
1657 2551 10.53
2551 1657 10.53
2551 2030 9.48
2030 2551 9.48
2030 2034 9.89
2034 2030 9.89
2034 2035 9.17
2035 2034 9.17
2035 4590 57.72
4590 2035 57.72
4590 1519 82.71
1519 4590 82.71
1519 3051 2.85
3051 1519 2.85
3051 2036 9.23
2036 3051 9.23
2036 3839 68.97
3839 2036 68.97
3839 3840 27.46
3840 3839 27.46
3840 3841 8.35
3841 3840 8.35
3841 1520 31.06
1520 3841 31.06
1520 2482 55.17
2482 1520 55.17
2482 3842 24.20
3842 2482 24.20
3842 1665 59.85
1665 3842 59.85
1665 4549 315.86
4549 1665 315.86
4549 1661 45.50
1661 4549 45.50
1661 2436 37.84
2436 1661 37.84
2436 4344 186.47
4344 2436 186.47
4344 1663 42.03
1663 4344 42.03
1663 4325 42.18
4325 1663 42.18
4325 2721 10.08
2721 4325 10.08
2721 1390 214.29
1390 2721 214.29
1390 57 47.87
57 1390 47.87
57 1683 5.19
1683 57 5.19
1683 5329 74.44
5329 1683 74.44
5329 73 42.78
73 5329 42.78
73 4282 38.47
4282 73 38.47
4282 5312 8.76
5312 4282 8.76
5312 1336 757.69
1336 5312 757.69
1336 1658 77.42
1658 1336 77.42
74 62 5.57
62 74 5.57
62 63 7.19
63 62 7.19
63 64 6.80
64 63 6.80
64 65 5.68
65 64 5.68
65 66 6.99
66 65 6.99
66 67 7.11
67 66 7.11
67 68 5.72
68 67 5.72
68 69 6.33
69 68 6.33
69 70 7.51
70 69 7.51
70 71 5.55
71 70 5.55
71 72 6.74
72 71 6.74
72 4292 4.03
4292 72 4.03
4292 4291 2.84
4291 4292 2.84
4291 73 39.48
73 4291 39.48
73 5320 42.42
5320 73 42.42
5320 4346 7.75
4346 5320 7.75
2736 2737 6.55
2737 2736 6.55
2737 1407 3.52
1407 2737 3.52
1407 2738 4.59
2738 1407 4.59
2738 2739 5.75
2739 2738 5.75
2739 1408 5.04
1408 2739 5.04
1408 2740 4.10
2740 1408 4.10
2740 1409 4.70
1409 2740 4.70
1409 2741 5.11
2741 1409 5.11
2741 2742 6.28
2742 2741 6.28
2742 2770 5.40
2770 2742 5.40
2770 2743 4.68
2743 2770 4.68
2743 2744 7.11
2744 2743 7.11
1391 3553 7.01
3553 1391 7.01
3553 2839 6.45
2839 3553 6.45
2839 2842 6.47
2842 2839 6.47
2842 2843 7.51
2843 2842 7.51
2843 2844 6.90
2844 2843 6.90
2844 2845 6.82
2845 2844 6.82
2845 2846 6.73
2846 2845 6.73
2846 2847 6.58
2847 2846 6.58
2847 2848 6.61
2848 2847 6.61
2848 3554 6.81
3554 2848 6.81
3554 2849 7.49
2849 3554 7.49
2849 2850 7.06
2850 2849 7.06
1276 1277 9.95
1277 1276 9.95
1277 1278 4.45
1278 1277 4.45
1278 1279 4.37
1279 1278 4.37
1279 1280 4.15
1280 1279 4.15
1280 1281 3.72
1281 1280 3.72
1281 1282 3.58
1282 1281 3.58
1282 1283 3.67
1283 1282 3.67
1283 1284 3.52
1284 1283 3.52
1284 2872 3.37
2872 1284 3.37
2872 2873 2.29
2873 2872 2.29
2873 1285 2.71
1285 2873 2.71
2173 21 4.40
21 2173 4.40
21 2174 39.98
2174 21 39.98
943 4716 7.26
4716 943 7.26
4716 4717 5.77
4717 4716 5.77
4717 4718 5.44
4718 4717 5.44
4718 4100 6.56
4100 4718 6.56
3648 3750 10.73
3750 3648 10.73
3750 2287 13.04
2287 3750 13.04
2287 3753 10.09
3753 2287 10.09
3753 3755 12.65
3755 3753 12.65
3755 2288 14.33
2288 3755 14.33
2288 3757 15.13
3757 2288 15.13
3757 4166 17.95
4166 3757 17.95
4166 3671 58.15
3671 4166 58.15
2228 2229 5.29
2229 2228 5.29
2229 2230 5.66
2230 2229 5.66
2230 2231 5.10
2231 2230 5.10
2231 2232 5.93
2232 2231 5.93
2234 2235 5.46
2235 2234 5.46
2235 2236 4.79
2236 2235 4.79
2236 2237 4.93
2237 2236 4.93
2237 2238 4.77
2238 2237 4.77
2238 2239 4.37
2239 2238 4.37
2239 2240 5.11
2240 2239 5.11
2240 2241 4.97
2241 2240 4.97
2241 2242 5.07
2242 2241 5.07
2242 2243 5.81
2243 2242 5.81
2250 2251 5.25
2251 2250 5.25
2251 2252 5.09
2252 2251 5.09
2252 2253 5.58
2253 2252 5.58
2253 2254 5.59
2254 2253 5.59
2254 2255 5.73
2255 2254 5.73
2255 2256 5.96
2256 2255 5.96
2256 2257 5.88
2257 2256 5.88
2257 2258 7.49
2258 2257 7.49
2259 2260 5.51
2260 2259 5.51
2260 2261 5.19
2261 2260 5.19
2261 2262 5.54
2262 2261 5.54
2262 2263 5.94
2263 2262 5.94
2263 2264 6.58
2264 2263 6.58
2264 2265 6.48
2265 2264 6.48
2265 2266 5.85
2266 2265 5.85
2266 2267 5.91
2267 2266 5.91
2267 2268 6.47
2268 2267 6.47
2268 2269 4.62
2269 2268 4.62
2269 2780 2.63
2780 2269 2.63
2270 2271 7.92
2271 2270 7.92
2271 2272 6.93
2272 2271 6.93
2272 2273 7.72
2273 2272 7.72
2273 2274 8.76
2274 2273 8.76
2274 2275 8.24
2275 2274 8.24
2275 3634 8.28
3634 2275 8.28
2276 2277 6.65
2277 2276 6.65
2277 2278 6.16
2278 2277 6.16
2278 2279 5.94
2279 2278 5.94
2279 2280 5.23
2280 2279 5.23
2280 2281 6.28
2281 2280 6.28
2281 2282 5.95
2282 2281 5.95
2282 2283 6.03
2283 2282 6.03
2283 3074 14.32
3074 2283 14.32
3074 2285 12.88
2285 3074 12.88
2285 2284 8.92
2284 2285 8.92
2287 2289 5.39
2289 2287 5.39
2289 2290 5.92
2290 2289 5.92
2290 2291 6.96
2291 2290 6.96
2291 2292 5.63
2292 2291 5.63
2292 2293 6.35
2293 2292 6.35
2293 2294 7.35
2294 2293 7.35
2294 2295 5.83
2295 2294 5.83
2295 2296 6.50
2296 2295 6.50
2296 2297 5.92
2297 2296 5.92
2297 2298 6.02
2298 2297 6.02
2298 2299 6.68
2299 2298 6.68
2299 2300 5.73
2300 2299 5.73
2300 2301 6.36
2301 2300 6.36
2301 2302 6.75
2302 2301 6.75
2302 2303 6.63
2303 2302 6.63
2303 2304 6.85
2304 2303 6.85
2304 2305 9.71
2305 2304 9.71
2306 2307 9.62
2307 2306 9.62
2307 2308 11.49
2308 2307 11.49
2308 2309 12.30
2309 2308 12.30
2309 2314 3.60
2314 2309 3.60
2314 2310 4.80
2310 2314 4.80
2310 2311 9.00
2311 2310 9.00
2311 2312 12.37
2312 2311 12.37
2312 2313 14.32
2313 2312 14.32
2313 3075 76.00
3075 2313 76.00
2314 2315 4.99
2315 2314 4.99
2315 2316 4.76
2316 2315 4.76
2316 2317 5.89
2317 2316 5.89
2317 2318 6.01
2318 2317 6.01
2318 2319 5.54
2319 2318 5.54
2319 2320 6.17
2320 2319 6.17
2320 2321 6.70
2321 2320 6.70
2321 2322 6.26
2322 2321 6.26
2322 2323 6.07
2323 2322 6.07
2323 2324 5.34
2324 2323 5.34
2324 2325 6.07
2325 2324 6.07
2325 2326 6.67
2326 2325 6.67
2326 2327 5.25
2327 2326 5.25
2327 2328 5.84
2328 2327 5.84
2328 2329 6.03
2329 2328 6.03
2329 2330 6.20
2330 2329 6.20
2330 2331 6.28
2331 2330 6.28
2331 2332 6.49
2332 2331 6.49
2332 2333 7.69
2333 2332 7.69
3039 3028 7.86
3028 3039 7.86
3028 742 4.50
742 3028 4.50
742 674 4.31
674 742 4.31
674 2368 4.43
2368 674 4.43
2368 2990 5.39
2990 2368 5.39
2990 2982 10.34
2982 2990 10.34
3093 685 4.90
685 3093 4.90
685 686 4.59
686 685 4.59
686 687 4.47
687 686 4.47
687 688 3.97
688 687 3.97
688 689 4.29
689 688 4.29
689 690 4.47
690 689 4.47
690 691 4.62
691 690 4.62
691 692 5.21
692 691 5.21
692 693 4.91
693 692 4.91
693 694 5.04
694 693 5.04
694 695 4.30
695 694 4.30
695 696 4.45
696 695 4.45
696 697 6.91
697 696 6.91
698 699 4.63
699 698 4.63
699 700 4.60
700 699 4.60
700 1499 4.46
1499 700 4.46
1499 701 4.15
701 1499 4.15
701 702 4.33
702 701 4.33
702 703 4.05
703 702 4.05
703 704 4.02
704 703 4.02
704 705 3.78
705 704 3.78
298 4237 4.78
4237 298 4.78
4237 1060 3.76
1060 4237 3.76
1060 1061 4.58
1061 1060 4.58
1061 1062 4.03
1062 1061 4.03
1062 1063 4.49
1063 1062 4.49
1063 1064 4.50
1064 1063 4.50
1064 1065 4.94
1065 1064 4.94
1065 1066 4.25
1066 1065 4.25
1066 1067 4.36
1067 1066 4.36
1067 1068 4.89
1068 1067 4.89
4409 1075 5.23
1075 4409 5.23
1075 1076 5.09
1076 1075 5.09
1076 1077 4.19
1077 1076 4.19
1077 1078 4.18
1078 1077 4.18
1078 1079 4.69
1079 1078 4.69
1079 1080 4.86
1080 1079 4.86
1080 1081 4.41
1081 1080 4.41
1081 1082 4.61
1082 1081 4.61
1082 1083 4.78
1083 1082 4.78
1083 1084 4.82
1084 1083 4.82
1084 1085 4.53
1085 1084 4.53
1085 1086 4.04
1086 1085 4.04
1086 1087 5.44
1087 1086 5.44
1803 1090 4.99
1090 1803 4.99
1090 1091 5.40
1091 1090 5.40
1091 1092 4.70
1092 1091 4.70
1092 1093 5.78
1093 1092 5.78
1093 1094 5.36
1094 1093 5.36
1094 1095 5.51
1095 1094 5.51
1095 1096 5.80
1096 1095 5.80
1096 1097 5.22
1097 1096 5.22
1097 1098 6.25
1098 1097 6.25
1098 1099 5.49
1099 1098 5.49
1099 1100 4.61
1100 1099 4.61
1112 1113 4.45
1113 1112 4.45
1113 1114 3.34
1114 1113 3.34
1114 1115 3.29
1115 1114 3.29
1115 1116 4.28
1116 1115 4.28
1116 1117 3.66
1117 1116 3.66
1117 1118 3.92
1118 1117 3.92
1118 1119 3.64
1119 1118 3.64
1119 1120 4.08
1120 1119 4.08
1120 1121 4.57
1121 1120 4.57
1121 1122 4.96
1122 1121 4.96
1122 1123 4.57
1123 1122 4.57
1123 1124 3.96
1124 1123 3.96
1124 1125 4.09
1125 1124 4.09
1125 1126 3.78
1126 1125 3.78
1126 1127 4.53
1127 1126 4.53
1142 1143 4.62
1143 1142 4.62
1143 1144 3.91
1144 1143 3.91
1144 1145 4.01
1145 1144 4.01
1145 1146 4.05
1146 1145 4.05
1146 1147 4.75
1147 1146 4.75
1147 1148 4.74
1148 1147 4.74
1148 1149 4.83
1149 1148 4.83
1149 1150 5.29
1150 1149 5.29
1150 1151 4.82
1151 1150 4.82
1151 1152 4.89
1152 1151 4.89
1152 1153 4.99
1153 1152 4.99
1153 1154 6.53
1154 1153 6.53
1161 1162 6.70
1162 1161 6.70
1162 1163 6.45
1163 1162 6.45
1163 1164 7.08
1164 1163 7.08
1164 1165 7.02
1165 1164 7.02
1165 1166 6.89
1166 1165 6.89
1166 1167 6.01
1167 1166 6.01
1167 1168 6.09
1168 1167 6.09
1168 1169 5.10
1169 1168 5.10
1169 1170 6.42
1170 1169 6.42
1170 1171 6.35
1171 1170 6.35
1171 1172 6.42
1172 1171 6.42
1172 1173 5.81
1173 1172 5.81
1173 1174 7.13
1174 1173 7.13
1174 1175 6.08
1175 1174 6.08
1175 1176 5.91
1176 1175 5.91
1176 1177 5.86
1177 1176 5.86
1177 1178 6.87
1178 1177 6.87
4471 1208 5.19
1208 4471 5.19
1208 1209 5.00
1209 1208 5.00
1209 1212 4.92
1212 1209 4.92
1212 1213 5.46
1213 1212 5.46
1213 1206 5.39
1206 1213 5.39
1206 1207 6.03
1207 1206 6.03
1207 1214 5.49
1214 1207 5.49
1214 1216 5.78
1216 1214 5.78
1216 1217 6.18
1217 1216 6.18
1217 1211 6.74
1211 1217 6.74
1211 1218 5.67
1218 1211 5.67
1218 4929 5.28
4929 1218 5.28
4929 4930 5.15
4930 4929 5.15
4930 1215 4.16
1215 4930 4.16
1699 4933 3.71
4933 1699 3.71
4933 4934 4.54
4934 4933 4.54
4934 1227 5.02
1227 4934 5.02
1227 1219 5.57
1219 1227 5.57
1219 1220 5.33
1220 1219 5.33
1220 1221 5.10
1221 1220 5.10
1221 1222 5.11
1222 1221 5.11
1222 1223 4.86
1223 1222 4.86
1223 1224 5.99
1224 1223 5.99
1224 1225 6.42
1225 1224 6.42
1225 1226 5.44
1226 1225 5.44
1226 1228 4.40
1228 1226 4.40
1239 1240 3.70
1240 1239 3.70
1240 1241 3.59
1241 1240 3.59
1241 1242 4.30
1242 1241 4.30
1242 1243 4.16
1243 1242 4.16
1243 1244 4.93
1244 1243 4.93
1244 1245 4.80
1245 1244 4.80
1245 1262 1.00
1262 1245 1.00
1262 1246 4.06
1246 1262 4.06
1246 1247 3.87
1247 1246 3.87
1247 1248 3.41
1248 1247 3.41
1248 1249 4.37
1249 1248 4.37
1249 1251 16.80
1251 1249 16.80
1251 1250 5.57
1250 1251 5.57
1249 1252 4.48
1252 1249 4.48
1252 1253 3.89
1253 1252 3.89
1253 1254 4.33
1254 1253 4.33
1254 1255 4.42
1255 1254 4.42
1255 1256 4.95
1256 1255 4.95
1256 1257 5.35
1257 1256 5.35
1257 1258 4.74
1258 1257 4.74
1258 1259 4.03
1259 1258 4.03
1259 1260 3.84
1260 1259 3.84
1260 1261 4.01
1261 1260 4.01
1012 1013 6.58
1013 1012 6.58
1013 1014 5.24
1014 1013 5.24
1014 1015 6.18
1015 1014 6.18
1015 1016 6.84
1016 1015 6.84
1016 1017 6.13
1017 1016 6.13
1017 1018 5.52
1018 1017 5.52
1018 1019 5.57
1019 1018 5.57
1019 1020 5.65
1020 1019 5.65
1020 1021 5.75
1021 1020 5.75
1021 1022 6.64
1022 1021 6.64
1022 1023 6.16
1023 1022 6.16
1023 1024 5.90
1024 1023 5.90
1024 1025 4.82
1025 1024 4.82
1025 1026 6.71
1026 1025 6.71
2154 2882 2.89
2882 2154 2.89
2882 2881 3.25
2881 2882 3.25
2881 2878 3.81
2878 2881 3.81
2878 2155 6.16
2155 2878 6.16
2155 2156 6.91
2156 2155 6.91
2156 2157 6.51
2157 2156 6.51
2157 1029 6.85
1029 2157 6.85
1029 2158 5.82
2158 1029 5.82
2158 1028 5.75
1028 2158 5.75
1028 1027 3.51
1027 1028 3.51
1027 2159 5.81
2159 1027 5.81
2159 2160 4.67
2160 2159 4.67
2160 2161 5.22
2161 2160 5.22
2161 2163 9.59
2163 2161 9.59
4282 4283 7.24
4283 4282 7.24
4283 4284 6.37
4284 4283 6.37
4284 4285 6.20
4285 4284 6.20
4285 4286 6.00
4286 4285 6.00
4286 4287 5.92
4287 4286 5.92
4287 4288 6.30
4288 4287 6.30
4288 4289 6.17
4289 4288 6.17
4289 4290 5.82
4290 4289 5.82
4290 4291 8.68
4291 4290 8.68
4292 4293 6.11
4293 4292 6.11
4293 4294 5.69
4294 4293 5.69
4294 4295 5.51
4295 4294 5.51
4295 4296 5.80
4296 4295 5.80
4296 4297 6.42
4297 4296 6.42
4297 4298 5.72
4298 4297 5.72
4298 4300 5.71
4300 4298 5.71
4300 4301 5.60
4301 4300 5.60
4301 4302 6.05
4302 4301 6.05
4302 4303 5.39
4303 4302 5.39
4303 5329 7.61
5329 4303 7.61
2736 4304 5.17
4304 2736 5.17
4304 4305 5.18
4305 4304 5.18
4305 4314 5.85
4314 4305 5.85
4314 4306 5.51
4306 4314 5.51
4306 4307 5.43
4307 4306 5.43
4307 4308 5.91
4308 4307 5.91
4308 4309 5.28
4309 4308 5.28
4309 4310 5.91
4310 4309 5.91
4310 4311 6.08
4311 4310 6.08
4311 4312 6.76
4312 4311 6.76
1393 4315 8.02
4315 1393 8.02
4315 4316 6.36
4316 4315 6.36
4316 4317 6.26
4317 4316 6.26
4317 4318 6.60
4318 4317 6.60
4318 4319 6.90
4319 4318 6.90
4319 4320 6.83
4320 4319 6.83
4320 444 6.24
444 4320 6.24
444 4321 8.05
4321 444 8.05
4321 4322 5.35
4322 4321 5.35
4322 4323 4.56
4323 4322 4.56
4323 4324 5.89
4324 4323 5.89
4325 4326 6.19
4326 4325 6.19
4326 4327 6.50
4327 4326 6.50
4327 4328 6.31
4328 4327 6.31
4328 4329 6.09
4329 4328 6.09
4329 4330 6.34
4330 4329 6.34
4330 4331 6.29
4331 4330 6.29
4331 4332 6.37
4332 4331 6.37
4332 4333 6.01
4333 4332 6.01
4333 4334 6.06
4334 4333 6.06
4334 4335 5.27
4335 4334 5.27
4335 1393 5.44
1393 4335 5.44
1393 4345 7.68
4345 1393 7.68
4345 4336 6.10
4336 4345 6.10
4336 4337 6.85
4337 4336 6.85
4337 4339 6.67
4339 4337 6.67
4339 4340 7.08
4340 4339 7.08
4340 4341 6.85
4341 4340 6.85
4341 4342 7.58
4342 4341 7.58
4342 4343 6.54
4343 4342 6.54
4343 4347 5.78
4347 4343 5.78
4347 4344 7.23
4344 4347 7.23
4325 2372 7.15
2372 4325 7.15
2372 2373 6.51
2373 2372 6.51
2373 2374 7.11
2374 2373 7.11
2374 2375 6.75
2375 2374 6.75
2375 2376 6.53
2376 2375 6.53
2376 2377 6.67
2377 2376 6.67
2377 2378 6.51
2378 2377 6.51
2378 2379 6.02
2379 2378 6.02
2379 2380 5.72
2380 2379 5.72
2380 61 6.65
61 2380 6.65
4344 2381 5.38
2381 4344 5.38
2381 2382 5.94
2382 2381 5.94
2382 2383 6.05
2383 2382 6.05
2383 2384 5.54
2384 2383 5.54
2384 2385 6.37
2385 2384 6.37
2385 2386 5.87
2386 2385 5.87
2386 2387 6.13
2387 2386 6.13
2387 2388 5.49
2388 2387 5.49
2388 2389 5.35
2389 2388 5.35
2389 2390 6.34
2390 2389 6.34
2390 61 4.90
61 2390 4.90
4562 2394 6.89
2394 4562 6.89
2394 2395 7.23
2395 2394 7.23
2395 2396 6.99
2396 2395 6.99
2396 2397 7.52
2397 2396 7.52
2397 2398 7.71
2398 2397 7.71
2398 2399 7.29
2399 2398 7.29
2399 2400 7.84
2400 2399 7.84
2400 2401 7.48
2401 2400 7.48
2401 2402 8.60
2402 2401 8.60
2402 2403 7.48
2403 2402 7.48
2403 2404 7.59
2404 2403 7.59
2404 2405 7.47
2405 2404 7.47
2406 2407 6.46
2407 2406 6.46
2407 2408 6.71
2408 2407 6.71
2408 2409 5.60
2409 2408 5.60
2409 2410 6.96
2410 2409 6.96
2410 2411 6.63
2411 2410 6.63
2411 2412 7.36
2412 2411 7.36
2412 2413 6.41
2413 2412 6.41
2413 2414 5.79
2414 2413 5.79
2414 2415 5.32
2415 2414 5.32
2415 4557 5.53
4557 2415 5.53
2416 2417 5.67
2417 2416 5.67
2417 2418 5.99
2418 2417 5.99
2418 2419 6.28
2419 2418 6.28
2419 2420 6.88
2420 2419 6.88
2420 2421 6.74
2421 2420 6.74
2421 2422 5.93
2422 2421 5.93
2422 2423 6.69
2423 2422 6.69
2423 2424 6.52
2424 2423 6.52
2424 2425 4.66
2425 2424 4.66
2425 4557 5.39
4557 2425 5.39
2972 2426 5.72
2426 2972 5.72
2426 2427 5.89
2427 2426 5.89
2427 2428 5.19
2428 2427 5.19
2428 2429 5.68
2429 2428 5.68
2429 2430 6.38
2430 2429 6.38
2430 2431 5.42
2431 2430 5.42
2431 2432 6.07
2432 2431 6.07
2432 2433 6.17
2433 2432 6.17
2433 2434 5.09
2434 2433 5.09
2434 2435 6.26
2435 2434 6.26
2435 2436 7.68
2436 2435 7.68
2438 2459 6.56
2459 2438 6.56
2459 2460 6.13
2460 2459 6.13
2460 2461 5.64
2461 2460 5.64
2461 2462 5.94
2462 2461 5.94
2462 2463 5.51
2463 2462 5.51
2463 2464 5.44
2464 2463 5.44
2464 2465 6.31
2465 2464 6.31
2465 2466 5.32
2466 2465 5.32
2466 2467 6.08
2467 2466 6.08
2467 2468 5.45
2468 2467 5.45
2468 2469 4.57
2469 2468 4.57
2469 2470 5.77
2470 2469 5.77
2448 2471 4.49
2471 2448 4.49
2471 2472 5.69
2472 2471 5.69
2472 2473 5.95
2473 2472 5.95
2473 2474 5.49
2474 2473 5.49
2474 2475 5.51
2475 2474 5.51
2475 2476 5.57
2476 2475 5.57
2476 2477 5.64
2477 2476 5.64
2477 2478 5.88
2478 2477 5.88
2478 2479 5.19
2479 2478 5.19
2479 2480 4.97
2480 2479 4.97
2480 2481 5.23
2481 2480 5.23
2481 2482 5.32
2482 2481 5.32
4602 2486 5.62
2486 4602 5.62
2486 2487 5.22
2487 2486 5.22
2487 2488 5.30
2488 2487 5.30
2488 2489 4.64
2489 2488 4.64
2489 2490 5.36
2490 2489 5.36
2490 2491 5.33
2491 2490 5.33
2491 2492 5.85
2492 2491 5.85
2492 2493 6.12
2493 2492 6.12
2493 2494 6.17
2494 2493 6.17
2494 2495 6.44
2495 2494 6.44
2495 2496 5.80
2496 2495 5.80
2496 2497 5.12
2497 2496 5.12
2497 2498 5.72
2498 2497 5.72
2498 2499 6.09
2499 2498 6.09
2499 2500 6.48
2500 2499 6.48
2500 2501 6.80
2501 2500 6.80
2501 2502 9.87
2502 2501 9.87
4602 2503 15.17
2503 4602 15.17
2503 2504 6.31
2504 2503 6.31
2504 2505 7.79
2505 2504 7.79
2505 2506 8.39
2506 2505 8.39
2506 2507 8.94
2507 2506 8.94
2507 2508 8.65
2508 2507 8.65
2508 2509 9.49
2509 2508 9.49
2509 2510 7.71
2510 2509 7.71
2510 2511 7.56
2511 2510 7.56
2511 2512 8.67
2512 2511 8.67
2512 2513 7.76
2513 2512 7.76
2513 2514 7.70
2514 2513 7.70
2515 2516 4.94
2516 2515 4.94
2516 2517 5.57
2517 2516 5.57
2517 2518 5.70
2518 2517 5.70
2518 2519 5.97
2519 2518 5.97
2519 2520 6.05
2520 2519 6.05
2520 2521 6.53
2521 2520 6.53
2521 2522 6.54
2522 2521 6.54
2522 2523 5.96
2523 2522 5.96
2523 2524 5.74
2524 2523 5.74
2524 2525 5.79
2525 2524 5.79
2525 2526 6.49
2526 2525 6.49
2528 2529 6.23
2529 2528 6.23
2529 2530 5.00
2530 2529 5.00
2530 2531 6.37
2531 2530 6.37
2531 2532 5.81
2532 2531 5.81
2532 2533 6.80
2533 2532 6.80
2533 2534 6.04
2534 2533 6.04
2534 2535 6.06
2535 2534 6.06
2535 2536 6.56
2536 2535 6.56
2536 2537 6.44
2537 2536 6.44
2537 2538 5.54
2538 2537 5.54
2538 2526 4.57
2526 2538 4.57
2539 2547 7.13
2547 2539 7.13
2547 2546 5.81
2546 2547 5.81
2546 2545 6.67
2545 2546 6.67
2545 2544 7.58
2544 2545 7.58
2544 2540 7.67
2540 2544 7.67
2540 2543 6.88
2543 2540 6.88
2543 2542 6.40
2542 2543 6.40
2542 2541 7.44
2541 2542 7.44
2541 2082 5.58
2082 2541 5.58
2029 2552 5.76
2552 2029 5.76
2552 2553 5.52
2553 2552 5.52
2553 2554 5.97
2554 2553 5.97
2554 2555 5.66
2555 2554 5.66
2555 2556 5.91
2556 2555 5.91
2556 2557 5.65
2557 2556 5.65
2557 2558 5.88
2558 2557 5.88
2558 2559 6.46
2559 2558 6.46
2559 2560 6.05
2560 2559 6.05
2560 2561 5.11
2561 2560 5.11
2561 2562 5.31
2562 2561 5.31
2562 2563 5.58
2563 2562 5.58
2563 2539 7.38
2539 2563 7.38
2548 2564 6.54
2564 2548 6.54
2564 2565 5.55
2565 2564 5.55
2565 2566 5.94
2566 2565 5.94
2566 2567 5.65
2567 2566 5.65
2567 2568 5.99
2568 2567 5.99
2568 2569 6.39
2569 2568 6.39
2569 2570 6.44
2570 2569 6.44
2570 2571 5.28
2571 2570 5.28
2571 2572 5.77
2572 2571 5.77
2572 2573 6.07
2573 2572 6.07
2573 2574 5.79
2574 2573 5.79
2549 2575 5.51
2575 2549 5.51
2575 2576 5.89
2576 2575 5.89
2576 2577 6.52
2577 2576 6.52
2577 2578 6.27
2578 2577 6.27
2578 2579 6.96
2579 2578 6.96
2579 2580 7.01
2580 2579 7.01
2580 2581 6.47
2581 2580 6.47
2581 2582 5.73
2582 2581 5.73
2582 2583 5.61
2583 2582 5.61
2583 2584 8.84
2584 2583 8.84
2028 2585 5.79
2585 2028 5.79
2585 2586 6.49
2586 2585 6.49
2586 2587 6.85
2587 2586 6.85
2587 2588 6.68
2588 2587 6.68
2588 2589 6.69
2589 2588 6.69
2589 2590 6.07
2590 2589 6.07
2590 2591 6.48
2591 2590 6.48
2591 2592 9.17
2592 2591 9.17
2584 2593 6.60
2593 2584 6.60
2593 2594 6.55
2594 2593 6.55
2594 2595 6.38
2595 2594 6.38
2595 2596 6.92
2596 2595 6.92
2596 2597 6.88
2597 2596 6.88
2597 2598 7.06
2598 2597 7.06
2598 2599 5.89
2599 2598 5.89
2599 2600 5.46
2600 2599 5.46
2600 2601 5.20
2601 2600 5.20
2601 2602 7.13
2602 2601 7.13
2607 2608 7.27
2608 2607 7.27
2608 2609 7.31
2609 2608 7.31
2609 2610 6.84
2610 2609 6.84
2610 2611 7.04
2611 2610 7.04
2611 2612 7.51
2612 2611 7.51
2612 2613 6.19
2613 2612 6.19
2613 2614 6.53
2614 2613 6.53
2614 2615 6.04
2615 2614 6.04
2615 2616 6.53
2616 2615 6.53
2617 2618 5.95
2618 2617 5.95
2618 2619 6.98
2619 2618 6.98
2619 2620 7.17
2620 2619 7.17
2620 2621 6.90
2621 2620 6.90
2621 2622 6.83
2622 2621 6.83
2622 2623 6.57
2623 2622 6.57
2623 2624 5.82
2624 2623 5.82
2624 2625 5.58
2625 2624 5.58
2625 2616 8.13
2616 2625 8.13
2617 2626 6.21
2626 2617 6.21
2626 2627 6.93
2627 2626 6.93
2627 2628 6.61
2628 2627 6.61
2628 2629 8.52
2629 2628 8.52
2630 2631 7.62
2631 2630 7.62
2631 2632 7.08
2632 2631 7.08
2632 2633 7.41
2633 2632 7.41
2633 2634 7.72
2634 2633 7.72
2635 2636 5.83
2636 2635 5.83
2636 2637 6.09
2637 2636 6.09
2637 2638 4.88
2638 2637 4.88
2638 2639 4.12
2639 2638 4.12
2639 2640 5.08
2640 2639 5.08
2640 2641 5.08
2641 2640 5.08
2641 2642 5.24
2642 2641 5.24
2642 2643 5.32
2643 2642 5.32
2643 2644 5.13
2644 2643 5.13
2644 2645 5.66
2645 2644 5.66
2645 2646 5.49
2646 2645 5.49
2646 2647 5.12
2647 2646 5.12
2647 2648 5.05
2648 2647 5.05
3020 2649 6.78
2649 3020 6.78
2649 2650 5.85
2650 2649 5.85
2650 2651 7.49
2651 2650 7.49
2652 2653 6.30
2653 2652 6.30
2653 2654 6.27
2654 2653 6.27
2654 2655 7.30
2655 2654 7.30
2656 2657 7.43
2657 2656 7.43
2657 2658 7.37
2658 2657 7.37
2658 2659 7.88
2659 2658 7.88
2659 2660 7.95
2660 2659 7.95
2661 2662 8.49
2662 2661 8.49
2662 2663 7.40
2663 2662 7.40
2663 2664 6.33
2664 2663 6.33
2664 2665 6.31
2665 2664 6.31
2666 2667 7.14
2667 2666 7.14
2667 2668 6.05
2668 2667 6.05
2668 2669 7.34
2669 2668 7.34
2669 2670 6.73
2670 2669 6.73
2670 2671 7.55
2671 2670 7.55
2671 2672 6.66
2672 2671 6.66
2672 2673 5.73
2673 2672 5.73
2673 2674 6.07
2674 2673 6.07
2674 2675 5.19
2675 2674 5.19
2666 2676 7.11
2676 2666 7.11
2676 2677 6.29
2677 2676 6.29
2677 2678 6.65
2678 2677 6.65
2678 2679 6.98
2679 2678 6.98
2679 2680 7.20
2680 2679 7.20
2680 2681 7.26
2681 2680 7.26
2681 2682 6.85
2682 2681 6.85
2682 2683 6.45
2683 2682 6.45
2683 2684 6.88
2684 2683 6.88
2684 2685 5.64
2685 2684 5.64
2685 2686 6.80
2686 2685 6.80
2686 2687 6.37
2687 2686 6.37
2687 2688 6.97
2688 2687 6.97
2688 2689 6.75
2689 2688 6.75
2689 2690 6.47
2690 2689 6.47
2690 2691 6.31
2691 2690 6.31
2691 2692 5.68
2692 2691 5.68
2692 2693 4.54
2693 2692 4.54
2693 2694 4.68
2694 2693 4.68
2695 2696 7.07
2696 2695 7.07
2696 2697 7.79
2697 2696 7.79
2697 2698 7.94
2698 2697 7.94
2698 2699 7.29
2699 2698 7.29
2699 2700 7.64
2700 2699 7.64
2700 2701 7.10
2701 2700 7.10
2701 2702 6.94
2702 2701 6.94
2702 2703 6.39
2703 2702 6.39
2703 2704 8.29
2704 2703 8.29
2705 2706 6.11
2706 2705 6.11
2706 2707 6.68
2707 2706 6.68
2707 2708 6.19
2708 2707 6.19
2708 2709 6.99
2709 2708 6.99
2709 2710 7.45
2710 2709 7.45
2710 2711 7.81
2711 2710 7.81
2711 2712 7.94
2712 2711 7.94
2712 2713 8.24
2713 2712 8.24
2713 4506 7.57
4506 2713 7.57
4506 2714 7.15
2714 4506 7.15
2714 2715 7.27
2715 2714 7.27
2715 2716 6.33
2716 2715 6.33
2716 2717 8.00
2717 2716 8.00
2717 2718 7.47
2718 2717 7.47
2718 4507 7.05
4507 2718 7.05
4507 2719 6.18
2719 4507 6.18
2719 2720 8.67
2720 2719 8.67
3851 3850 3.18
3850 3851 3.18
3850 3849 3.52
3849 3850 3.52
3849 3357 4.00
3357 3849 4.00
3357 3358 3.92
3358 3357 3.92
3358 3359 4.43
3359 3358 4.43
3359 4689 4.53
4689 3359 4.53
4689 3853 3.96
3853 4689 3.96
3853 3855 3.84
3855 3853 3.84
3855 3856 4.94
3856 3855 4.94
3856 3360 4.88
3360 3856 4.88
3360 4073 4.39
4073 3360 4.39
4073 4074 4.38
4074 4073 4.38
4074 4075 4.51
4075 4074 4.51
4075 970 4.91
970 4075 4.91
970 1497 33.80
1497 970 33.80
1497 1499 3.17
1499 1497 3.17
1499 697 33.93
697 1499 33.93
4508 4509 6.28
4509 4508 6.28
4509 4510 7.66
4510 4509 7.66
4510 4511 8.59
4511 4510 8.59
4511 4512 8.57
4512 4511 8.57
4512 4513 10.59
4513 4512 10.59
4513 4514 9.41
4514 4513 9.41
4514 4515 9.78
4515 4514 9.78
4515 4516 9.18
4516 4515 9.18
4516 4517 7.80
4517 4516 7.80
4517 4518 9.57
4518 4517 9.57
4518 4519 12.89
4519 4518 12.89
4519 4520 14.93
4520 4519 14.93
4520 4521 19.84
4521 4520 19.84
4521 4522 55.70
4522 4521 55.70
4522 4523 38.06
4523 4522 38.06
4524 4525 8.92
4525 4524 8.92
4525 4526 12.66
4526 4525 12.66
4526 4535 13.97
4535 4526 13.97
4535 4527 10.21
4527 4535 10.21
4527 4534 4.99
4534 4527 4.99
4534 4528 79.57
4528 4534 79.57
4528 4529 12.09
4529 4528 12.09
4529 4530 25.48
4530 4529 25.48
4530 377 22.67
377 4530 22.67
389 4536 6.57
4536 389 6.57
4536 4537 6.58
4537 4536 6.58
4537 4538 6.09
4538 4537 6.09
4538 4539 5.56
4539 4538 5.56
4539 4540 5.88
4540 4539 5.88
4540 4541 6.42
4541 4540 6.42
4541 4542 7.30
4542 4541 7.30
4542 4543 6.53
4543 4542 6.53
4543 4544 6.89
4544 4543 6.89
4544 4545 6.43
4545 4544 6.43
4545 4103 6.31
4103 4545 6.31
3386 40 6.72
40 3386 6.72
40 41 5.38
41 40 5.38
41 3385 5.15
3385 41 5.15
3385 42 6.03
42 3385 6.03
42 43 5.55
43 42 5.55
43 44 6.59
44 43 6.59
44 45 5.93
45 44 5.93
45 46 6.78
46 45 6.78
46 47 7.04
47 46 7.04
47 48 7.53
48 47 7.53
3386 3389 6.02
3389 3386 6.02
3389 3394 5.43
3394 3389 5.43
3394 2047 5.53
2047 3394 5.53
2047 2048 6.05
2048 2047 6.05
2048 2049 5.82
2049 2048 5.82
2049 3401 5.90
3401 2049 5.90
3401 3402 5.90
3402 3401 5.90
3402 3403 5.57
3403 3402 5.57
3403 3404 5.55
3404 3403 5.55
3404 2050 5.18
2050 3404 5.18
2050 2051 6.77
2051 2050 6.77
384 3406 28.64
3406 384 28.64
3406 4529 18.02
4529 3406 18.02
4529 2054 15.15
2054 4529 15.15
2054 2052 6.70
2052 2054 6.70
2052 3409 4.81
3409 2052 4.81
3409 3410 5.38
3410 3409 5.38
3410 3411 5.65
3411 3410 5.65
3411 3412 5.49
3412 3411 5.49
3412 48 6.05
48 3412 6.05
4528 3413 5.65
3413 4528 5.65
3413 2053 5.79
2053 3413 5.79
2053 3415 6.27
3415 2053 6.27
3415 2054 7.33
2054 3415 7.33
2055 3417 8.55
3417 2055 8.55
3417 3418 7.74
3418 3417 7.74
3418 3420 9.96
3420 3418 9.96
3420 2056 8.30
2056 3420 8.30
2056 3422 8.89
3422 2056 8.89
3422 2057 8.71
2057 3422 8.71
2057 3424 7.36
3424 2057 7.36
3424 2347 8.73
2347 3424 8.73
3425 3426 6.38
3426 3425 6.38
3426 3427 5.85
3427 3426 5.85
3427 3428 5.72
3428 3427 5.72
3428 3429 5.68
3429 3428 5.68
3429 3430 4.22
3430 3429 4.22
3430 2058 6.18
2058 3430 6.18
2059 3431 6.25
3431 2059 6.25
3431 3432 5.84
3432 3431 5.84
3432 3433 6.22
3433 3432 6.22
3433 3434 6.57
3434 3433 6.57
4274 2061 8.94
2061 4274 8.94
2061 2062 6.65
2062 2061 6.65
2062 2063 6.25
2063 2062 6.25
2063 3436 6.73
3436 2063 6.73
3436 3437 6.73
3437 3436 6.73
3437 3438 7.14
3438 3437 7.14
3438 3439 7.53
3439 3438 7.53
3439 3440 7.32
3440 3439 7.32
3440 2064 6.65
2064 3440 6.65
2064 3442 7.29
3442 2064 7.29
3442 4522 9.93
4522 3442 9.93
4522 3445 11.34
3445 4522 11.34
2066 520 8.06
520 2066 8.06
520 521 6.73
521 520 6.73
521 522 7.63
522 521 7.63
522 523 7.02
523 522 7.02
523 524 5.71
524 523 5.71
524 3446 6.47
3446 524 6.47
3446 3447 7.01
3447 3446 7.01
3447 526 6.20
526 3447 6.20
526 4112 5.52
4112 526 5.52
4112 527 4.73
527 4112 4.73
527 528 6.27
528 527 6.27
528 529 6.85
529 528 6.85
529 530 6.12
530 529 6.12
530 531 6.23
531 530 6.23
4046 3449 7.01
3449 4046 7.01
3449 3450 7.82
3450 3449 7.82
3450 3451 6.53
3451 3450 6.53
3451 3452 7.95
3452 3451 7.95
3452 3453 6.22
3453 3452 6.22
3453 2068 8.03
2068 3453 8.03
2069 3456 6.53
3456 2069 6.53
3456 3457 5.56
3457 3456 5.56
3457 3458 6.29
3458 3457 6.29
3458 3459 5.81
3459 3458 5.81
3459 3460 5.92
3460 3459 5.92
3460 2070 7.54
2070 3460 7.54
3999 3143 4.83
3143 3999 4.83
3143 4000 4.84
4000 3143 4.84
4000 3144 4.84
3144 4000 4.84
3144 4001 4.83
4001 3144 4.83
4001 3145 4.84
3145 4001 4.84
3145 4002 4.83
4002 3145 4.83
4002 3146 4.84
3146 4002 4.84
3146 4003 4.84
4003 3146 4.84
4003 4004 4.75
4004 4003 4.75
2073 3995 8.53
3995 2073 8.53
3995 3996 6.28
3996 3995 6.28
3996 3467 6.38
3467 3996 6.38
3467 3997 6.78
3997 3467 6.78
3997 3998 7.31
3998 3997 7.31
3469 3470 6.35
3470 3469 6.35
3470 3471 6.10
3471 3470 6.10
3471 3475 6.40
3475 3471 6.40
3475 3476 6.34
3476 3475 6.34
3476 3477 5.29
3477 3476 5.29
3477 3478 5.19
3478 3477 5.19
3478 2087 5.06
2087 3478 5.06
4048 4018 51.48
4018 4048 51.48
4018 4127 22.73
4127 4018 22.73
4127 3128 7.59
3128 4127 7.59
3128 4049 4.86
4049 3128 4.86
4049 3132 5.14
3132 4049 5.14
3132 4050 5.61
4050 3132 5.61
4050 3131 5.56
3131 4050 5.56
3131 3130 5.88
3130 3131 5.88
3130 4051 5.90
4051 3130 5.90
4051 4052 8.71
4052 4051 8.71
3172 3170 6.52
3170 3172 6.52
3170 3169 4.39
3169 3170 4.39
3169 3166 4.21
3166 3169 4.21
3166 3167 3.16
3167 3166 3.16
3167 3165 3.48
3165 3167 3.48
3165 3163 3.38
3163 3165 3.38
3163 3162 3.39
3162 3163 3.39
3162 3160 3.20
3160 3162 3.20
3160 3158 3.55
3158 3160 3.55
3158 3157 8.26
3157 3158 8.26
3157 4139 24.99
4139 3157 24.99
4005 2092 5.93
2092 4005 5.93
2092 3482 6.70
3482 2092 6.70
3482 3483 6.13
3483 3482 6.13
3483 3484 6.09
3484 3483 6.09
3484 3485 6.06
3485 3484 6.06
3485 3486 6.02
3486 3485 6.02
3486 3491 6.65
3491 3486 6.65
1460 1459 5.85
1459 1460 5.85
1459 1458 7.39
1458 1459 7.39
1458 3175 5.38
3175 1458 5.38
3175 1457 4.44
1457 3175 4.44
1457 3182 4.00
3182 1457 4.00
3182 1456 4.14
1456 3182 4.14
1456 3186 4.71
3186 1456 4.71
3186 1455 4.47
1455 3186 4.47
1455 1454 4.74
1454 1455 4.74
1454 1269 3.90
1269 1454 3.90
1269 1270 20.56
1270 1269 20.56
1270 3489 9.46
3489 1270 9.46
3489 1272 40.82
1272 3489 40.82
1272 3204 26.89
3204 1272 26.89
3204 4679 50.83
4679 3204 50.83
4679 3185 10.10
3185 4679 10.10
3185 1629 56.41
1629 3185 56.41
1629 1469 20.02
1469 1629 20.02
1469 1623 21.25
1623 1469 21.25
1623 1622 8.06
1622 1623 8.06
1622 4139 24.23
4139 1622 24.23
4139 3999 24.56
3999 4139 24.56
3999 3998 9.25
3998 3999 9.25
3998 1468 20.28
1468 3998 20.28
1468 3469 23.18
3469 1468 23.18
3469 4052 55.97
4052 3469 55.97
4052 4053 7.20
4053 4052 7.20
4053 3435 105.14
3435 4053 105.14
3435 2345 13.57
2345 3435 13.57
2345 3434 12.86
3434 2345 12.86
3434 374 34.55
374 3434 34.55
374 2829 31.75
2829 374 31.75
2829 30 9.85
30 2829 9.85
30 20 23.37
20 30 23.37
20 3826 103.17
3826 20 103.17
3489 1271 17.16
1271 3489 17.16
1271 1272 23.91
1272 1271 23.91
3498 3499 6.01
3499 3498 6.01
3499 3500 5.83
3500 3499 5.83
3500 3501 5.59
3501 3500 5.59
3501 3504 5.82
3504 3501 5.82
3504 3505 5.79
3505 3504 5.79
3505 3506 5.19
3506 3505 5.19
3506 3502 6.30
3502 3506 6.30
3503 3511 7.17
3511 3503 7.17
3511 3512 6.21
3512 3511 6.21
3512 3513 7.17
3513 3512 7.17
3513 3507 6.33
3507 3513 6.33
3507 3508 5.52
3508 3507 5.52
3508 3509 5.04
3509 3508 5.04
3510 3514 5.57
3514 3510 5.57
3514 3515 7.34
3515 3514 7.34
3515 3518 6.82
3518 3515 6.82
3518 3519 7.16
3519 3518 7.16
3519 3520 6.04
3520 3519 6.04
3520 3516 6.36
3516 3520 6.36
3517 3521 6.66
3521 3517 6.66
3521 3522 5.46
3522 3521 5.46
3522 3523 6.10
3523 3522 6.10
3523 3526 5.32
3526 3523 5.32
3526 3527 5.44
3527 3526 5.44
3527 3528 4.03
3528 3527 4.03
3528 3524 7.37
3524 3528 7.37
3525 3529 6.89
3529 3525 6.89
3529 3530 5.85
3530 3529 5.85
3530 3531 6.36
3531 3530 6.36
3531 3532 6.97
3532 3531 6.97
3532 3533 6.53
3533 3532 6.53
3533 2093 6.64
2093 3533 6.64
2093 2094 6.15
2094 2093 6.15
2094 2095 5.76
2095 2094 5.76
2095 3534 6.59
3534 2095 6.59
3534 3535 6.07
3535 3534 6.07
3535 3536 8.28
3536 3535 8.28
1434 3537 6.96
3537 1434 6.96
3537 3538 7.15
3538 3537 7.15
3538 3539 6.97
3539 3538 6.97
3539 3540 6.62
3540 3539 6.62
3540 3541 6.33
3541 3540 6.33
3541 3542 5.99
3542 3541 5.99
3542 2096 8.27
2096 3542 8.27
3551 3555 5.14
3555 3551 5.14
3555 3550 5.38
3550 3555 5.38
3550 2097 5.70
2097 3550 5.70
2097 2098 5.78
2098 2097 5.78
2098 3562 5.05
3562 2098 5.05
3562 3556 5.52
3556 3562 5.52
3560 3563 7.36
3563 3560 7.36
3563 3564 6.04
3564 3563 6.04
3564 3565 5.66
3565 3564 5.66
3565 3566 6.47
3566 3565 6.47
3566 3568 6.20
3568 3566 6.20
3568 3569 6.49
3569 3568 6.49
3569 3570 6.57
3570 3569 6.57
3570 3567 7.98
3567 3570 7.98
3561 3571 7.32
3571 3561 7.32
3571 3572 6.62
3572 3571 6.62
3572 3573 6.99
3573 3572 6.99
3573 3574 6.87
3574 3573 6.87
3574 3575 7.49
3575 3574 7.49
3575 3576 7.37
3576 3575 7.37
3576 3577 7.30
3577 3576 7.30
3577 3580 6.92
3580 3577 6.92
3580 3581 6.26
3581 3580 6.26
3581 3582 6.40
3582 3581 6.40
3582 3578 6.71
3578 3582 6.71
3579 3583 5.83
3583 3579 5.83
3583 3586 6.11
3586 3583 6.11
3586 2099 6.62
2099 3586 6.62
2099 2100 7.03
2100 2099 7.03
2100 3584 6.36
3584 2100 6.36
3584 3585 7.33
3585 3584 7.33
3585 3587 7.31
3587 3585 7.31
3595 3588 6.50
3588 3595 6.50
3588 3589 6.57
3589 3588 6.57
3589 3590 6.13
3590 3589 6.13
3590 3591 5.80
3591 3590 5.80
3591 3592 6.64
3592 3591 6.64
3592 3593 6.11
3593 3592 6.11
3593 3594 5.51
3594 3593 5.51
3594 2101 7.56
2101 3594 7.56
3596 3597 6.26
3597 3596 6.26
3597 3598 5.56
3598 3597 5.56
3598 3599 6.66
3599 3598 6.66
3599 3600 6.47
3600 3599 6.47
3600 3601 6.76
3601 3600 6.76
3601 3602 6.97
3602 3601 6.97
3602 3603 7.07
3603 3602 7.07
3603 3604 6.72
3604 3603 6.72
3604 3605 6.91
3605 3604 6.91
3605 3606 6.05
3606 3605 6.05
3606 3607 5.14
3607 3606 5.14
3607 3608 5.91
3608 3607 5.91
3609 3611 10.23
3611 3609 10.23
3611 3612 8.92
3612 3611 8.92
3612 3613 9.73
3613 3612 9.73
3613 3615 9.23
3615 3613 9.23
3615 3614 9.24
3614 3615 9.24
3614 3617 8.69
3617 3614 8.69
3617 3616 9.69
3616 3617 9.69
3616 3619 8.73
3619 3616 8.73
3619 3618 9.17
3618 3619 9.17
3618 1697 6.35
1697 3618 6.35
1697 3620 10.68
3620 1697 10.68
3620 3622 9.38
3622 3620 9.38
3622 3621 6.91
3621 3622 6.91
3621 3623 6.96
3623 3621 6.96
3623 3624 8.55
3624 3623 8.55
3624 3625 9.12
3625 3624 9.12
3625 3626 11.76
3626 3625 11.76
3626 2103 14.79
2103 3626 14.79
2103 3627 14.95
3627 2103 14.95
3627 3628 18.81
3628 3627 18.81
3628 3629 14.39
3629 3628 14.39
3629 3631 16.41
3631 3629 16.41
3631 3632 20.14
3632 3631 20.14
3632 3636 22.19
3636 3632 22.19
3636 3638 24.33
3638 3636 24.33
3638 2132 49.29
2132 3638 49.29
3623 3639 6.19
3639 3623 6.19
3639 3635 5.09
3635 3639 5.09
3635 2104 6.30
2104 3635 6.30
2104 3637 5.54
3637 2104 5.54
3637 2105 5.08
2105 3637 5.08
2105 2106 4.84
2106 2105 4.84
2106 3640 5.87
3640 2106 5.87
3640 3641 6.03
3641 3640 6.03
3641 3642 6.50
3642 3641 6.50
3642 3643 6.23
3643 3642 6.23
3643 3644 5.99
3644 3643 5.99
3644 3645 5.15
3645 3644 5.15
3645 3646 5.32
3646 3645 5.32
3646 3647 6.98
3647 3646 6.98
562 3652 8.59
3652 562 8.59
3652 3653 6.79
3653 3652 6.79
3653 3654 6.71
3654 3653 6.71
3654 3655 6.32
3655 3654 6.32
3655 3656 7.66
3656 3655 7.66
3656 3657 6.87
3657 3656 6.87
3657 3658 5.98
3658 3657 5.98
3658 3665 4.83
3665 3658 4.83
3665 3659 6.00
3659 3665 6.00
3659 3660 7.21
3660 3659 7.21
3660 3661 7.18
3661 3660 7.18
3661 3662 7.38
3662 3661 7.38
3662 3663 7.34
3663 3662 7.34
3663 3664 7.19
3664 3663 7.19
3664 3667 5.90
3667 3664 5.90
3667 3666 6.92
3666 3667 6.92
3670 3668 6.75
3668 3670 6.75
3668 3669 6.28
3669 3668 6.28
3669 3672 5.49
3672 3669 5.49
3672 3673 5.72
3673 3672 5.72
3673 3675 5.67
3675 3673 5.67
3675 2170 5.58
2170 3675 5.58
2170 3674 5.47
3674 2170 5.47
3674 3684 5.91
3684 3674 5.91
3684 3676 6.06
3676 3684 6.06
3676 3677 5.11
3677 3676 5.11
3677 552 4.94
552 3677 4.94
3682 3685 6.51
3685 3682 6.51
3685 3687 6.38
3687 3685 6.38
3687 3690 6.55
3690 3687 6.55
3690 5311 6.17
5311 3690 6.17
5311 2205 5.37
2205 5311 5.37
2205 3688 6.64
3688 2205 6.64
3689 2206 6.73
2206 3689 6.73
2206 2207 7.20
2207 2206 7.20
2207 3681 9.53
3681 2207 9.53
3701 3703 7.78
3703 3701 7.78
3703 3705 7.74
3705 3703 7.74
3705 3707 7.21
3707 3705 7.21
3707 3708 7.05
3708 3707 7.05
3708 3711 7.12
3711 3708 7.12
3711 905 4.73
905 3711 4.73
905 1510 2.59
1510 905 2.59
1510 907 2.72
907 1510 2.72
907 1513 2.71
1513 907 2.71
1513 3712 3.42
3712 1513 3.42
3712 906 5.27
906 3712 5.27
906 3713 4.59
3713 906 4.59
3713 3714 7.00
3714 3713 7.00
3714 3715 6.46
3715 3714 6.46
3715 1611 8.42
1611 3715 8.42
3710 3716 12.85
3716 3710 12.85
3716 3717 11.92
3717 3716 11.92
3717 3718 13.83
3718 3717 13.83
3718 3719 9.13
3719 3718 9.13
3719 3724 5.60
3724 3719 5.60
3724 3725 6.18
3725 3724 6.18
3725 3726 6.07
3726 3725 6.07
3726 3727 5.50
3727 3726 5.50
3727 3728 6.34
3728 3727 6.34
3728 3729 5.89
3729 3728 5.89
3729 2208 5.58
2208 3729 5.58
2208 1611 6.37
1611 2208 6.37
3722 2209 6.06
2209 3722 6.06
2209 2210 5.87
2210 2209 5.87
2210 2211 5.36
2211 2210 5.36
2211 2212 5.91
2212 2211 5.91
2212 2213 6.84
2213 2212 6.84
2213 2214 5.92
2214 2213 5.92
2214 2215 5.38
2215 2214 5.38
2215 2216 5.56
2216 2215 5.56
2772 328 5.91
328 2772 5.91
328 2217 7.34
2217 328 7.34
2217 312 5.86
312 2217 5.86
312 313 6.97
313 312 6.97
313 314 6.38
314 313 6.38
314 315 7.84
315 314 7.84
315 316 7.38
316 315 7.38
316 317 6.35
317 316 6.35
317 318 6.52
318 317 6.52
318 2218 5.81
2218 318 5.81
2218 319 6.41
319 2218 6.41
3744 3749 5.59
3749 3744 5.59
3749 3751 6.23
3751 3749 6.23
3751 3752 6.69
3752 3751 6.69
3752 2219 7.04
2219 3752 7.04
2219 2220 5.92
2220 2219 5.92
2220 2221 5.93
2221 2220 5.93
2221 330 5.46
330 2221 5.46
171 172 10.32
172 171 10.32
172 173 8.96
173 172 8.96
173 2222 7.93
2222 173 7.93
2222 174 8.55
174 2222 8.55
3831 2225 5.33
2225 3831 5.33
2225 2224 4.71
2224 2225 4.71
2224 2226 4.04
2226 2224 4.04
2226 2223 3.87
2223 2226 3.87
2223 174 9.11
174 2223 9.11
174 3701 70.93
3701 174 70.93
3701 4299 35.30
4299 3701 35.30
3767 3766 5.93
3766 3767 5.93
3766 2227 6.40
2227 3766 6.40
2227 3769 5.29
3769 2227 5.29
3769 3773 4.29
3773 3769 4.29
3773 3770 5.51
3770 3773 5.51
3770 3771 42.49
3771 3770 42.49
3771 3772 4.99
3772 3771 4.99
3772 3774 5.53
3774 3772 5.53
3774 3762 2.52
3762 3774 2.52
3762 3780 5.65
3780 3762 5.65
3780 3775 5.57
3775 3780 5.57
3775 3776 6.00
3776 3775 6.00
3776 3777 6.53
3777 3776 6.53
3777 3778 5.99
3778 3777 5.99
3778 3779 6.56
3779 3778 6.56
3779 3785 6.37
3785 3779 6.37
3785 3781 5.65
3781 3785 5.65
3781 3782 6.32
3782 3781 6.32
3782 3783 6.61
3783 3782 6.61
3783 3784 7.23
3784 3783 7.23
3784 3786 6.44
3786 3784 6.44
3786 3787 6.66
3787 3786 6.66
3787 3788 7.18
3788 3787 7.18
3788 3790 7.03
3790 3788 7.03
3790 3789 14.40
3789 3790 14.40
3772 3791 5.33
3791 3772 5.33
3791 3792 6.33
3792 3791 6.33
3792 3763 8.07
3763 3792 8.07
170 3761 29.63
3761 170 29.63
3761 175 4.18
175 3761 4.18
175 3760 5.00
3760 175 5.00
3760 176 4.26
176 3760 4.26
176 3759 4.42
3759 176 4.42
3759 177 4.59
177 3759 4.59
177 3758 4.47
3758 177 4.47
3758 158 5.57
158 3758 5.57
3795 3793 5.48
3793 3795 5.48
3793 3794 5.55
3794 3793 5.55
3794 3804 5.58
3804 3794 5.58
3796 3797 7.96
3797 3796 7.96
3797 3798 6.40
3798 3797 6.40
3798 3799 5.63
3799 3798 5.63
3809 3810 6.68
3810 3809 6.68
3810 3815 5.34
3815 3810 5.34
3815 3812 5.69
3812 3815 5.69
3812 3813 6.05
3813 3812 6.05
3813 3814 6.36
3814 3813 6.36
3814 3816 5.21
3816 3814 5.21
3816 3817 5.46
3817 3816 5.46
3817 3818 4.76
3818 3817 4.76
3818 3819 5.68
3819 3818 5.68
3819 3820 6.50
3820 3819 6.50
3820 3821 5.30
3821 3820 5.30
3821 3822 5.18
3822 3821 5.18
3822 4400 6.69
4400 3822 6.69
4425 728 5.24
728 4425 5.24
728 1764 4.31
1764 728 4.31
1764 727 4.12
727 1764 4.12
727 1765 3.66
1765 727 3.66
1765 726 4.28
726 1765 4.28
726 1766 3.10
1766 726 3.10
1766 1767 3.77
1767 1766 3.77
1767 4418 3.63
4418 1767 3.63
4418 1768 3.80
1768 4418 3.80
1768 725 3.30
725 1768 3.30
725 1769 3.87
1769 725 3.87
1769 724 5.55
724 1769 5.55
724 1770 6.44
1770 724 6.44
1770 723 4.02
723 1770 4.02
723 1771 5.68
1771 723 5.68
1771 1772 7.50
1772 1771 7.50
1772 1773 6.32
1773 1772 6.32
1773 1774 10.78
1774 1773 10.78
1774 1776 8.67
1776 1774 8.67
1776 1778 19.91
1778 1776 19.91
1787 410 5.29
410 1787 5.29
410 409 5.60
409 410 5.60
409 411 5.48
411 409 5.48
411 415 6.25
415 411 6.25
415 412 5.84
412 415 5.84
412 413 5.23
413 412 5.23
413 104 6.00
104 413 6.00
104 414 4.87
414 104 4.87
414 416 4.98
416 414 4.98
416 421 6.22
421 416 6.22
421 1647 6.18
1647 421 6.18
417 418 6.41
418 417 6.41
418 419 6.52
419 418 6.52
419 420 5.59
420 419 5.59
420 425 5.21
425 420 5.21
425 422 5.09
422 425 5.09
422 423 5.07
423 422 5.07
423 424 5.19
424 423 5.19
424 426 4.53
426 424 4.53
426 429 5.58
429 426 5.58
429 427 4.83
427 429 4.83
427 428 3.71
428 427 3.71
428 430 3.58
430 428 3.58
430 431 4.27
431 430 4.27
431 432 5.30
432 431 5.30
432 433 6.28
433 432 6.28
433 434 5.49
434 433 5.49
434 435 5.99
435 434 5.99
435 436 5.51
436 435 5.51
436 2899 5.41
2899 436 5.41
2899 437 5.12
437 2899 5.12
437 438 7.61
438 437 7.61
136 445 4.27
445 136 4.27
445 446 4.17
446 445 4.17
446 447 4.47
447 446 4.47
447 448 4.77
448 447 4.77
448 449 5.16
449 448 5.16
449 450 4.69
450 449 4.69
450 451 4.96
451 450 4.96
451 452 4.99
452 451 4.99
452 453 4.38
453 452 4.38
453 4736 5.15
4736 453 5.15
4736 4737 4.82
4737 4736 4.82
4737 4738 4.89
4738 4737 4.89
4738 4739 6.59
4739 4738 6.59
4744 4745 8.42
4745 4744 8.42
4745 4746 9.05
4746 4745 9.05
4746 4747 10.11
4747 4746 10.11
4747 4748 10.85
4748 4747 10.85
4748 4749 9.00
4749 4748 9.00
4749 4750 8.83
4750 4749 8.83
4750 4751 8.45
4751 4750 8.45
4751 4752 9.13
4752 4751 9.13
4752 4753 8.88
4753 4752 8.88
4753 2775 14.02
2775 4753 14.02
2776 4754 6.17
4754 2776 6.17
4754 4755 6.94
4755 4754 6.94
4755 4756 5.82
4756 4755 5.82
4756 4757 4.98
4757 4756 4.98
4757 4758 5.58
4758 4757 5.58
4758 4759 5.84
4759 4758 5.84
4759 4760 6.12
4760 4759 6.12
4760 4761 6.07
4761 4760 6.07
4761 4762 6.75
4762 4761 6.75
4762 4763 6.35
4763 4762 6.35
4763 4764 6.18
4764 4763 6.18
4764 4765 6.58
4765 4764 6.58
4765 4766 5.54
4766 4765 5.54
4766 4767 7.54
4767 4766 7.54
4767 4768 6.61
4768 4767 6.61
2772 4769 6.07
4769 2772 6.07
4769 4770 5.40
4770 4769 5.40
4770 4771 5.78
4771 4770 5.78
4771 4772 5.68
4772 4771 5.68
4772 4773 5.62
4773 4772 5.62
4773 4774 6.01
4774 4773 6.01
4774 4775 6.60
4775 4774 6.60
4775 4776 6.27
4776 4775 6.27
4776 4777 5.98
4777 4776 5.98
4777 4778 5.29
4778 4777 5.29
4778 4779 6.20
4779 4778 6.20
4780 4781 6.25
4781 4780 6.25
4781 4782 5.55
4782 4781 5.55
4782 4783 5.36
4783 4782 5.36
4783 4784 5.57
4784 4783 5.57
4784 4785 5.15
4785 4784 5.15
4785 4786 5.69
4786 4785 5.69
4786 4787 4.96
4787 4786 4.96
4787 4788 5.18
4788 4787 5.18
4788 4789 4.74
4789 4788 4.74
4789 4790 6.42
4790 4789 6.42
4790 4791 4.62
4791 4790 4.62
4791 4792 5.19
4792 4791 5.19
4792 4793 4.73
4793 4792 4.73
4793 4794 6.41
4794 4793 6.41
4794 4795 6.63
4795 4794 6.63
4795 4796 6.18
4796 4795 6.18
4796 4797 6.02
4797 4796 6.02
4797 4798 6.02
4798 4797 6.02
4798 4799 5.70
4799 4798 5.70
4799 1956 7.62
1956 4799 7.62
3951 342 6.32
342 3951 6.32
342 343 4.50
343 342 4.50
343 344 5.82
344 343 5.82
344 345 6.08
345 344 6.08
345 346 5.64
346 345 5.64
346 347 5.69
347 346 5.69
347 348 6.21
348 347 6.21
348 349 6.47
349 348 6.47
349 350 5.21
350 349 5.21
350 4805 5.96
4805 350 5.96
4805 351 6.96
351 4805 6.96
480 4804 4.86
4804 480 4.86
4804 482 5.51
482 4804 5.51
482 483 5.41
483 482 5.41
483 484 5.91
484 483 5.91
484 485 5.27
485 484 5.27
485 486 5.66
486 485 5.66
486 487 5.74
487 486 5.74
487 488 5.44
488 487 5.44
488 489 6.10
489 488 6.10
489 490 6.35
490 489 6.35
490 4810 7.01
4810 490 7.01
4810 491 5.79
491 4810 5.79
491 492 5.09
492 491 5.09
492 493 5.60
493 492 5.60
493 494 5.31
494 493 5.31
494 495 4.97
495 494 4.97
495 496 5.50
496 495 5.50
496 497 6.03
497 496 6.03
497 498 4.56
498 497 4.56
498 499 4.71
499 498 4.71
499 500 5.30
500 499 5.30
500 4801 4.83
4801 500 4.83
4801 481 5.25
481 4801 5.25
1655 4829 71.98
4829 1655 71.98
4829 4828 21.32
4828 4829 21.32
4828 4827 20.19
4827 4828 20.19
4827 1201 16.15
1201 4827 16.15
1201 766 18.04
766 1201 18.04
766 1202 15.88
1202 766 15.88
1202 767 14.48
767 1202 14.48
767 768 16.53
768 767 16.53
768 1203 17.37
1203 768 17.37
1203 769 10.96
769 1203 10.96
769 770 14.53
770 769 14.53
770 1204 12.89
1204 770 12.89
1204 771 11.32
771 1204 11.32
771 772 13.21
772 771 13.21
772 1205 12.78
1205 772 12.78
1205 773 8.99
773 1205 8.99
773 4814 7.86
4814 773 7.86
4814 774 8.89
774 4814 8.89
774 1779 8.25
1779 774 8.25
1779 765 7.22
765 1779 7.22
765 764 7.56
764 765 7.56
764 763 7.15
763 764 7.15
763 762 7.27
762 763 7.27
762 2984 12.58
2984 762 12.58
4815 4816 6.70
4816 4815 6.70
4816 4817 8.29
4817 4816 8.29
4817 4818 8.47
4818 4817 8.47
4818 4819 8.36
4819 4818 8.36
4819 4820 8.25
4820 4819 8.25
4820 4821 7.98
4821 4820 7.98
4821 4822 7.66
4822 4821 7.66
4822 4823 8.17
4823 4822 8.17
4823 4824 8.17
4824 4823 8.17
4824 4825 8.15
4825 4824 8.15
4825 4826 7.72
4826 4825 7.72
4826 772 7.55
772 4826 7.55
158 3756 53.36
3756 158 53.36
3756 3795 61.84
3795 3756 61.84
3795 1602 8.96
1602 3795 8.96
1602 3796 11.97
3796 1602 11.97
3796 2143 62.69
2143 3796 62.69
2143 1601 44.44
1601 2143 44.44
1601 1603 174.93
1603 1601 174.93
1603 2216 32.13
2216 1603 32.13
2216 3809 17.32
3809 2216 17.32
3809 1938 154.87
1938 3809 154.87
1938 1939 87.15
1939 1938 87.15
1939 4744 26.08
4744 1939 26.08
4744 320 21.46
320 4744 21.46
320 1940 43.23
1940 320 43.23
1940 4779 38.23
4779 1940 38.23
4779 4780 49.88
4780 4779 49.88
4780 4815 126.57
4815 4780 126.57
4815 2949 17.92
2949 4815 17.92
2949 1779 46.06
1779 2949 46.06
1779 3008 38.86
3008 1779 38.86
3008 3928 95.84
3928 3008 95.84
3928 4840 87.11
4840 3928 87.11
4840 3960 6.79
3960 4840 6.79
3960 1777 38.51
1777 3960 38.51
1777 49 45.38
49 1777 45.38
49 851 7.40
851 49 7.40
851 1790 34.35
1790 851 34.35
1790 953 49.80
953 1790 49.80
953 4894 7.41
4894 953 7.41
4894 1032 26.05
1032 4894 26.05
1032 1033 59.83
1033 1032 59.83
1033 4253 30.61
4253 1033 30.61
4885 1877 4.23
1877 4885 4.23
1877 1878 6.05
1878 1877 6.05
1878 4884 6.36
4884 1878 6.36
4884 1879 6.82
1879 4884 6.82
1879 1883 6.61
1883 1879 6.61
1883 4883 6.96
4883 1883 6.96
4883 1880 7.12
1880 4883 7.12
1880 1881 7.14
1881 1880 7.14
1881 4882 6.62
4882 1881 6.62
4882 1882 7.57
1882 4882 7.57
1048 4888 4.48
4888 1048 4.48
4888 1040 3.88
1040 4888 3.88
1040 1041 6.49
1041 1040 6.49
1041 1042 5.63
1042 1041 5.63
1042 1043 4.67
1043 1042 4.67
1043 2102 6.59
2102 1043 6.59
2102 1045 6.38
1045 2102 6.38
1045 4887 5.92
4887 1045 5.92
4887 1046 6.16
1046 4887 6.16
1046 4886 6.04
4886 1046 6.04
4886 1047 5.19
1047 4886 5.19
1047 4885 5.15
4885 1047 5.15
4885 1031 3.99
1031 4885 3.99
4263 4912 4.67
4912 4263 4.67
4912 4913 4.99
4913 4912 4.99
4913 4914 4.38
4914 4913 4.38
4914 4915 4.13
4915 4914 4.13
4915 4916 4.59
4916 4915 4.59
4916 4917 4.70
4917 4916 4.70
4917 4918 4.51
4918 4917 4.51
4918 4919 4.64
4919 4918 4.64
4919 4920 5.10
4920 4919 5.10
4920 4921 4.69
4921 4920 4.69
4921 4922 3.34
4922 4921 3.34
4922 4923 2.73
4923 4922 2.73
4923 4924 4.07
4924 4923 4.07
4924 4925 3.91
4925 4924 3.91
4925 4909 4.88
4909 4925 4.88
3240 4378 5.25
4378 3240 5.25
4378 4379 5.25
4379 4378 5.25
4379 4380 5.25
4380 4379 5.25
4380 4381 5.25
4381 4380 5.25
4381 3233 5.24
3233 4381 5.24
3233 4382 5.25
4382 3233 5.25
4382 4383 5.25
4383 4382 5.25
4383 4384 5.25
4384 4383 5.25
4384 3226 5.25
3226 4384 5.25
3226 4385 5.25
4385 3226 5.25
4385 4386 5.25
4386 4385 5.25
4386 4387 5.25
4387 4386 5.25
4387 4389 5.25
4389 4387 5.25
4950 4952 14.25
4952 4950 14.25
4953 4954 8.00
4954 4953 8.00
4954 4955 6.84
4955 4954 6.84
4955 1900 7.67
1900 4955 7.67
4941 1900 17.77
1900 4941 17.77
1900 4956 17.45
4956 1900 17.45
4956 4957 6.24
4957 4956 6.24
4957 4958 5.81
4958 4957 5.81
4958 4959 6.24
4959 4958 6.24
4959 4960 6.02
4960 4959 6.02
4960 4961 6.48
4961 4960 6.48
4961 4962 5.93
4962 4961 5.93
4962 4963 5.53
4963 4962 5.53
4963 4964 3.72
4964 4963 3.72
4964 4965 5.43
4965 4964 5.43
4956 4966 6.43
4966 4956 6.43
4966 4967 6.02
4967 4966 6.02
4967 4968 4.73
4968 4967 4.73
4968 4969 4.78
4969 4968 4.78
4969 4970 5.35
4970 4969 5.35
4970 4971 4.70
4971 4970 4.70
4972 4973 7.73
4973 4972 7.73
4973 4974 6.29
4974 4973 6.29
4974 4975 6.85
4975 4974 6.85
4975 4976 6.86
4976 4975 6.86
4976 4977 6.84
4977 4976 6.84
4977 4978 5.29
4978 4977 5.29
4978 4979 5.98
4979 4978 5.98
4949 4982 8.93
4982 4949 8.93
4982 4983 10.15
4983 4982 10.15
4983 4984 9.01
4984 4983 9.01
4984 4985 8.85
4985 4984 8.85
4985 4986 9.37
4986 4985 9.37
4986 4987 8.91
4987 4986 8.91
4987 4988 7.40
4988 4987 7.40
4988 4989 7.61
4989 4988 7.61
4989 4990 7.28
4990 4989 7.28
4990 4991 6.06
4991 4990 6.06
4991 4992 9.62
4992 4991 9.62
4992 4993 8.94
4993 4992 8.94
1744 4999 15.13
4999 1744 15.13
4999 5011 15.30
5011 4999 15.30
5011 5000 3.46
5000 5011 3.46
5000 5001 5.04
5001 5000 5.04
5001 5002 5.32
5002 5001 5.32
5002 5003 5.99
5003 5002 5.99
5003 5004 5.15
5004 5003 5.15
5004 5005 4.77
5005 5004 4.77
5005 5006 4.89
5006 5005 4.89
5006 5007 4.92
5007 5006 4.92
5007 5008 4.77
5008 5007 4.77
5008 5009 5.63
5009 5008 5.63
5009 5010 4.39
5010 5009 4.39
5011 5012 4.83
5012 5011 4.83
5012 5013 5.31
5013 5012 5.31
5013 5014 4.88
5014 5013 4.88
5014 5015 5.42
5015 5014 5.42
5015 5016 4.28
5016 5015 4.28
5016 5017 6.39
5017 5016 6.39
5018 5019 6.83
5019 5018 6.83
5019 5020 6.66
5020 5019 6.66
5020 5021 6.69
5021 5020 6.69
5021 5022 6.59
5022 5021 6.59
5022 5023 7.07
5023 5022 7.07
5023 5024 6.82
5024 5023 6.82
5024 5025 5.20
5025 5024 5.20
1843 914 6.45
914 1843 6.45
914 5049 5.65
5049 914 5.65
5049 915 4.99
915 5049 4.99
915 916 5.58
916 915 5.58
916 5050 5.49
5050 916 5.49
5050 917 4.51
917 5050 4.51
917 918 5.80
918 917 5.80
918 5051 5.96
5051 918 5.96
5051 919 5.30
919 5051 5.30
919 920 5.41
920 919 5.41
920 1844 7.83
1844 920 7.83
1843 5045 5.36
5045 1843 5.36
5045 753 5.53
753 5045 5.53
753 5046 6.46
5046 753 6.46
5046 752 5.60
752 5046 5.60
752 751 5.67
751 752 5.67
751 750 5.97
750 751 5.97
750 749 7.13
749 750 7.13
749 5047 7.44
5047 749 7.44
5047 748 4.63
748 5047 4.63
748 5048 5.00
5048 748 5.00
5048 1793 6.50
1793 5048 6.50
754 1843 5.20
1843 754 5.20
5060 5063 6.25
5063 5060 6.25
5063 5064 4.49
5064 5063 4.49
5064 5065 2.89
5065 5064 2.89
5065 5066 6.21
5066 5065 6.21
5066 5067 5.25
5067 5066 5.25
5067 5068 5.02
5068 5067 5.02
5068 5069 5.32
5069 5068 5.32
5069 5070 5.72
5070 5069 5.72
5070 5071 5.04
5071 5070 5.04
5071 5072 5.85
5072 5071 5.85
5072 5073 6.26
5073 5072 6.26
5073 5074 6.81
5074 5073 6.81
5076 5077 6.46
5077 5076 6.46
5077 5078 5.51
5078 5077 5.51
5078 5079 5.91
5079 5078 5.91
5079 5080 5.93
5080 5079 5.93
5080 5081 6.88
5081 5080 6.88
5081 5082 7.01
5082 5081 7.01
5082 5083 6.22
5083 5082 6.22
5083 5084 6.36
5084 5083 6.36
5084 5085 6.31
5085 5084 6.31
5085 5086 8.17
5086 5085 8.17
5086 5087 6.86
5087 5086 6.86
5087 5088 6.36
5088 5087 6.36
5088 5089 6.74
5089 5088 6.74
5089 5090 6.74
5090 5089 6.74
5090 5091 7.27
5091 5090 7.27
5091 5092 6.89
5092 5091 6.89
5092 5093 6.99
5093 5092 6.99
5093 5094 6.52
5094 5093 6.52
5094 5095 7.62
5095 5094 7.62
5096 5097 7.56
5097 5096 7.56
5097 5098 8.52
5098 5097 8.52
5098 5099 8.28
5099 5098 8.28
5099 5100 8.79
5100 5099 8.79
5100 5101 8.19
5101 5100 8.19
5101 5102 7.93
5102 5101 7.93
5102 5103 8.24
5103 5102 8.24
5103 5104 8.27
5104 5103 8.27
5104 5105 9.17
5105 5104 9.17
5105 5106 9.11
5106 5105 9.11
5106 1856 10.56
1856 5106 10.56
1793 5110 6.28
5110 1793 6.28
5110 5111 5.18
5111 5110 5.18
5111 5112 5.96
5112 5111 5.96
5112 5113 5.81
5113 5112 5.81
5113 5114 5.05
5114 5113 5.05
5114 5115 5.09
5115 5114 5.09
5115 5116 5.02
5116 5115 5.02
5116 5117 4.85
5117 5116 4.85
5117 5118 4.59
5118 5117 4.59
5118 5119 4.02
5119 5118 4.02
5119 5120 5.61
5120 5119 5.61
5120 5121 3.71
5121 5120 3.71
5121 5108 24.47
5108 5121 24.47
5108 3301 16.55
3301 5108 16.55
5121 5122 6.92
5122 5121 6.92
5122 5123 7.11
5123 5122 7.11
5123 5124 7.10
5124 5123 7.10
5124 5125 6.71
5125 5124 6.71
5125 5126 6.86
5126 5125 6.86
5126 5127 7.71
5127 5126 7.71
5127 3304 6.40
3304 5127 6.40
5128 5129 6.28
5129 5128 6.28
5129 5130 6.43
5130 5129 6.43
5130 5131 6.00
5131 5130 6.00
5131 5132 6.31
5132 5131 6.31
5132 5133 5.90
5133 5132 5.90
5133 5134 6.43
5134 5133 6.43
5134 5135 6.38
5135 5134 6.38
5135 5136 5.81
5136 5135 5.81
5136 5137 7.16
5137 5136 7.16
5137 5138 6.83
5138 5137 6.83
5138 5139 8.19
5139 5138 8.19
5139 5140 6.82
5140 5139 6.82
5140 5141 6.18
5141 5140 6.18
5141 5142 9.60
5142 5141 9.60
4429 5148 23.98
5148 4429 23.98
1917 5149 4.09
5149 1917 4.09
5149 5150 3.58
5150 5149 3.58
5150 5151 3.04
5151 5150 3.04
5151 5152 5.98
5152 5151 5.98
5152 5160 3.70
5160 5152 3.70
5160 5153 2.51
5153 5160 2.51
5153 5154 5.13
5154 5153 5.13
5154 5155 5.57
5155 5154 5.57
5155 5156 4.49
5156 5155 4.49
5156 5157 6.93
5157 5156 6.93
5157 1506 4.29
1506 5157 4.29
1506 5158 4.77
5158 1506 4.77
5160 5161 5.32
5161 5160 5.32
5161 5162 4.51
5162 5161 4.51
5162 5163 5.17
5163 5162 5.17
5163 5164 5.39
5164 5163 5.39
5164 5165 5.22
5165 5164 5.22
5165 5166 6.62
5166 5165 6.62
1927 5167 18.76
5167 1927 18.76
5167 5156 6.20
5156 5167 6.20
5156 5168 7.70
5168 5156 7.70
5168 5166 10.38
5166 5168 10.38
5166 5169 7.52
5169 5166 7.52
5169 5170 8.96
5170 5169 8.96
5170 5171 7.81
5171 5170 7.81
5175 5176 5.12
5176 5175 5.12
5176 5177 4.24
5177 5176 4.24
5177 5178 4.71
5178 5177 4.71
5178 5179 3.92
5179 5178 3.92
5179 5180 2.91
5180 5179 2.91
5180 5181 3.99
5181 5180 3.99
5181 5182 4.34
5182 5181 4.34
5182 5183 4.39
5183 5182 4.39
5183 5184 4.73
5184 5183 4.73
5184 5185 5.19
5185 5184 5.19
5185 5186 4.80
5186 5185 4.80
5186 5187 5.56
5187 5186 5.56
5187 5188 5.37
5188 5187 5.37
5188 5189 5.28
5189 5188 5.28
5189 5190 4.66
5190 5189 4.66
5191 5192 5.87
5192 5191 5.87
5192 5193 5.81
5193 5192 5.81
5193 5194 4.44
5194 5193 4.44
5194 5195 3.80
5195 5194 3.80
5195 5196 5.27
5196 5195 5.27
5196 5197 4.69
5197 5196 4.69
5197 5198 5.22
5198 5197 5.22
5198 5199 5.09
5199 5198 5.09
5199 5200 4.87
5200 5199 4.87
5200 5201 5.71
5201 5200 5.71
5201 5202 5.49
5202 5201 5.49
5202 5203 5.64
5203 5202 5.64
5203 5204 6.03
5204 5203 6.03
5205 5206 5.74
5206 5205 5.74
5206 5207 5.43
5207 5206 5.43
5207 5208 6.47
5208 5207 6.47
5208 5209 6.24
5209 5208 6.24
5209 5210 6.68
5210 5209 6.68
5210 5211 6.52
5211 5210 6.52
5211 5212 5.99
5212 5211 5.99
5212 5213 7.54
5213 5212 7.54
5213 5214 9.08
5214 5213 9.08
5205 5216 5.95
5216 5205 5.95
5216 5217 6.27
5217 5216 6.27
5217 5218 6.03
5218 5217 6.03
5218 5219 6.56
5219 5218 6.56
5219 5220 5.85
5220 5219 5.85
5220 5221 6.85
5221 5220 6.85
5221 5222 6.35
5222 5221 6.35
5222 5223 4.93
5223 5222 4.93
5223 5224 6.00
5224 5223 6.00
5224 5225 6.80
5225 5224 6.80
5227 1465 21.44
1465 5227 21.44
1465 5231 48.87
5231 1465 48.87
1999 5236 8.89
5236 1999 8.89
5236 5237 5.26
5237 5236 5.26
5237 5238 5.61
5238 5237 5.61
5238 5239 6.45
5239 5238 6.45
5239 5240 5.95
5240 5239 5.95
5240 5241 5.80
5241 5240 5.80
5241 5242 5.18
5242 5241 5.18
5242 5243 5.13
5243 5242 5.13
5243 5244 4.69
5244 5243 4.69
5244 5245 5.16
5245 5244 5.16
1999 5246 6.28
5246 1999 6.28
5246 5247 5.95
5247 5246 5.95
5247 5248 5.69
5248 5247 5.69
5248 5249 5.42
5249 5248 5.42
5249 5250 5.56
5250 5249 5.56
5250 5251 6.24
5251 5250 6.24
5251 5252 5.80
5252 5251 5.80
5252 5253 6.05
5253 5252 6.05
5253 5254 5.85
5254 5253 5.85
5254 5255 5.92
5255 5254 5.92
3346 5257 7.08
5257 3346 7.08
5257 5258 6.85
5258 5257 6.85
5258 5259 7.08
5259 5258 7.08
5259 5260 8.05
5260 5259 8.05
5260 5261 7.51
5261 5260 7.51
5261 5262 7.87
5262 5261 7.87
5262 5263 7.16
5263 5262 7.16
5263 5264 6.63
5264 5263 6.63
3346 5265 6.70
5265 3346 6.70
5265 5266 5.92
5266 5265 5.92
5266 5267 7.01
5267 5266 7.01
5267 5268 7.34
5268 5267 7.34
5268 5269 7.54
5269 5268 7.54
5269 5270 7.58
5270 5269 7.58
5270 5271 7.37
5271 5270 7.37
5271 5272 9.00
5272 5271 9.00
3345 5273 7.43
5273 3345 7.43
5273 5274 7.07
5274 5273 7.07
5274 5275 7.39
5275 5274 7.39
5275 5276 5.98
5276 5275 5.98
5276 5277 7.46
5277 5276 7.46
5277 5278 5.80
5278 5277 5.80
5278 5279 6.25
5279 5278 6.25
5279 5280 10.08
5280 5279 10.08
3345 5281 8.40
5281 3345 8.40
5281 5282 6.14
5282 5281 6.14
5282 5283 7.16
5283 5282 7.16
5283 5284 6.99
5284 5283 6.99
5284 5285 7.25
5285 5284 7.25
5285 5286 6.36
5286 5285 6.36
5286 5287 6.71
5287 5286 6.71
5287 5288 6.85
5288 5287 6.85
1792 3361 85.69
3361 1792 85.69
5289 5301 10.64
5301 5289 10.64
5301 5302 7.83
5302 5301 7.83
5302 5303 7.75
5303 5302 7.75
5303 5304 8.11
5304 5303 8.11
5304 5305 8.02
5305 5304 8.02
5305 5306 8.11
5306 5305 8.11
5306 5307 6.95
5307 5306 6.95
5307 5308 6.34
5308 5307 6.34
5308 5309 6.09
5309 5308 6.09
5309 5310 6.19
5310 5309 6.19
3867 3868 8.16
3868 3867 8.16
3868 3869 8.66
3869 3868 8.66
3869 3870 9.09
3870 3869 9.09
3870 3871 9.66
3871 3870 9.66
3871 3872 9.49
3872 3871 9.49
3872 3873 9.62
3873 3872 9.62
3873 3874 10.08
3874 3873 10.08
3874 3875 8.35
3875 3874 8.35
3875 3876 7.42
3876 3875 7.42
3876 3877 6.51
3877 3876 6.51
3877 1788 12.34
1788 3877 12.34
3878 3879 5.45
3879 3878 5.45
3879 3880 4.04
3880 3879 4.04
3880 3881 4.13
3881 3880 4.13
3881 3882 4.65
3882 3881 4.65
3882 3883 4.97
3883 3882 4.97
3883 3884 4.41
3884 3883 4.41
3884 3885 4.03
3885 3884 4.03
3885 3886 4.11
3886 3885 4.11
3886 3887 4.24
3887 3886 4.24
3887 3888 4.09
3888 3887 4.09
3888 3889 3.73
3889 3888 3.73
3889 3890 3.40
3890 3889 3.40
3890 3891 4.39
3891 3890 4.39
3891 1788 5.31
1788 3891 5.31
3905 3906 4.41
3906 3905 4.41
3906 3907 4.05
3907 3906 4.05
3907 3908 4.35
3908 3907 4.35
3908 3909 4.58
3909 3908 4.58
3909 3910 5.11
3910 3909 5.11
3910 3911 4.71
3911 3910 4.71
3911 3912 4.65
3912 3911 4.65
3912 3913 4.73
3913 3912 4.73
3913 3914 3.95
3914 3913 3.95
3914 3915 3.74
3915 3914 3.74
3915 3916 3.20
3916 3915 3.20
3916 3917 3.63
3917 3916 3.63
3917 3918 3.76
3918 3917 3.76
3918 4393 4.69
4393 3918 4.69
3919 3920 10.23
3920 3919 10.23
3920 3921 9.35
3921 3920 9.35
3921 3922 8.37
3922 3921 8.37
3922 3923 9.69
3923 3922 9.69
3923 3924 9.90
3924 3923 9.90
3924 3925 9.07
3925 3924 9.07
3925 3926 8.66
3926 3925 8.66
3926 3927 8.72
3927 3926 8.72
3927 211 7.18
211 3927 7.18
211 212 6.29
212 211 6.29
212 4393 10.87
4393 212 10.87
222 223 6.16
223 222 6.16
223 224 7.04
224 223 7.04
224 225 6.32
225 224 6.32
225 226 7.13
226 225 7.13
226 227 6.63
227 226 6.63
227 228 6.76
228 227 6.76
228 229 6.09
229 228 6.09
229 230 5.29
230 229 5.29
230 231 6.04
231 230 6.04
231 232 5.22
232 231 5.22
232 233 5.76
233 232 5.76
233 234 7.12
234 233 7.12
234 235 6.99
235 234 6.99
235 236 6.56
236 235 6.56
236 237 6.95
237 236 6.95
237 238 6.06
238 237 6.06
238 239 7.30
239 238 7.30
240 241 8.58
241 240 8.58
241 242 9.55
242 241 9.55
242 243 9.21
243 242 9.21
243 244 8.57
244 243 8.57
244 245 8.65
245 244 8.65
245 246 8.19
246 245 8.19
246 247 8.13
247 246 8.13
247 248 7.67
248 247 7.67
248 249 8.00
249 248 8.00
249 250 6.33
250 249 6.33
250 251 6.93
251 250 6.93
251 1993 9.25
1993 251 9.25
252 253 6.94
253 252 6.94
253 254 6.01
254 253 6.01
254 255 5.21
255 254 5.21
255 256 5.46
256 255 5.46
256 257 5.86
257 256 5.86
257 258 6.43
258 257 6.43
258 260 5.68
260 258 5.68
260 261 5.75
261 260 5.75
261 262 5.25
262 261 5.25
262 263 5.57
263 262 5.57
263 264 4.73
264 263 4.73
264 265 5.67
265 264 5.67
265 266 7.06
266 265 7.06
266 267 6.56
267 266 6.56
267 268 6.55
268 267 6.55
268 269 6.63
269 268 6.63
269 271 6.63
271 269 6.63
271 270 8.50
270 271 8.50
5264 272 6.68
272 5264 6.68
272 273 6.56
273 272 6.56
273 274 5.77
274 273 5.77
274 275 6.31
275 274 6.31
275 276 6.41
276 275 6.41
276 277 5.93
277 276 5.93
277 282 6.36
282 277 6.36
282 283 5.48
283 282 5.48
283 284 4.53
284 283 4.53
284 3383 3.81
3383 284 3.81
5272 285 5.67
285 5272 5.67
285 286 6.01
286 285 6.01
286 287 5.49
287 286 5.49
287 288 6.22
288 287 6.22
288 290 6.22
290 288 6.22
290 291 5.28
291 290 5.28
291 292 6.25
292 291 6.25
292 293 5.82
293 292 5.82
293 294 5.98
294 293 5.98
294 3383 5.37
3383 294 5.37
5280 295 6.30
295 5280 6.30
295 296 6.38
296 295 6.38
296 297 5.83
297 296 5.83
297 352 5.95
352 297 5.95
352 353 6.16
353 352 6.16
353 354 6.78
354 353 6.78
354 355 5.96
355 354 5.96
355 356 5.81
356 355 5.81
356 306 3.67
306 356 3.67
306 3380 5.31
3380 306 5.31
139 2883 398.46
2883 139 398.46
2883 2354 317.13
2354 2883 317.13
2354 2886 21.75
2886 2354 21.75
2886 2885 3.63
2885 2886 3.63
2885 2884 2.66
2884 2885 2.66
2884 2353 3.06
2353 2884 3.06
2353 2890 3.28
2890 2353 3.28
2890 2889 3.19
2889 2890 3.19
2889 2888 3.58
2888 2889 3.58
2888 2887 3.27
2887 2888 3.27
2887 2352 2.92
2352 2887 2.92
2352 2894 2.62
2894 2352 2.62
2894 2893 2.62
2893 2894 2.62
2893 2892 2.81
2892 2893 2.81
2892 2891 3.13
2891 2892 3.13
2891 2346 2.73
2346 2891 2.73
2346 2895 3.58
2895 2346 3.58
2895 2896 3.53
2896 2895 3.53
2896 2897 2.94
2897 2896 2.94
2897 2898 3.96
2898 2897 3.96
2898 2344 4.17
2344 2898 4.17
2344 2340 15.53
2340 2344 15.53
2340 2337 17.10
2337 2340 17.10
2337 2334 61.38
2334 2337 61.38
2334 170 23.29
170 2334 23.29
2786 1803 9.16
1803 2786 9.16
1803 4726 6.54
4726 1803 6.54
4726 1804 4.95
1804 4726 4.95
1804 4725 3.89
4725 1804 3.89
4725 1805 4.91
1805 4725 4.91
1805 4724 4.54
4724 1805 4.54
4724 1806 4.60
1806 4724 4.60
1806 4723 4.78
4723 1806 4.78
4723 1807 5.39
1807 4723 5.39
1807 4721 4.53
4721 1807 4.53
4721 1808 4.76
1808 4721 4.76
1808 1809 5.23
1809 1808 5.23
1809 1810 9.46
1810 1809 9.46
4722 2787 47.91
2787 4722 47.91
204 578 7.21
578 204 7.21
578 579 5.64
579 578 5.64
579 580 6.12
580 579 6.12
580 581 6.77
581 580 6.77
581 582 6.97
582 581 6.97
582 583 5.53
583 582 5.53
583 584 6.27
584 583 6.27
584 585 5.48
585 584 5.48
585 586 5.67
586 585 5.67
586 587 5.26
587 586 5.26
587 576 6.44
576 587 6.44
5321 5330 11.40
5330 5321 11.40
5330 298 5.21
298 5330 5.21
298 4230 4.96
4230 298 4.96
4230 4231 5.00
4231 4230 5.00
4231 4232 5.49
4232 4231 5.49
4232 4233 4.76
4233 4232 4.76
4233 4229 4.67
4229 4233 4.67
4229 4234 4.84
4234 4229 4.84
4234 4235 5.26
4235 4234 5.26
4235 4236 4.09
4236 4235 4.09
4236 300 5.88
300 4236 5.88
784 2818 6.86
2818 784 6.86
2818 2822 5.34
2822 2818 5.34
2822 2831 4.93
2831 2822 4.93
2831 2832 4.42
2832 2831 4.42
2832 2833 4.35
2833 2832 4.35
2833 2834 4.55
2834 2833 4.55
2834 2835 4.64
2835 2834 4.64
2835 2836 4.71
2836 2835 4.71
2836 2837 4.45
2837 2836 4.45
2837 2838 4.71
2838 2837 4.71
2838 2841 4.55
2841 2838 4.55
2841 4474 4.34
4474 2841 4.34
4474 4473 4.30
4473 4474 4.30
4473 4476 5.59
4476 4473 5.59
4476 4475 3.54
4475 4476 3.54
4475 2840 5.03
2840 4475 5.03
2840 4734 7.76
4734 2840 7.76
4734 4211 19.23
4211 4734 19.23
4211 4218 9.83
4218 4211 9.83
4218 2788 5.76
2788 4218 5.76
33 2829 10.07
2829 33 10.07
2829 743 10.05
743 2829 10.05
743 2828 4.52
2828 743 4.52
2828 307 75.26
307 2828 75.26
3836 310 9.70
310 3836 9.70
310 308 40.60
308 310 40.60
3829 2370 7.36
2370 3829 7.36
2370 2369 4.78
2369 2370 4.78
2369 3029 4.38
3029 2369 4.38
3029 3031 4.22
3031 3029 4.22
3031 3032 2.97
3032 3031 2.97
3032 3035 4.22
3035 3032 4.22
3035 3036 5.10
3036 3035 5.10
3036 3041 4.53
3041 3036 4.53
3041 3047 5.27
3047 3041 5.27
3047 1500 2.91
1500 3047 2.91
1500 3832 2.53
3832 1500 2.53
3832 3052 2.64
3052 3832 2.64
3052 3054 3.47
3054 3052 3.47
3054 3055 3.13
3055 3054 3.13
3055 3059 3.99
3059 3055 3.99
3059 3833 5.18
3833 3059 5.18
3833 2270 2.63
2270 3833 2.63
2270 3066 4.82
3066 2270 4.82
3066 3069 3.27
3069 3066 3.27
3069 3834 3.91
3834 3069 3.91
3834 3073 3.30
3073 3834 3.30
3073 3077 4.11
3077 3073 4.11
3077 1498 4.46
1498 3077 4.46
1498 3086 3.85
3086 1498 3.85
3086 3830 5.54
3830 3086 5.54
3830 2248 6.14
2248 3830 6.14
2248 2258 10.97
2258 2248 10.97
2258 3 16.41
3 2258 16.41
2782 4204 2.73
4204 2782 2.73
4204 4205 3.47
4205 4204 3.47
4205 4206 3.43
4206 4205 3.43
4206 4207 3.79
4207 4206 3.79
4207 4208 3.77
4208 4207 3.77
4208 4209 3.81
4209 4208 3.81
4209 4210 3.00
4210 4209 3.00
2783 4204 3.45
4204 2783 3.45
4204 4197 24.71
4197 4204 24.71
4197 4194 4.27
4194 4197 4.27
4194 4192 4.00
4192 4194 4.00
4192 4191 4.22
4191 4192 4.22
4191 4189 4.38
4189 4191 4.38
4189 4188 4.59
4188 4189 4.59
4188 4185 4.29
4185 4188 4.29
4185 4181 4.27
4181 4185 4.27
4181 4182 4.24
4182 4181 4.24
4182 4179 4.08
4179 4182 4.08
4179 4177 3.53
4177 4179 3.53
4177 4174 3.49
4174 4177 3.49
4174 4175 3.93
4175 4174 3.93
4175 4172 3.69
4172 4175 3.69
4172 683 3.99
683 4172 3.99
683 4171 4.60
4171 683 4.60
2784 4190 1.14
4190 2784 1.14
4190 4187 3.98
4187 4190 3.98
4187 4186 3.88
4186 4187 3.88
4186 4184 4.21
4184 4186 4.21
4184 4183 3.84
4183 4184 3.84
4183 4180 4.38
4180 4183 4.38
4180 4178 4.42
4178 4180 4.42
4178 4176 5.02
4176 4178 5.02
4176 684 4.71
684 4176 4.71
684 3852 5.41
3852 684 5.41
3852 3854 39.74
3854 3852 39.74
1617 1616 10.69
1616 1617 10.69
1616 1615 5.54
1615 1616 5.54
1615 1614 6.65
1614 1615 6.65
1622 1621 6.38
1621 1622 6.38
1621 1470 3.48
1470 1621 3.48
1470 1471 3.55
1471 1470 3.55
1471 1620 3.33
1620 1471 3.33
1620 1619 3.06
1619 1620 3.06
1619 1472 2.65
1472 1619 2.65
1472 1473 2.62
1473 1472 2.62
1473 1474 2.77
1474 1473 2.77
1474 1475 2.52
1475 1474 2.52
1475 1476 3.83
1476 1475 3.83
1476 1618 3.44
1618 1476 3.44
1618 3157 5.30
3157 1618 5.30
1628 1627 4.70
1627 1628 4.70
1627 1626 3.90
1626 1627 3.90
1626 1477 4.42
1477 1626 4.42
1477 1478 3.79
1478 1477 3.79
1478 1479 4.79
1479 1478 4.79
1479 1625 3.45
1625 1479 3.45
1625 1480 4.17
1480 1625 4.17
1480 1624 3.32
1624 1480 3.32
1624 1623 5.32
1623 1624 5.32
1634 1633 10.22
1633 1634 10.22
1633 1632 6.13
1632 1633 6.13
1632 1631 7.30
1631 1632 7.30
1631 1630 5.80
1630 1631 5.80
1630 1629 6.93
1629 1630 6.93
